28

Cr         2.25692        0.35535        8.88328
N          0.82058        1.18462        7.74170
N          0.82063        1.18458       10.04029
N          2.25695        0.35530       12.33460
N         -0.61553        2.01376        5.46995
Si         0.82072        1.18455        5.99287
Si         0.82073        1.18450       11.80163
Cr         0.82070        2.84295        8.88328
N         -0.61564        3.67222        7.74170
N         -0.61559        3.67218       10.04029
N          0.82073        2.84291       12.33460
N         -2.05175        4.50137        5.46995
Si        -0.61550        3.67216        5.99287
Si        -0.61548        3.67211       11.80163
Cr         5.12936        0.35535        8.88328
N          3.69302        1.18462        7.74170
N          3.69307        1.18458       10.04029
N          5.12939        0.35530       12.33460
N          2.25691        2.01376        5.46995
Si         3.69316        1.18455        5.99287
Si         3.69318        1.18450       11.80163
Cr         3.69314        2.84295        8.88328
N          2.25680        3.67222        7.74170
N          2.25685        3.67218       10.04029
N          3.69317        2.84291       12.33460
N          0.82069        4.50137        5.46995
Si         2.25694        3.67216        5.99287
Si         2.25696        3.67211       11.80163
