28

Cr         2.30120        0.36261        8.88184
N          0.83631        1.20837        7.74848
N          0.83650        1.20826       10.03267
N          2.30184        0.36223       12.30903
N         -0.62722        2.05335        5.49793
Si         0.83739        1.20776        5.99726
Si         0.83718        1.20785       11.79713
Cr         0.83654        2.89948        8.88184
N         -0.62835        3.74524        7.74848
N         -0.62816        3.74512       10.03267
N          0.83718        2.89909       12.30903
N         -2.09188        4.59022        5.49793
Si        -0.62727        3.74462        5.99726
Si        -0.62748        3.74472       11.79713
Cr         5.23053        0.36261        8.88184
N          3.76563        1.20837        7.74848
N          3.76582        1.20826       10.03267
N          5.23116        0.36223       12.30903
N          2.30210        2.05335        5.49793
Si         3.76671        1.20776        5.99726
Si         3.76650        1.20785       11.79713
Cr         3.76586        2.89948        8.88184
N          2.30097        3.74524        7.74848
N          2.30116        3.74512       10.03267
N          3.76650        2.89909       12.30903
N          0.83744        4.59022        5.49793
Si         2.30205        3.74462        5.99726
Si         2.30184        3.74472       11.79713
