
     Program PWSCF v.7.4.1 starts on 13Mar2026 at  4: 4: 3 

     This program is part of the open-source Quantum ESPRESSO suite
     for quantum simulation of materials; please cite
         "P. Giannozzi et al., J. Phys.:Condens. Matter 21 395502 (2009);
         "P. Giannozzi et al., J. Phys.:Condens. Matter 29 465901 (2017);
         "P. Giannozzi et al., J. Chem. Phys. 152 154105 (2020);
          URL http://www.quantum-espresso.org", 
     in publications or presentations arising from this work. More details at
     http://www.quantum-espresso.org/quote

     Parallel version (MPI), running on     1 processors

     MPI processes distributed on     1 nodes
     10675 MiB available memory on the printing compute node when the environment starts
 
     Reading input from nscf.in

     Current dimensions of program PWSCF are:
     Max number of different atomic species (ntypx) = 10
     Max number of k-points (npk) =  40000
     Max angular momentum in pseudopotentials (lmaxx) =  4

     Atomic positions and unit cell read from directory:
     ./tmp/crsi2n4.save/
 
     Message from routine setup:
     no reason to have ecutrho>4*ecutwfc
 
     Subspace diagonalization in iterative solution of the eigenvalue problem:
     a serial algorithm will be used

 
     G-vector sticks info
     --------------------
     sticks:   dense  smooth     PW     G-vecs:    dense   smooth      PW
     Sum         847     673    199               140931   100699   16027
 
     Using Slab Decomposition
 


     bravais-lattice index     =            4
     lattice parameter (alat)  =       5.5356  a.u.
     unit-cell volume          =    1041.3958 (a.u.)^3
     number of atoms/cell      =            7
     number of atomic types    =            3
     number of electrons       =        42.00
     number of Kohn-Sham states=           21
     kinetic-energy cutoff     =      80.0000  Ry
     charge density cutoff     =     400.0000  Ry
     Exchange-correlation= PBE
                           (   1   4   3   4   0   0   0)

     GPU acceleration is ACTIVE.  1 visible GPUs per MPI rank
     GPU-aware MPI enabled


     GPU used by master process:

        Device Number: 0
        Device name: NVIDIA RTX A2000 12GB
        Compute capability : 86
        Ratio of single to double precision performance  : 64
        Memory Clock Rate (KHz): 6001000
        Memory Bus Width (bits): 192
        Peak Memory Bandwidth (GB/s): 288.05

     celldm(1)=   5.535613  celldm(2)=   0.000000  celldm(3)=   7.089051
     celldm(4)=   0.000000  celldm(5)=   0.000000  celldm(6)=   0.000000

     crystal axes: (cart. coord. in units of alat)
               a(1) = (   1.000000   0.000000   0.000000 )  
               a(2) = (  -0.500000   0.866025   0.000000 )  
               a(3) = (   0.000000   0.000000   7.089051 )  

     reciprocal axes: (cart. coord. in units 2 pi/alat)
               b(1) = (  1.000000  0.577350 -0.000000 )  
               b(2) = (  0.000000  1.154701  0.000000 )  
               b(3) = (  0.000000 -0.000000  0.141063 )  


     PseudoPot. # 1 for Cr read from file:
     /home/rao/Desktop/pseudo/ONCVPSP/sg15/Cr_ONCV_PBE_sr.upf
     MD5 check sum: 8c25700f94aee329d8014e8d8708abb4
     Pseudo is Norm-conserving, Zval = 14.0
     Generated using ONCVPSP code by D. R. Hamann
     Using radial grid of 1490 points,  6 beta functions with: 
                l(1) =   0
                l(2) =   0
                l(3) =   1
                l(4) =   1
                l(5) =   2
                l(6) =   2

     PseudoPot. # 2 for Si read from file:
     /home/rao/Desktop/pseudo/ONCVPSP/sg15/Si_ONCV_PBE_sr.upf
     MD5 check sum: 8553c464762ac42b85b1eed164b4d029
     Pseudo is Norm-conserving, Zval =  4.0
     Generated using ONCVPSP code by D. R. Hamann
     Using radial grid of 1510 points,  4 beta functions with: 
                l(1) =   0
                l(2) =   0
                l(3) =   1
                l(4) =   1

     PseudoPot. # 3 for N  read from file:
     /home/rao/Desktop/pseudo/ONCVPSP/sg15/N_ONCV_PBE_sr.upf
     MD5 check sum: 584dff68b02d160f04ff099e3496afa1
     Pseudo is Norm-conserving, Zval =  5.0
     Generated using ONCVPSP code by D. R. Hamann
     Using radial grid of 1058 points,  4 beta functions with: 
                l(1) =   0
                l(2) =   0
                l(3) =   1
                l(4) =   1

     atomic species   valence    mass     pseudopotential
     Cr               14.00    51.99600     Cr( 1.00)
     Si                4.00    28.08600     Si( 1.00)
     N                 5.00    14.00700     N ( 1.00)

     No symmetry found


                                    s                        frac. trans.

      isym =  1     identity                                     

 cryst.   s( 1) = (     1          0          0      )
                  (     0          1          0      )
                  (     0          0          1      )

 cart.    s( 1) = (  1.0000000  0.0000000  0.0000000 )
                  (  0.0000000  1.0000000  0.0000000 )
                  (  0.0000000  0.0000000  1.0000000 )


     point group C_1 (1)    
     there are  1 classes
     the character table:

       E    
A      1.00

     the symmetry operations in each class and the name of the first element:

     E        1
          identity                                               

   Cartesian axes

     site n.     atom                  positions (alat units)
         1        Cr     tau(   1) = (   0.7855765   0.1237869   3.0320475  )
         2        N      tau(   2) = (   0.2854967   0.4125098   2.6451472  )
         3        N      tau(   3) = (   0.2855607   0.4124693   3.4249131  )
         4        N      tau(   4) = (   0.7857934   0.1236563   4.2020077  )
         5        N      tau(   5) = (  -0.2141175   0.7009648   1.8768633  )
         6        Si     tau(   6) = (   0.2858646   0.4123000   2.0473202  )
         7        Si     tau(   7) = (   0.2857925   0.4123319   4.0272574  )

   Crystallographic axes

     site n.     atom                  positions (cryst. coord.)
         1        Cr     tau(   1) = (  0.8570449  0.1429368  0.4277085  )
         2        N      tau(   2) = (  0.5236594  0.4763253  0.3731313  )
         3        N      tau(   3) = (  0.5237000  0.4762785  0.4831271  )
         4        N      tau(   4) = (  0.8571864  0.1427860  0.5927461  )
         5        N      tau(   5) = (  0.1905847  0.8094045  0.2647552  )
         6        Si     tau(   6) = (  0.5239062  0.4760830  0.2888003  )
         7        Si     tau(   7) = (  0.5238525  0.4761199  0.5680954  )

     number of k points=   100
                       cart. coord. in units 2pi/alat
        k(    1) = (   0.0000000   0.0000000   0.0000000), wk =   0.0102041
        k(    2) = (   0.0000000   0.0824786   0.0000000), wk =   0.0204082
        k(    3) = (   0.0000000   0.1649572   0.0000000), wk =   0.0204082
        k(    4) = (   0.0000000   0.2474358   0.0000000), wk =   0.0204082
        k(    5) = (   0.0000000   0.3299144   0.0000000), wk =   0.0204082
        k(    6) = (   0.0000000   0.4123930   0.0000000), wk =   0.0204082
        k(    7) = (   0.0000000   0.4948717   0.0000000), wk =   0.0204082
        k(    8) = (   0.0000000  -0.5773503   0.0000000), wk =   0.0102041
        k(    9) = (   0.0714286   0.1237179   0.0000000), wk =   0.0204082
        k(   10) = (   0.0714286   0.2061965   0.0000000), wk =   0.0204082
        k(   11) = (   0.0714286   0.2886751   0.0000000), wk =   0.0204082
        k(   12) = (   0.0714286   0.3711537   0.0000000), wk =   0.0204082
        k(   13) = (   0.0714286   0.4536324   0.0000000), wk =   0.0204082
        k(   14) = (   0.0714286   0.5361110   0.0000000), wk =   0.0204082
        k(   15) = (   0.1428571   0.2474358   0.0000000), wk =   0.0204082
        k(   16) = (   0.1428571   0.3299144   0.0000000), wk =   0.0204082
        k(   17) = (   0.1428571   0.4123930   0.0000000), wk =   0.0204082
        k(   18) = (   0.1428571   0.4948717   0.0000000), wk =   0.0204082
        k(   19) = (   0.1428571   0.5773503   0.0000000), wk =   0.0204082
        k(   20) = (   0.2142857   0.3711537   0.0000000), wk =   0.0204082
        k(   21) = (   0.2142857   0.4536324   0.0000000), wk =   0.0204082
        k(   22) = (   0.2142857   0.5361110   0.0000000), wk =   0.0204082
        k(   23) = (   0.2857143   0.4948717   0.0000000), wk =   0.0204082
        k(   24) = (   0.2857143   0.5773503   0.0000000), wk =   0.0204082
        k(   25) = (  -0.0714286   0.0412393   0.0000000), wk =   0.0204082
        k(   26) = (   0.0714286   0.0412393   0.0000000), wk =   0.0204082
        k(   27) = (  -0.1428571   0.0824786   0.0000000), wk =   0.0204082
        k(   28) = (   0.1428571   0.0824786   0.0000000), wk =   0.0204082
        k(   29) = (  -0.2142857   0.1237179   0.0000000), wk =   0.0204082
        k(   30) = (   0.2142857   0.1237179   0.0000000), wk =   0.0204082
        k(   31) = (  -0.2857143   0.1649572   0.0000000), wk =   0.0204082
        k(   32) = (   0.2857143   0.1649572   0.0000000), wk =   0.0204082
        k(   33) = (  -0.3571429   0.2061965   0.0000000), wk =   0.0204082
        k(   34) = (   0.3571429   0.2061965   0.0000000), wk =   0.0204082
        k(   35) = (  -0.4285714   0.2474358   0.0000000), wk =   0.0204082
        k(   36) = (   0.4285714   0.2474358   0.0000000), wk =   0.0204082
        k(   37) = (   0.5000000  -0.2886751   0.0000000), wk =   0.0102041
        k(   38) = (  -0.5000000  -0.2886751   0.0000000), wk =   0.0102041
        k(   39) = (  -0.0714286   0.1237179   0.0000000), wk =   0.0204082
        k(   40) = (   0.1428571   0.0000000   0.0000000), wk =   0.0204082
        k(   41) = (  -0.0714286   0.2061965   0.0000000), wk =   0.0204082
        k(   42) = (  -0.1428571   0.1649572   0.0000000), wk =   0.0204082
        k(   43) = (   0.2142857   0.0412393   0.0000000), wk =   0.0204082
        k(   44) = (  -0.1428571  -0.1649572   0.0000000), wk =   0.0204082
        k(   45) = (   0.2142857  -0.0412393   0.0000000), wk =   0.0204082
        k(   46) = (  -0.0714286   0.2886751   0.0000000), wk =   0.0204082
        k(   47) = (  -0.2142857   0.2061965   0.0000000), wk =   0.0204082
        k(   48) = (   0.2857143   0.0824786   0.0000000), wk =   0.0204082
        k(   49) = (  -0.2142857  -0.2061965   0.0000000), wk =   0.0204082
        k(   50) = (   0.2857143  -0.0824786   0.0000000), wk =   0.0204082
        k(   51) = (  -0.0714286   0.3711537   0.0000000), wk =   0.0204082
        k(   52) = (  -0.2857143   0.2474358   0.0000000), wk =   0.0204082
        k(   53) = (   0.3571429   0.1237179   0.0000000), wk =   0.0204082
        k(   54) = (  -0.2857143  -0.2474358   0.0000000), wk =   0.0204082
        k(   55) = (   0.3571429  -0.1237179   0.0000000), wk =   0.0204082
        k(   56) = (  -0.0714286   0.4536324   0.0000000), wk =   0.0204082
        k(   57) = (  -0.3571429   0.2886751   0.0000000), wk =   0.0204082
        k(   58) = (   0.4285714   0.1649572   0.0000000), wk =   0.0204082
        k(   59) = (  -0.3571429  -0.2886751   0.0000000), wk =   0.0204082
        k(   60) = (   0.4285714  -0.1649572   0.0000000), wk =   0.0204082
        k(   61) = (  -0.0714286   0.5361110   0.0000000), wk =   0.0204082
        k(   62) = (  -0.4285714   0.3299144   0.0000000), wk =   0.0204082
        k(   63) = (   0.5000000   0.2061965   0.0000000), wk =   0.0204082
        k(   64) = (  -0.4285714  -0.3299144   0.0000000), wk =   0.0204082
        k(   65) = (   0.5000000  -0.2061965   0.0000000), wk =   0.0204082
        k(   66) = (  -0.1428571   0.2474358   0.0000000), wk =   0.0204082
        k(   67) = (   0.2857143   0.0000000   0.0000000), wk =   0.0204082
        k(   68) = (  -0.1428571   0.3299144   0.0000000), wk =   0.0204082
        k(   69) = (  -0.2142857   0.2886751   0.0000000), wk =   0.0204082
        k(   70) = (   0.3571429   0.0412393   0.0000000), wk =   0.0204082
        k(   71) = (  -0.2142857  -0.2886751   0.0000000), wk =   0.0204082
        k(   72) = (   0.3571429  -0.0412393   0.0000000), wk =   0.0204082
        k(   73) = (  -0.1428571   0.4123930   0.0000000), wk =   0.0204082
        k(   74) = (  -0.2857143   0.3299144   0.0000000), wk =   0.0204082
        k(   75) = (   0.4285714   0.0824786   0.0000000), wk =   0.0204082
        k(   76) = (  -0.2857143  -0.3299144   0.0000000), wk =   0.0204082
        k(   77) = (   0.4285714  -0.0824786   0.0000000), wk =   0.0204082
        k(   78) = (  -0.1428571   0.4948717   0.0000000), wk =   0.0204082
        k(   79) = (  -0.3571429   0.3711537   0.0000000), wk =   0.0204082
        k(   80) = (   0.5000000   0.1237179   0.0000000), wk =   0.0204082
        k(   81) = (  -0.3571429  -0.3711537   0.0000000), wk =   0.0204082
        k(   82) = (   0.5000000  -0.1237179   0.0000000), wk =   0.0204082
        k(   83) = (  -0.4285714   0.4123930   0.0000000), wk =   0.0204082
        k(   84) = (   0.5714286   0.1649572   0.0000000), wk =   0.0204082
        k(   85) = (  -0.2142857   0.3711537   0.0000000), wk =   0.0204082
        k(   86) = (   0.4285714   0.0000000   0.0000000), wk =   0.0204082
        k(   87) = (  -0.2142857   0.4536324   0.0000000), wk =   0.0204082
        k(   88) = (  -0.2857143   0.4123930   0.0000000), wk =   0.0204082
        k(   89) = (   0.5000000   0.0412393   0.0000000), wk =   0.0204082
        k(   90) = (  -0.2857143  -0.4123930   0.0000000), wk =   0.0204082
        k(   91) = (   0.5000000  -0.0412393   0.0000000), wk =   0.0204082
        k(   92) = (  -0.2142857   0.5361110   0.0000000), wk =   0.0204082
        k(   93) = (  -0.3571429   0.4536324   0.0000000), wk =   0.0204082
        k(   94) = (   0.5714286   0.0824786   0.0000000), wk =   0.0204082
        k(   95) = (  -0.3571429  -0.4536324   0.0000000), wk =   0.0204082
        k(   96) = (   0.5714286  -0.0824786   0.0000000), wk =   0.0204082
        k(   97) = (  -0.2857143   0.4948717   0.0000000), wk =   0.0204082
        k(   98) = (   0.5714286   0.0000000   0.0000000), wk =   0.0204082
        k(   99) = (  -0.3571429   0.5361110   0.0000000), wk =   0.0204082
        k(  100) = (   0.6428571   0.0412393   0.0000000), wk =   0.0204082

                       cryst. coord.
        k(    1) = (   0.0000000   0.0000000   0.0000000), wk =   0.0102041
        k(    2) = (   0.0000000   0.0714286   0.0000000), wk =   0.0204082
        k(    3) = (   0.0000000   0.1428571   0.0000000), wk =   0.0204082
        k(    4) = (   0.0000000   0.2142857   0.0000000), wk =   0.0204082
        k(    5) = (   0.0000000   0.2857143   0.0000000), wk =   0.0204082
        k(    6) = (   0.0000000   0.3571429   0.0000000), wk =   0.0204082
        k(    7) = (   0.0000000   0.4285714   0.0000000), wk =   0.0204082
        k(    8) = (   0.0000000  -0.5000000   0.0000000), wk =   0.0102041
        k(    9) = (   0.0714286   0.0714286   0.0000000), wk =   0.0204082
        k(   10) = (   0.0714286   0.1428571   0.0000000), wk =   0.0204082
        k(   11) = (   0.0714286   0.2142857   0.0000000), wk =   0.0204082
        k(   12) = (   0.0714286   0.2857143   0.0000000), wk =   0.0204082
        k(   13) = (   0.0714286   0.3571429   0.0000000), wk =   0.0204082
        k(   14) = (   0.0714286   0.4285714   0.0000000), wk =   0.0204082
        k(   15) = (   0.1428571   0.1428571   0.0000000), wk =   0.0204082
        k(   16) = (   0.1428571   0.2142857   0.0000000), wk =   0.0204082
        k(   17) = (   0.1428571   0.2857143   0.0000000), wk =   0.0204082
        k(   18) = (   0.1428571   0.3571429   0.0000000), wk =   0.0204082
        k(   19) = (   0.1428571   0.4285714   0.0000000), wk =   0.0204082
        k(   20) = (   0.2142857   0.2142857   0.0000000), wk =   0.0204082
        k(   21) = (   0.2142857   0.2857143   0.0000000), wk =   0.0204082
        k(   22) = (   0.2142857   0.3571429   0.0000000), wk =   0.0204082
        k(   23) = (   0.2857143   0.2857143   0.0000000), wk =   0.0204082
        k(   24) = (   0.2857143   0.3571429   0.0000000), wk =   0.0204082
        k(   25) = (  -0.0714286   0.0714286   0.0000000), wk =   0.0204082
        k(   26) = (   0.0714286   0.0000000   0.0000000), wk =   0.0204082
        k(   27) = (  -0.1428571   0.1428571   0.0000000), wk =   0.0204082
        k(   28) = (   0.1428571   0.0000000   0.0000000), wk =   0.0204082
        k(   29) = (  -0.2142857   0.2142857   0.0000000), wk =   0.0204082
        k(   30) = (   0.2142857   0.0000000   0.0000000), wk =   0.0204082
        k(   31) = (  -0.2857143   0.2857143   0.0000000), wk =   0.0204082
        k(   32) = (   0.2857143   0.0000000   0.0000000), wk =   0.0204082
        k(   33) = (  -0.3571429   0.3571429   0.0000000), wk =   0.0204082
        k(   34) = (   0.3571429   0.0000000   0.0000000), wk =   0.0204082
        k(   35) = (  -0.4285714   0.4285714   0.0000000), wk =   0.0204082
        k(   36) = (   0.4285714   0.0000000   0.0000000), wk =   0.0204082
        k(   37) = (   0.5000000  -0.5000000   0.0000000), wk =   0.0102041
        k(   38) = (  -0.5000000  -0.0000000   0.0000000), wk =   0.0102041
        k(   39) = (  -0.0714286   0.1428571   0.0000000), wk =   0.0204082
        k(   40) = (   0.1428571  -0.0714286   0.0000000), wk =   0.0204082
        k(   41) = (  -0.0714286   0.2142857   0.0000000), wk =   0.0204082
        k(   42) = (  -0.1428571   0.2142857   0.0000000), wk =   0.0204082
        k(   43) = (   0.2142857  -0.0714286   0.0000000), wk =   0.0204082
        k(   44) = (  -0.1428571  -0.0714286   0.0000000), wk =   0.0204082
        k(   45) = (   0.2142857  -0.1428571   0.0000000), wk =   0.0204082
        k(   46) = (  -0.0714286   0.2857143   0.0000000), wk =   0.0204082
        k(   47) = (  -0.2142857   0.2857143   0.0000000), wk =   0.0204082
        k(   48) = (   0.2857143  -0.0714286   0.0000000), wk =   0.0204082
        k(   49) = (  -0.2142857  -0.0714286   0.0000000), wk =   0.0204082
        k(   50) = (   0.2857143  -0.2142857   0.0000000), wk =   0.0204082
        k(   51) = (  -0.0714286   0.3571429   0.0000000), wk =   0.0204082
        k(   52) = (  -0.2857143   0.3571429   0.0000000), wk =   0.0204082
        k(   53) = (   0.3571429  -0.0714286   0.0000000), wk =   0.0204082
        k(   54) = (  -0.2857143  -0.0714286   0.0000000), wk =   0.0204082
        k(   55) = (   0.3571429  -0.2857143   0.0000000), wk =   0.0204082
        k(   56) = (  -0.0714286   0.4285714   0.0000000), wk =   0.0204082
        k(   57) = (  -0.3571429   0.4285714   0.0000000), wk =   0.0204082
        k(   58) = (   0.4285714  -0.0714286   0.0000000), wk =   0.0204082
        k(   59) = (  -0.3571429  -0.0714286   0.0000000), wk =   0.0204082
        k(   60) = (   0.4285714  -0.3571429   0.0000000), wk =   0.0204082
        k(   61) = (  -0.0714286   0.5000000   0.0000000), wk =   0.0204082
        k(   62) = (  -0.4285714   0.5000000   0.0000000), wk =   0.0204082
        k(   63) = (   0.5000000  -0.0714286   0.0000000), wk =   0.0204082
        k(   64) = (  -0.4285714  -0.0714286   0.0000000), wk =   0.0204082
        k(   65) = (   0.5000000  -0.4285714   0.0000000), wk =   0.0204082
        k(   66) = (  -0.1428571   0.2857143   0.0000000), wk =   0.0204082
        k(   67) = (   0.2857143  -0.1428571   0.0000000), wk =   0.0204082
        k(   68) = (  -0.1428571   0.3571429   0.0000000), wk =   0.0204082
        k(   69) = (  -0.2142857   0.3571429   0.0000000), wk =   0.0204082
        k(   70) = (   0.3571429  -0.1428571   0.0000000), wk =   0.0204082
        k(   71) = (  -0.2142857  -0.1428571   0.0000000), wk =   0.0204082
        k(   72) = (   0.3571429  -0.2142857   0.0000000), wk =   0.0204082
        k(   73) = (  -0.1428571   0.4285714   0.0000000), wk =   0.0204082
        k(   74) = (  -0.2857143   0.4285714   0.0000000), wk =   0.0204082
        k(   75) = (   0.4285714  -0.1428571   0.0000000), wk =   0.0204082
        k(   76) = (  -0.2857143  -0.1428571   0.0000000), wk =   0.0204082
        k(   77) = (   0.4285714  -0.2857143   0.0000000), wk =   0.0204082
        k(   78) = (  -0.1428571   0.5000000   0.0000000), wk =   0.0204082
        k(   79) = (  -0.3571429   0.5000000   0.0000000), wk =   0.0204082
        k(   80) = (   0.5000000  -0.1428571   0.0000000), wk =   0.0204082
        k(   81) = (  -0.3571429  -0.1428571   0.0000000), wk =   0.0204082
        k(   82) = (   0.5000000  -0.3571429   0.0000000), wk =   0.0204082
        k(   83) = (  -0.4285714   0.5714286   0.0000000), wk =   0.0204082
        k(   84) = (   0.5714286  -0.1428571   0.0000000), wk =   0.0204082
        k(   85) = (  -0.2142857   0.4285714   0.0000000), wk =   0.0204082
        k(   86) = (   0.4285714  -0.2142857   0.0000000), wk =   0.0204082
        k(   87) = (  -0.2142857   0.5000000   0.0000000), wk =   0.0204082
        k(   88) = (  -0.2857143   0.5000000   0.0000000), wk =   0.0204082
        k(   89) = (   0.5000000  -0.2142857   0.0000000), wk =   0.0204082
        k(   90) = (  -0.2857143  -0.2142857   0.0000000), wk =   0.0204082
        k(   91) = (   0.5000000  -0.2857143   0.0000000), wk =   0.0204082
        k(   92) = (  -0.2142857   0.5714286   0.0000000), wk =   0.0204082
        k(   93) = (  -0.3571429   0.5714286   0.0000000), wk =   0.0204082
        k(   94) = (   0.5714286  -0.2142857   0.0000000), wk =   0.0204082
        k(   95) = (  -0.3571429  -0.2142857   0.0000000), wk =   0.0204082
        k(   96) = (   0.5714286  -0.3571429   0.0000000), wk =   0.0204082
        k(   97) = (  -0.2857143   0.5714286   0.0000000), wk =   0.0204082
        k(   98) = (   0.5714286  -0.2857143   0.0000000), wk =   0.0204082
        k(   99) = (  -0.3571429   0.6428571   0.0000000), wk =   0.0204082
        k(  100) = (   0.6428571  -0.2857143   0.0000000), wk =   0.0204082

     Dense  grid:   140931 G-vectors     FFT dimensions: (  36,  36, 250)

     Smooth grid:   100699 G-vectors     FFT dimensions: (  32,  32, 225)

     Dynamical RAM for                 wfc:       4.03 MB

     Dynamical RAM for     wfc (w. buffer):       4.03 MB

     Dynamical RAM for           str. fact:       6.45 MB

     Dynamical RAM for           local pot:       0.00 MB

     Dynamical RAM for          nlocal pot:      12.67 MB

     Dynamical RAM for                qrad:       4.82 MB

     Dynamical RAM for          rho,v,vnew:      13.87 MB

     Dynamical RAM for           G-vectors:       8.83 MB

     Dynamical RAM for          h,s,v(r/c):       0.08 MB

     Dynamical RAM for          <psi|beta>:       0.02 MB

     Dynamical RAM for                 psi:       8.06 MB

     Dynamical RAM for                hpsi:       8.06 MB

     Dynamical RAM for      wfcinit/wfcrot:       8.07 MB

     Estimated static dynamical RAM per process >      71.63 MB

     Estimated max dynamical RAM per process >      87.86 MB
 ----2D----2D----2D----2D----2D----2D----2D----2D----2D----2D----2D----2D
  The code is running with the 2D cutoff
  Please refer to:
  Sohier, T., Calandra, M., & Mauri, F. (2017), 
  Density functional perturbation theory for gated two-dimensional heterostructures:
  Theoretical developments and application to flexural phonons in graphene.
  Physical Review B, 96(7), 75448. https://doi.org/10.1103/PhysRevB.96.075448
 ----2D----2D----2D----2D----2D----2D----2D----2D----2D----2D----2D----2D

     The potential is recalculated from file :
     ./tmp/crsi2n4.save/charge-density

     Starting wfcs are   34 randomized atomic wfcs

     Band Structure Calculation
     Davidson diagonalization with overlap

     Computing kpt #:     1  of   100
     total cpu time spent up to now is        2.9 secs

     Computing kpt #:     2  of   100
     total cpu time spent up to now is        4.9 secs

     Computing kpt #:     3  of   100
     total cpu time spent up to now is        7.0 secs

     Computing kpt #:     4  of   100
     total cpu time spent up to now is        8.9 secs

     Computing kpt #:     5  of   100
     total cpu time spent up to now is       10.8 secs

     Computing kpt #:     6  of   100
     total cpu time spent up to now is       13.1 secs

     Computing kpt #:     7  of   100
     total cpu time spent up to now is       15.3 secs

     Computing kpt #:     8  of   100
     total cpu time spent up to now is       17.6 secs

     Computing kpt #:     9  of   100
     total cpu time spent up to now is       19.7 secs

     Computing kpt #:    10  of   100
     total cpu time spent up to now is       21.8 secs

     Computing kpt #:    11  of   100
     total cpu time spent up to now is       23.7 secs

     Computing kpt #:    12  of   100
     total cpu time spent up to now is       25.9 secs

     Computing kpt #:    13  of   100
     total cpu time spent up to now is       28.3 secs

     Computing kpt #:    14  of   100
     total cpu time spent up to now is       30.7 secs

     Computing kpt #:    15  of   100
     total cpu time spent up to now is       32.7 secs

     Computing kpt #:    16  of   100
     total cpu time spent up to now is       34.9 secs

     Computing kpt #:    17  of   100
     total cpu time spent up to now is       37.2 secs

     Computing kpt #:    18  of   100
     total cpu time spent up to now is       39.5 secs

     Computing kpt #:    19  of   100
     total cpu time spent up to now is       41.8 secs

     Computing kpt #:    20  of   100
     total cpu time spent up to now is       44.0 secs

     Computing kpt #:    21  of   100
     total cpu time spent up to now is       46.0 secs

     Computing kpt #:    22  of   100
     total cpu time spent up to now is       48.1 secs

     Computing kpt #:    23  of   100
     total cpu time spent up to now is       50.1 secs

     Computing kpt #:    24  of   100
     total cpu time spent up to now is       52.1 secs

     Computing kpt #:    25  of   100
     total cpu time spent up to now is       54.2 secs

     Computing kpt #:    26  of   100
     total cpu time spent up to now is       56.3 secs

     Computing kpt #:    27  of   100
     total cpu time spent up to now is       58.4 secs

     Computing kpt #:    28  of   100
     total cpu time spent up to now is       60.5 secs

     Computing kpt #:    29  of   100
     total cpu time spent up to now is       62.6 secs

     Computing kpt #:    30  of   100
     total cpu time spent up to now is       64.7 secs

     Computing kpt #:    31  of   100
     total cpu time spent up to now is       66.7 secs

     Computing kpt #:    32  of   100
     total cpu time spent up to now is       68.8 secs

     Computing kpt #:    33  of   100
     total cpu time spent up to now is       71.0 secs

     Computing kpt #:    34  of   100
     total cpu time spent up to now is       73.4 secs

     Computing kpt #:    35  of   100
     total cpu time spent up to now is       75.7 secs

     Computing kpt #:    36  of   100
     total cpu time spent up to now is       78.1 secs

     Computing kpt #:    37  of   100
     total cpu time spent up to now is       80.5 secs

     Computing kpt #:    38  of   100
     total cpu time spent up to now is       82.9 secs

     Computing kpt #:    39  of   100
     total cpu time spent up to now is       85.1 secs

     Computing kpt #:    40  of   100
     total cpu time spent up to now is       87.3 secs

     Computing kpt #:    41  of   100
     total cpu time spent up to now is       89.4 secs

     Computing kpt #:    42  of   100
     total cpu time spent up to now is       91.5 secs

     Computing kpt #:    43  of   100
     total cpu time spent up to now is       93.7 secs

     Computing kpt #:    44  of   100
     total cpu time spent up to now is       95.9 secs

     Computing kpt #:    45  of   100
     total cpu time spent up to now is       98.1 secs

     Computing kpt #:    46  of   100
     total cpu time spent up to now is      100.2 secs

     Computing kpt #:    47  of   100
     total cpu time spent up to now is      102.3 secs

     Computing kpt #:    48  of   100
     total cpu time spent up to now is      104.5 secs

     Computing kpt #:    49  of   100
     total cpu time spent up to now is      106.6 secs

     Computing kpt #:    50  of   100
     total cpu time spent up to now is      108.8 secs

     Computing kpt #:    51  of   100
     total cpu time spent up to now is      111.0 secs

     Computing kpt #:    52  of   100
     total cpu time spent up to now is      113.3 secs

     Computing kpt #:    53  of   100
     total cpu time spent up to now is      115.6 secs

     Computing kpt #:    54  of   100
     total cpu time spent up to now is      117.7 secs

     Computing kpt #:    55  of   100
     total cpu time spent up to now is      120.0 secs

     Computing kpt #:    56  of   100
     total cpu time spent up to now is      122.5 secs

     Computing kpt #:    57  of   100
     total cpu time spent up to now is      125.0 secs

     Computing kpt #:    58  of   100
     total cpu time spent up to now is      127.4 secs

     Computing kpt #:    59  of   100
     total cpu time spent up to now is      129.7 secs

     Computing kpt #:    60  of   100
     total cpu time spent up to now is      132.2 secs

     Computing kpt #:    61  of   100
     total cpu time spent up to now is      134.7 secs

     Computing kpt #:    62  of   100
     total cpu time spent up to now is      137.2 secs

     Computing kpt #:    63  of   100
     total cpu time spent up to now is      139.7 secs

     Computing kpt #:    64  of   100
     total cpu time spent up to now is      142.1 secs

     Computing kpt #:    65  of   100
     total cpu time spent up to now is      144.6 secs

     Computing kpt #:    66  of   100
     total cpu time spent up to now is      146.7 secs

     Computing kpt #:    67  of   100
     total cpu time spent up to now is      148.9 secs

     Computing kpt #:    68  of   100
     total cpu time spent up to now is      151.2 secs

     Computing kpt #:    69  of   100
     total cpu time spent up to now is      153.4 secs

     Computing kpt #:    70  of   100
     total cpu time spent up to now is      155.6 secs

     Computing kpt #:    71  of   100
     total cpu time spent up to now is      157.9 secs

     Computing kpt #:    72  of   100
     total cpu time spent up to now is      160.1 secs

     Computing kpt #:    73  of   100
     total cpu time spent up to now is      162.4 secs

     Computing kpt #:    74  of   100
     total cpu time spent up to now is      164.8 secs

     Computing kpt #:    75  of   100
     total cpu time spent up to now is      167.2 secs

     Computing kpt #:    76  of   100
     total cpu time spent up to now is      169.6 secs

     Computing kpt #:    77  of   100
     total cpu time spent up to now is      172.0 secs

     Computing kpt #:    78  of   100
     total cpu time spent up to now is      174.3 secs

     Computing kpt #:    79  of   100
     total cpu time spent up to now is      176.8 secs

     Computing kpt #:    80  of   100
     total cpu time spent up to now is      179.3 secs

     Computing kpt #:    81  of   100
     total cpu time spent up to now is      181.7 secs

     Computing kpt #:    82  of   100
     total cpu time spent up to now is      184.2 secs

     Computing kpt #:    83  of   100
     total cpu time spent up to now is      186.6 secs

     Computing kpt #:    84  of   100
     total cpu time spent up to now is      188.9 secs

     Computing kpt #:    85  of   100
     total cpu time spent up to now is      191.0 secs

     Computing kpt #:    86  of   100
     total cpu time spent up to now is      193.1 secs

     Computing kpt #:    87  of   100
     total cpu time spent up to now is      195.4 secs

     Computing kpt #:    88  of   100
     total cpu time spent up to now is      197.5 secs

     Computing kpt #:    89  of   100
     total cpu time spent up to now is      199.7 secs

     Computing kpt #:    90  of   100
     total cpu time spent up to now is      201.9 secs

     Computing kpt #:    91  of   100
     total cpu time spent up to now is      204.0 secs

     Computing kpt #:    92  of   100
     total cpu time spent up to now is      206.3 secs

     Computing kpt #:    93  of   100
     total cpu time spent up to now is      208.4 secs

     Computing kpt #:    94  of   100
     total cpu time spent up to now is      210.6 secs

     Computing kpt #:    95  of   100
     total cpu time spent up to now is      212.9 secs

     Computing kpt #:    96  of   100
     total cpu time spent up to now is      215.2 secs

     Computing kpt #:    97  of   100
     total cpu time spent up to now is      217.2 secs

     Computing kpt #:    98  of   100
     total cpu time spent up to now is      219.3 secs

     Computing kpt #:    99  of   100
     total cpu time spent up to now is      221.4 secs

     Computing kpt #:   100  of   100
     total cpu time spent up to now is      223.5 secs

     ethr =  2.38E-13,  avg # of iterations =100.9

     total cpu time spent up to now is      223.5 secs

     End of band structure calculation

          k = 0.0000 0.0000 0.0000 ( 12573 PWs)   bands (ev):

   -77.7392 -48.9755 -48.9755 -48.8508 -23.8676 -23.7649 -21.2756 -19.8769
   -13.4748 -10.7655  -9.1941  -9.1938  -9.1275  -9.1268  -8.9128  -8.6790
    -8.6789  -7.3997  -7.3984  -7.1040  -5.1797

     occupation numbers 
     1.0000   1.0000   1.0000   1.0000   1.0000   1.0000   1.0000   1.0000
     1.0000   1.0000   1.0000   1.0000   1.0000   1.0000   1.0000   1.0000
     1.0000   1.0000   1.0000   1.0000   1.0000

          k = 0.0000 0.0825 0.0000 ( 12547 PWs)   bands (ev):

   -77.7380 -48.9853 -48.9778 -48.8491 -23.7867 -23.6851 -21.2173 -19.8468
   -13.4156 -10.7401  -9.6106  -9.5340  -9.2715  -9.2114  -8.8497  -8.7703
    -8.6303  -7.5167  -7.4786  -7.0092  -5.2397

     occupation numbers 
     1.0000   1.0000   1.0000   1.0000   1.0000   1.0000   1.0000   1.0000
     1.0000   1.0000   1.0000   1.0000   1.0000   1.0000   1.0000   1.0000
     1.0000   1.0000   1.0000   1.0000   1.0000

          k = 0.0000 0.1650 0.0000 ( 12539 PWs)   bands (ev):

   -77.7348 -49.0128 -48.9841 -48.8443 -23.5483 -23.4497 -21.0522 -19.7630
   -13.2624 -10.7512 -10.4886 -10.4166  -9.4842  -9.4344  -9.2293  -8.6123
    -8.4828  -7.7432  -7.6871  -7.0033  -5.4598

     occupation numbers 
     1.0000   1.0000   1.0000   1.0000   1.0000   1.0000   1.0000   1.0000
     1.0000   1.0000   1.0000   1.0000   1.0000   1.0000   1.0000   1.0000
     1.0000   1.0000   1.0000   1.0000   1.0000

          k = 0.0000 0.2474 0.0000 ( 12558 PWs)   bands (ev):

   -77.7301 -49.0523 -48.9932 -48.8373 -23.1665 -23.0724 -20.8100 -19.6454
   -13.1343 -11.7464 -11.4747 -10.5138  -9.7728  -9.7273  -9.7126  -8.4366
    -8.2555  -8.0726  -7.9554  -7.1248  -5.7727

     occupation numbers 
     1.0000   1.0000   1.0000   1.0000   1.0000   1.0000   1.0000   1.0000
     1.0000   1.0000   1.0000   1.0000   1.0000   1.0000   1.0000   1.0000
     1.0000   1.0000   1.0000   1.0000   1.0000

          k = 0.0000 0.3299 0.0000 ( 12570 PWs)   bands (ev):

   -77.7249 -49.0960 -49.0033 -48.8296 -22.6701 -22.5817 -20.5431 -19.5297
   -13.4581 -12.9161 -12.0151 -10.5076 -10.1430 -10.0678 -10.0200  -8.5132
    -8.2378  -8.2061  -7.9676  -7.2354  -6.0135

     occupation numbers 
     1.0000   1.0000   1.0000   1.0000   1.0000   1.0000   1.0000   1.0000
     1.0000   1.0000   1.0000   1.0000   1.0000   1.0000   1.0000   1.0000
     1.0000   1.0000   1.0000   1.0000   1.0000

          k = 0.0000 0.4124 0.0000 ( 12566 PWs)   bands (ev):

   -77.7201 -49.1350 -49.0124 -48.8226 -22.1154 -22.0338 -20.3262 -19.4654
   -14.2651 -13.9330 -11.9663 -10.7965 -10.3133 -10.2990 -10.2612  -8.8069
    -8.4566  -8.0308  -7.7019  -7.2901  -6.0968

     occupation numbers 
     1.0000   1.0000   1.0000   1.0000   1.0000   1.0000   1.0000   1.0000
     1.0000   1.0000   1.0000   1.0000   1.0000   1.0000   1.0000   1.0000
     1.0000   1.0000   1.0000   1.0000   1.0000

          k = 0.0000 0.4949 0.0000 ( 12600 PWs)   bands (ev):

   -77.7169 -49.1620 -49.0186 -48.8177 -21.6170 -21.5429 -20.2309 -19.4847
   -14.9349 -14.6364 -11.8266 -11.1215 -10.4734 -10.4179 -10.3881  -8.9383
    -8.6006  -7.8519  -7.5009  -7.3055  -6.0765

     occupation numbers 
     1.0000   1.0000   1.0000   1.0000   1.0000   1.0000   1.0000   1.0000
     1.0000   1.0000   1.0000   1.0000   1.0000   1.0000   1.0000   1.0000
     1.0000   1.0000   1.0000   1.0000   1.0000

          k = 0.0000-0.5774 0.0000 ( 12586 PWs)   bands (ev):

   -77.7157 -49.1716 -49.0209 -48.8160 -21.3944 -21.3238 -20.2299 -19.5220
   -15.1871 -14.8896 -11.7537 -11.2667 -10.5287 -10.4720 -10.4346  -8.9643
    -8.6504  -7.7653  -7.4254  -7.3079  -6.0554

     occupation numbers 
     1.0000   1.0000   1.0000   1.0000   1.0000   1.0000   1.0000   1.0000
     1.0000   1.0000   1.0000   1.0000   1.0000   1.0000   1.0000   1.0000
     1.0000   1.0000   1.0000   1.0000   1.0000

          k = 0.0714 0.1237 0.0000 ( 12544 PWs)   bands (ev):

   -77.7358 -49.0036 -48.9824 -48.8458 -23.6270 -23.5274 -21.1056 -19.7898
   -13.3086 -10.7114 -10.2084 -10.1522  -9.4744  -9.4216  -9.0498  -8.6593
    -8.5465  -7.6863  -7.6155  -6.9726  -5.3839

     occupation numbers 
     1.0000   1.0000   1.0000   1.0000   1.0000   1.0000   1.0000   1.0000
     1.0000   1.0000   1.0000   1.0000   1.0000   1.0000   1.0000   1.0000
     1.0000   1.0000   1.0000   1.0000   1.0000

          k = 0.0714 0.2062 0.0000 ( 12554 PWs)   bands (ev):

   -77.7318 -49.0361 -48.9911 -48.8399 -23.3166 -23.2207 -20.9015 -19.6886
   -13.1558 -11.2648 -11.0726 -10.5293  -9.8734  -9.7480  -9.3904  -8.4982
    -8.3734  -8.0577  -7.7410  -7.0496  -5.6585

     occupation numbers 
     1.0000   1.0000   1.0000   1.0000   1.0000   1.0000   1.0000   1.0000
     1.0000   1.0000   1.0000   1.0000   1.0000   1.0000   1.0000   1.0000
     1.0000   1.0000   1.0000   1.0000   1.0000

          k = 0.0714 0.2887 0.0000 ( 12570 PWs)   bands (ev):

   -77.7269 -49.0765 -49.0019 -48.8326 -22.8761 -22.7854 -20.6456 -19.5704
   -13.2051 -12.3730 -11.8374 -10.4934 -10.2626 -10.1041  -9.7889  -8.5289
    -8.3110  -8.1325  -7.8928  -7.1919  -5.9381

     occupation numbers 
     1.0000   1.0000   1.0000   1.0000   1.0000   1.0000   1.0000   1.0000
     1.0000   1.0000   1.0000   1.0000   1.0000   1.0000   1.0000   1.0000
     1.0000   1.0000   1.0000   1.0000   1.0000

          k = 0.0714 0.3712 0.0000 ( 12579 PWs)   bands (ev):

   -77.7219 -49.1165 -49.0128 -48.8252 -22.3460 -22.2614 -20.4012 -19.4779
   -13.8377 -13.4403 -11.9899 -10.7573 -10.4766 -10.2993 -10.1468  -8.8900
    -8.2388  -8.0378  -7.8818  -7.2728  -6.0911

     occupation numbers 
     1.0000   1.0000   1.0000   1.0000   1.0000   1.0000   1.0000   1.0000
     1.0000   1.0000   1.0000   1.0000   1.0000   1.0000   1.0000   1.0000
     1.0000   1.0000   1.0000   1.0000   1.0000

          k = 0.0714 0.4536 0.0000 ( 12579 PWs)   bands (ev):

   -77.7179 -49.1485 -49.0215 -48.8193 -21.8057 -21.7283 -20.2462 -19.4574
   -14.6008 -14.2915 -11.8705 -11.0688 -10.6868 -10.5061 -10.2997  -9.0578
    -8.4226  -7.9097  -7.7073  -7.2702  -6.0988

     occupation numbers 
     1.0000   1.0000   1.0000   1.0000   1.0000   1.0000   1.0000   1.0000
     1.0000   1.0000   1.0000   1.0000   1.0000   1.0000   1.0000   1.0000
     1.0000   1.0000   1.0000   1.0000   1.0000

          k = 0.0714 0.5361 0.0000 ( 12596 PWs)   bands (ev):

   -77.7157 -49.1662 -49.0263 -48.8160 -21.4170 -21.3458 -20.2157 -19.5019
   -15.0684 -14.7698 -11.7606 -11.2738 -10.7770 -10.6948 -10.3810  -9.0521
    -8.5931  -7.7856  -7.5960  -7.2490  -6.0547

     occupation numbers 
     1.0000   1.0000   1.0000   1.0000   1.0000   1.0000   1.0000   1.0000
     1.0000   1.0000   1.0000   1.0000   1.0000   1.0000   1.0000   1.0000
     1.0000   1.0000   1.0000   1.0000   1.0000

          k = 0.1429 0.2474 0.0000 ( 12544 PWs)   bands (ev):

   -77.7276 -49.0677 -49.0032 -48.8336 -22.9466 -22.8550 -20.6828 -19.5855
   -13.1345 -12.0929 -11.6630 -10.4952 -10.4650 -10.2221  -9.6544  -8.5735
    -8.3478  -8.2076  -7.7245  -7.1690  -5.9052

     occupation numbers 
     1.0000   1.0000   1.0000   1.0000   1.0000   1.0000   1.0000   1.0000
     1.0000   1.0000   1.0000   1.0000   1.0000   1.0000   1.0000   1.0000
     1.0000   1.0000   1.0000   1.0000   1.0000

          k = 0.1429 0.3299 0.0000 ( 12558 PWs)   bands (ev):

   -77.7229 -49.1017 -49.0176 -48.8267 -22.4680 -22.3818 -20.4462 -19.4869
   -13.5109 -12.9981 -11.9084 -11.0237 -10.8493 -10.2850  -9.9797  -9.0340
    -8.2206  -8.1118  -7.7119  -7.3159  -6.0905

     occupation numbers 
     1.0000   1.0000   1.0000   1.0000   1.0000   1.0000   1.0000   1.0000
     1.0000   1.0000   1.0000   1.0000   1.0000   1.0000   1.0000   1.0000
     1.0000   1.0000   1.0000   1.0000   1.0000

          k = 0.1429 0.4124 0.0000 ( 12589 PWs)   bands (ev):

   -77.7187 -49.1317 -49.0310 -48.8204 -21.9374 -21.8577 -20.2605 -19.4362
   -14.1833 -13.8370 -11.8766 -11.4165 -11.2078 -10.3762 -10.2113  -9.3014
    -8.1977  -8.1245  -7.7540  -7.2914  -6.1301

     occupation numbers 
     1.0000   1.0000   1.0000   1.0000   1.0000   1.0000   1.0000   1.0000
     1.0000   1.0000   1.0000   1.0000   1.0000   1.0000   1.0000   1.0000
     1.0000   1.0000   1.0000   1.0000   1.0000

          k = 0.1429 0.4949 0.0000 ( 12593 PWs)   bands (ev):

   -77.7157 -49.1523 -49.0404 -48.8160 -21.4655 -21.3927 -20.1870 -19.4590
   -14.7498 -14.4416 -11.8953 -11.6373 -11.2675 -10.6944 -10.3389  -9.2620
    -8.4488  -8.1082  -7.6810  -7.1957  -6.0625

     occupation numbers 
     1.0000   1.0000   1.0000   1.0000   1.0000   1.0000   1.0000   1.0000
     1.0000   1.0000   1.0000   1.0000   1.0000   1.0000   1.0000   1.0000
     1.0000   1.0000   1.0000   1.0000   1.0000

          k = 0.1429 0.5774 0.0000 ( 12612 PWs)   bands (ev):

   -77.7147 -49.1597 -49.0437 -48.8144 -21.2568 -21.1864 -20.1925 -19.4936
   -14.9675 -14.6634 -11.9336 -11.7111 -11.1523 -10.9151 -10.4096  -9.1529
    -8.6242  -8.1009  -7.6230  -7.1558  -6.0145

     occupation numbers 
     1.0000   1.0000   1.0000   1.0000   1.0000   1.0000   1.0000   1.0000
     1.0000   1.0000   1.0000   1.0000   1.0000   1.0000   1.0000   1.0000
     1.0000   1.0000   1.0000   1.0000   1.0000

          k = 0.2143 0.3712 0.0000 ( 12578 PWs)   bands (ev):

   -77.7189 -49.1232 -49.0370 -48.8208 -21.9843 -21.9038 -20.2666 -19.4286
   -13.9621 -13.5744 -11.8675 -11.6227 -11.5780 -10.2260 -10.1682  -9.4297
    -8.3282  -8.0958  -7.6312  -7.3708  -6.1449

     occupation numbers 
     1.0000   1.0000   1.0000   1.0000   1.0000   1.0000   1.0000   1.0000
     1.0000   1.0000   1.0000   1.0000   1.0000   1.0000   1.0000   1.0000
     1.0000   1.0000   1.0000   1.0000   1.0000

          k = 0.2143 0.4536 0.0000 ( 12607 PWs)   bands (ev):

   -77.7157 -49.1380 -49.0550 -48.8160 -21.5022 -21.4282 -20.1668 -19.4267
   -14.3992 -14.0588 -12.3050 -12.1448 -11.4738 -10.4234 -10.2856  -9.4701
    -8.5973  -8.2018  -7.6717  -7.2054  -6.0708

     occupation numbers 
     1.0000   1.0000   1.0000   1.0000   1.0000   1.0000   1.0000   1.0000
     1.0000   1.0000   1.0000   1.0000   1.0000   1.0000   1.0000   1.0000
     1.0000   1.0000   1.0000   1.0000   1.0000

          k = 0.2143 0.5361 0.0000 ( 12638 PWs)   bands (ev):

   -77.7139 -49.1451 -49.0659 -48.8134 -21.1649 -21.0941 -20.1628 -19.4673
   -14.6779 -14.3527 -12.5701 -12.4327 -11.2159 -10.6758 -10.4390  -9.2539
    -8.8470  -8.4100  -7.6063  -7.0874  -5.9659

     occupation numbers 
     1.0000   1.0000   1.0000   1.0000   1.0000   1.0000   1.0000   1.0000
     1.0000   1.0000   1.0000   1.0000   1.0000   1.0000   1.0000   1.0000
     1.0000   1.0000   1.0000   1.0000   1.0000

          k = 0.2857 0.4949 0.0000 ( 12618 PWs)   bands (ev):

   -77.7137 -49.1350 -49.0788 -48.8130 -21.1369 -21.0660 -20.1482 -19.4528
   -14.4623 -14.0993 -12.9575 -12.8395 -11.2214 -10.5421 -10.3228  -9.4497
    -9.0058  -8.4299  -7.6090  -7.0686  -5.9422

     occupation numbers 
     1.0000   1.0000   1.0000   1.0000   1.0000   1.0000   1.0000   1.0000
     1.0000   1.0000   1.0000   1.0000   1.0000   1.0000   1.0000   1.0000
     1.0000   1.0000   1.0000   1.0000   1.0000

          k = 0.2857 0.5774 0.0000 ( 12650 PWs)   bands (ev):

   -77.7130 -49.1302 -49.0910 -48.8119 -20.9852 -20.9105 -20.1644 -19.4745
   -14.4490 -14.0602 -13.2277 -13.1512 -11.0634 -10.6306 -10.2852  -9.5970
    -8.9582  -8.6441  -7.5710  -7.0094  -5.8672

     occupation numbers 
     1.0000   1.0000   1.0000   1.0000   1.0000   1.0000   1.0000   1.0000
     1.0000   1.0000   1.0000   1.0000   1.0000   1.0000   1.0000   1.0000
     1.0000   1.0000   1.0000   1.0000   1.0000

          k =-0.0714 0.0412 0.0000 ( 12547 PWs)   bands (ev):

   -77.7380 -48.9853 -48.9777 -48.8491 -23.7867 -23.6851 -21.2173 -19.8468
   -13.4156 -10.7401  -9.6108  -9.5344  -9.2714  -9.2109  -8.8499  -8.7702
    -8.6302  -7.5156  -7.4795  -7.0095  -5.2397

     occupation numbers 
     1.0000   1.0000   1.0000   1.0000   1.0000   1.0000   1.0000   1.0000
     1.0000   1.0000   1.0000   1.0000   1.0000   1.0000   1.0000   1.0000
     1.0000   1.0000   1.0000   1.0000   1.0000

          k = 0.0714 0.0412 0.0000 ( 12547 PWs)   bands (ev):

   -77.7380 -48.9853 -48.9778 -48.8491 -23.7867 -23.6851 -21.2173 -19.8468
   -13.4156 -10.7401  -9.6106  -9.5340  -9.2715  -9.2114  -8.8497  -8.7703
    -8.6303  -7.5167  -7.4786  -7.0092  -5.2397

     occupation numbers 
     1.0000   1.0000   1.0000   1.0000   1.0000   1.0000   1.0000   1.0000
     1.0000   1.0000   1.0000   1.0000   1.0000   1.0000   1.0000   1.0000
     1.0000   1.0000   1.0000   1.0000   1.0000

          k =-0.1429 0.0825 0.0000 ( 12539 PWs)   bands (ev):

   -77.7348 -49.0128 -48.9840 -48.8443 -23.5483 -23.4496 -21.0522 -19.7630
   -13.2625 -10.7510 -10.4887 -10.4170  -9.4841  -9.4339  -9.2294  -8.6123
    -8.4827  -7.7418  -7.6878  -7.0042  -5.4597

     occupation numbers 
     1.0000   1.0000   1.0000   1.0000   1.0000   1.0000   1.0000   1.0000
     1.0000   1.0000   1.0000   1.0000   1.0000   1.0000   1.0000   1.0000
     1.0000   1.0000   1.0000   1.0000   1.0000

          k = 0.1429 0.0825 0.0000 ( 12539 PWs)   bands (ev):

   -77.7348 -49.0128 -48.9841 -48.8443 -23.5483 -23.4497 -21.0522 -19.7630
   -13.2624 -10.7512 -10.4886 -10.4166  -9.4842  -9.4344  -9.2293  -8.6123
    -8.4828  -7.7432  -7.6870  -7.0033  -5.4598

     occupation numbers 
     1.0000   1.0000   1.0000   1.0000   1.0000   1.0000   1.0000   1.0000
     1.0000   1.0000   1.0000   1.0000   1.0000   1.0000   1.0000   1.0000
     1.0000   1.0000   1.0000   1.0000   1.0000

          k =-0.2143 0.1237 0.0000 ( 12558 PWs)   bands (ev):

   -77.7301 -49.0523 -48.9932 -48.8373 -23.1665 -23.0723 -20.8101 -19.6454
   -13.1345 -11.7464 -11.4748 -10.5138  -9.7727  -9.7269  -9.7127  -8.4365
    -8.2555  -8.0714  -7.9559  -7.1260  -5.7726

     occupation numbers 
     1.0000   1.0000   1.0000   1.0000   1.0000   1.0000   1.0000   1.0000
     1.0000   1.0000   1.0000   1.0000   1.0000   1.0000   1.0000   1.0000
     1.0000   1.0000   1.0000   1.0000   1.0000

          k = 0.2143 0.1237 0.0000 ( 12558 PWs)   bands (ev):

   -77.7301 -49.0523 -48.9932 -48.8373 -23.1665 -23.0724 -20.8100 -19.6454
   -13.1343 -11.7464 -11.4747 -10.5138  -9.7728  -9.7273  -9.7126  -8.4366
    -8.2555  -8.0726  -7.9554  -7.1248  -5.7727

     occupation numbers 
     1.0000   1.0000   1.0000   1.0000   1.0000   1.0000   1.0000   1.0000
     1.0000   1.0000   1.0000   1.0000   1.0000   1.0000   1.0000   1.0000
     1.0000   1.0000   1.0000   1.0000   1.0000

          k =-0.2857 0.1650 0.0000 ( 12570 PWs)   bands (ev):

   -77.7249 -49.0960 -49.0033 -48.8296 -22.6701 -22.5816 -20.5432 -19.5298
   -13.4583 -12.9160 -12.0151 -10.5077 -10.1427 -10.0676 -10.0197  -8.5125
    -8.2384  -8.2059  -7.9675  -7.2367  -6.0134

     occupation numbers 
     1.0000   1.0000   1.0000   1.0000   1.0000   1.0000   1.0000   1.0000
     1.0000   1.0000   1.0000   1.0000   1.0000   1.0000   1.0000   1.0000
     1.0000   1.0000   1.0000   1.0000   1.0000

          k = 0.2857 0.1650 0.0000 ( 12570 PWs)   bands (ev):

   -77.7249 -49.0960 -49.0033 -48.8296 -22.6701 -22.5817 -20.5431 -19.5297
   -13.4581 -12.9161 -12.0151 -10.5076 -10.1430 -10.0678 -10.0200  -8.5132
    -8.2378  -8.2061  -7.9676  -7.2354  -6.0135

     occupation numbers 
     1.0000   1.0000   1.0000   1.0000   1.0000   1.0000   1.0000   1.0000
     1.0000   1.0000   1.0000   1.0000   1.0000   1.0000   1.0000   1.0000
     1.0000   1.0000   1.0000   1.0000   1.0000

          k =-0.3571 0.2062 0.0000 ( 12566 PWs)   bands (ev):

   -77.7201 -49.1350 -49.0123 -48.8226 -22.1155 -22.0336 -20.3263 -19.4654
   -14.2653 -13.9329 -11.9665 -10.7965 -10.3132 -10.2984 -10.2609  -8.8065
    -8.4571  -8.0305  -7.7019  -7.2915  -6.0967

     occupation numbers 
     1.0000   1.0000   1.0000   1.0000   1.0000   1.0000   1.0000   1.0000
     1.0000   1.0000   1.0000   1.0000   1.0000   1.0000   1.0000   1.0000
     1.0000   1.0000   1.0000   1.0000   1.0000

          k = 0.3571 0.2062 0.0000 ( 12566 PWs)   bands (ev):

   -77.7201 -49.1350 -49.0124 -48.8226 -22.1154 -22.0338 -20.3262 -19.4654
   -14.2651 -13.9330 -11.9663 -10.7965 -10.3133 -10.2990 -10.2612  -8.8069
    -8.4566  -8.0308  -7.7019  -7.2901  -6.0968

     occupation numbers 
     1.0000   1.0000   1.0000   1.0000   1.0000   1.0000   1.0000   1.0000
     1.0000   1.0000   1.0000   1.0000   1.0000   1.0000   1.0000   1.0000
     1.0000   1.0000   1.0000   1.0000   1.0000

          k =-0.4286 0.2474 0.0000 ( 12600 PWs)   bands (ev):

   -77.7169 -49.1620 -49.0186 -48.8177 -21.6172 -21.5425 -20.2312 -19.4848
   -14.9352 -14.6362 -11.8273 -11.1211 -10.4733 -10.4176 -10.3875  -8.9379
    -8.6010  -7.8514  -7.5010  -7.3072  -6.0764

     occupation numbers 
     1.0000   1.0000   1.0000   1.0000   1.0000   1.0000   1.0000   1.0000
     1.0000   1.0000   1.0000   1.0000   1.0000   1.0000   1.0000   1.0000
     1.0000   1.0000   1.0000   1.0000   1.0000

          k = 0.4286 0.2474 0.0000 ( 12600 PWs)   bands (ev):

   -77.7169 -49.1620 -49.0186 -48.8177 -21.6170 -21.5429 -20.2309 -19.4847
   -14.9349 -14.6364 -11.8266 -11.1215 -10.4734 -10.4179 -10.3881  -8.9383
    -8.6006  -7.8519  -7.5009  -7.3055  -6.0765

     occupation numbers 
     1.0000   1.0000   1.0000   1.0000   1.0000   1.0000   1.0000   1.0000
     1.0000   1.0000   1.0000   1.0000   1.0000   1.0000   1.0000   1.0000
     1.0000   1.0000   1.0000   1.0000   1.0000

          k = 0.5000-0.2887 0.0000 ( 12586 PWs)   bands (ev):

   -77.7157 -49.1716 -49.0208 -48.8160 -21.3947 -21.3231 -20.2303 -19.5222
   -15.1874 -14.8893 -11.7549 -11.2658 -10.5286 -10.4718 -10.4340  -8.9639
    -8.6509  -7.7646  -7.4255  -7.3099  -6.0553

     occupation numbers 
     1.0000   1.0000   1.0000   1.0000   1.0000   1.0000   1.0000   1.0000
     1.0000   1.0000   1.0000   1.0000   1.0000   1.0000   1.0000   1.0000
     1.0000   1.0000   1.0000   1.0000   1.0000

          k =-0.5000-0.2887 0.0000 ( 12586 PWs)   bands (ev):

   -77.7157 -49.1716 -49.0209 -48.8160 -21.3944 -21.3238 -20.2299 -19.5220
   -15.1871 -14.8896 -11.7537 -11.2667 -10.5287 -10.4720 -10.4346  -8.9643
    -8.6504  -7.7653  -7.4254  -7.3079  -6.0554

     occupation numbers 
     1.0000   1.0000   1.0000   1.0000   1.0000   1.0000   1.0000   1.0000
     1.0000   1.0000   1.0000   1.0000   1.0000   1.0000   1.0000   1.0000
     1.0000   1.0000   1.0000   1.0000   1.0000

          k =-0.0714 0.1237 0.0000 ( 12544 PWs)   bands (ev):

   -77.7358 -49.0036 -48.9824 -48.8458 -23.6271 -23.5274 -21.1056 -19.7898
   -13.3086 -10.7113 -10.2084 -10.1527  -9.4743  -9.4210  -9.0499  -8.6595
    -8.5463  -7.6866  -7.6145  -6.9734  -5.3839

     occupation numbers 
     1.0000   1.0000   1.0000   1.0000   1.0000   1.0000   1.0000   1.0000
     1.0000   1.0000   1.0000   1.0000   1.0000   1.0000   1.0000   1.0000
     1.0000   1.0000   1.0000   1.0000   1.0000

          k = 0.1429 0.0000 0.0000 ( 12544 PWs)   bands (ev):

   -77.7358 -49.0036 -48.9824 -48.8458 -23.6271 -23.5274 -21.1056 -19.7898
   -13.3086 -10.7113 -10.2084 -10.1527  -9.4743  -9.4210  -9.0499  -8.6595
    -8.5463  -7.6866  -7.6145  -6.9734  -5.3839

     occupation numbers 
     1.0000   1.0000   1.0000   1.0000   1.0000   1.0000   1.0000   1.0000
     1.0000   1.0000   1.0000   1.0000   1.0000   1.0000   1.0000   1.0000
     1.0000   1.0000   1.0000   1.0000   1.0000

          k =-0.0714 0.2062 0.0000 ( 12554 PWs)   bands (ev):

   -77.7318 -49.0362 -48.9911 -48.8399 -23.3166 -23.2207 -20.9016 -19.6886
   -13.1558 -11.2648 -11.0728 -10.5292  -9.8733  -9.7477  -9.3905  -8.4985
    -8.3730  -8.0576  -7.7403  -7.0507  -5.6584

     occupation numbers 
     1.0000   1.0000   1.0000   1.0000   1.0000   1.0000   1.0000   1.0000
     1.0000   1.0000   1.0000   1.0000   1.0000   1.0000   1.0000   1.0000
     1.0000   1.0000   1.0000   1.0000   1.0000

          k =-0.1429 0.1650 0.0000 ( 12554 PWs)   bands (ev):

   -77.7318 -49.0362 -48.9911 -48.8399 -23.3166 -23.2207 -20.9016 -19.6886
   -13.1559 -11.2648 -11.0728 -10.5293  -9.8732  -9.7476  -9.3905  -8.4984
    -8.3731  -8.0574  -7.7403  -7.0512  -5.6583

     occupation numbers 
     1.0000   1.0000   1.0000   1.0000   1.0000   1.0000   1.0000   1.0000
     1.0000   1.0000   1.0000   1.0000   1.0000   1.0000   1.0000   1.0000
     1.0000   1.0000   1.0000   1.0000   1.0000

          k = 0.2143 0.0412 0.0000 ( 12554 PWs)   bands (ev):

   -77.7318 -49.0362 -48.9911 -48.8399 -23.3166 -23.2207 -20.9016 -19.6886
   -13.1558 -11.2648 -11.0728 -10.5292  -9.8733  -9.7477  -9.3905  -8.4985
    -8.3730  -8.0576  -7.7403  -7.0507  -5.6584

     occupation numbers 
     1.0000   1.0000   1.0000   1.0000   1.0000   1.0000   1.0000   1.0000
     1.0000   1.0000   1.0000   1.0000   1.0000   1.0000   1.0000   1.0000
     1.0000   1.0000   1.0000   1.0000   1.0000

          k =-0.1429-0.1650 0.0000 ( 12554 PWs)   bands (ev):

   -77.7318 -49.0361 -48.9911 -48.8399 -23.3166 -23.2207 -20.9015 -19.6886
   -13.1558 -11.2648 -11.0726 -10.5293  -9.8734  -9.7480  -9.3904  -8.4982
    -8.3734  -8.0577  -7.7410  -7.0496  -5.6585

     occupation numbers 
     1.0000   1.0000   1.0000   1.0000   1.0000   1.0000   1.0000   1.0000
     1.0000   1.0000   1.0000   1.0000   1.0000   1.0000   1.0000   1.0000
     1.0000   1.0000   1.0000   1.0000   1.0000

          k = 0.2143-0.0412 0.0000 ( 12554 PWs)   bands (ev):

   -77.7318 -49.0362 -48.9911 -48.8399 -23.3166 -23.2207 -20.9016 -19.6886
   -13.1559 -11.2648 -11.0728 -10.5293  -9.8732  -9.7476  -9.3905  -8.4984
    -8.3731  -8.0574  -7.7403  -7.0512  -5.6583

     occupation numbers 
     1.0000   1.0000   1.0000   1.0000   1.0000   1.0000   1.0000   1.0000
     1.0000   1.0000   1.0000   1.0000   1.0000   1.0000   1.0000   1.0000
     1.0000   1.0000   1.0000   1.0000   1.0000

          k =-0.0714 0.2887 0.0000 ( 12570 PWs)   bands (ev):

   -77.7269 -49.0765 -49.0019 -48.8326 -22.8761 -22.7853 -20.6457 -19.5704
   -13.2052 -12.3730 -11.8374 -10.4933 -10.2626 -10.1039  -9.7891  -8.5286
    -8.3111  -8.1321  -7.8929  -7.1926  -5.9380

     occupation numbers 
     1.0000   1.0000   1.0000   1.0000   1.0000   1.0000   1.0000   1.0000
     1.0000   1.0000   1.0000   1.0000   1.0000   1.0000   1.0000   1.0000
     1.0000   1.0000   1.0000   1.0000   1.0000

          k =-0.2143 0.2062 0.0000 ( 12570 PWs)   bands (ev):

   -77.7269 -49.0765 -49.0019 -48.8326 -22.8761 -22.7853 -20.6457 -19.5704
   -13.2054 -12.3730 -11.8374 -10.4935 -10.2624 -10.1037  -9.7890  -8.5286
    -8.3111  -8.1321  -7.8926  -7.1935  -5.9379

     occupation numbers 
     1.0000   1.0000   1.0000   1.0000   1.0000   1.0000   1.0000   1.0000
     1.0000   1.0000   1.0000   1.0000   1.0000   1.0000   1.0000   1.0000
     1.0000   1.0000   1.0000   1.0000   1.0000

          k = 0.2857 0.0825 0.0000 ( 12570 PWs)   bands (ev):

   -77.7269 -49.0765 -49.0019 -48.8326 -22.8761 -22.7853 -20.6457 -19.5704
   -13.2052 -12.3730 -11.8374 -10.4933 -10.2626 -10.1039  -9.7891  -8.5286
    -8.3111  -8.1321  -7.8929  -7.1926  -5.9380

     occupation numbers 
     1.0000   1.0000   1.0000   1.0000   1.0000   1.0000   1.0000   1.0000
     1.0000   1.0000   1.0000   1.0000   1.0000   1.0000   1.0000   1.0000
     1.0000   1.0000   1.0000   1.0000   1.0000

          k =-0.2143-0.2062 0.0000 ( 12570 PWs)   bands (ev):

   -77.7269 -49.0765 -49.0019 -48.8326 -22.8761 -22.7854 -20.6456 -19.5704
   -13.2051 -12.3730 -11.8374 -10.4935 -10.2626 -10.1041  -9.7889  -8.5289
    -8.3110  -8.1325  -7.8928  -7.1919  -5.9381

     occupation numbers 
     1.0000   1.0000   1.0000   1.0000   1.0000   1.0000   1.0000   1.0000
     1.0000   1.0000   1.0000   1.0000   1.0000   1.0000   1.0000   1.0000
     1.0000   1.0000   1.0000   1.0000   1.0000

          k = 0.2857-0.0825 0.0000 ( 12570 PWs)   bands (ev):

   -77.7269 -49.0765 -49.0019 -48.8326 -22.8761 -22.7853 -20.6457 -19.5704
   -13.2054 -12.3730 -11.8374 -10.4935 -10.2624 -10.1037  -9.7890  -8.5286
    -8.3111  -8.1321  -7.8926  -7.1935  -5.9379

     occupation numbers 
     1.0000   1.0000   1.0000   1.0000   1.0000   1.0000   1.0000   1.0000
     1.0000   1.0000   1.0000   1.0000   1.0000   1.0000   1.0000   1.0000
     1.0000   1.0000   1.0000   1.0000   1.0000

          k =-0.0714 0.3712 0.0000 ( 12579 PWs)   bands (ev):

   -77.7219 -49.1165 -49.0128 -48.8252 -22.3460 -22.2613 -20.4013 -19.4779
   -13.8377 -13.4403 -11.9899 -10.7574 -10.4763 -10.2993 -10.1472  -8.8891
    -8.2390  -8.0387  -7.8815  -7.2731  -6.0909

     occupation numbers 
     1.0000   1.0000   1.0000   1.0000   1.0000   1.0000   1.0000   1.0000
     1.0000   1.0000   1.0000   1.0000   1.0000   1.0000   1.0000   1.0000
     1.0000   1.0000   1.0000   1.0000   1.0000

          k =-0.2857 0.2474 0.0000 ( 12579 PWs)   bands (ev):

   -77.7219 -49.1165 -49.0128 -48.8252 -22.3460 -22.2612 -20.4014 -19.4779
   -13.8380 -13.4402 -11.9900 -10.7574 -10.4762 -10.2990 -10.1467  -8.8894
    -8.2389  -8.0380  -7.8817  -7.2743  -6.0909

     occupation numbers 
     1.0000   1.0000   1.0000   1.0000   1.0000   1.0000   1.0000   1.0000
     1.0000   1.0000   1.0000   1.0000   1.0000   1.0000   1.0000   1.0000
     1.0000   1.0000   1.0000   1.0000   1.0000

          k = 0.3571 0.1237 0.0000 ( 12579 PWs)   bands (ev):

   -77.7219 -49.1165 -49.0128 -48.8252 -22.3460 -22.2613 -20.4013 -19.4779
   -13.8377 -13.4403 -11.9899 -10.7574 -10.4763 -10.2993 -10.1472  -8.8891
    -8.2390  -8.0387  -7.8815  -7.2731  -6.0909

     occupation numbers 
     1.0000   1.0000   1.0000   1.0000   1.0000   1.0000   1.0000   1.0000
     1.0000   1.0000   1.0000   1.0000   1.0000   1.0000   1.0000   1.0000
     1.0000   1.0000   1.0000   1.0000   1.0000

          k =-0.2857-0.2474 0.0000 ( 12579 PWs)   bands (ev):

   -77.7219 -49.1165 -49.0128 -48.8252 -22.3460 -22.2614 -20.4012 -19.4779
   -13.8377 -13.4403 -11.9899 -10.7573 -10.4766 -10.2993 -10.1468  -8.8900
    -8.2388  -8.0378  -7.8818  -7.2728  -6.0911

     occupation numbers 
     1.0000   1.0000   1.0000   1.0000   1.0000   1.0000   1.0000   1.0000
     1.0000   1.0000   1.0000   1.0000   1.0000   1.0000   1.0000   1.0000
     1.0000   1.0000   1.0000   1.0000   1.0000

          k = 0.3571-0.1237 0.0000 ( 12579 PWs)   bands (ev):

   -77.7219 -49.1165 -49.0128 -48.8252 -22.3460 -22.2612 -20.4014 -19.4779
   -13.8380 -13.4402 -11.9900 -10.7574 -10.4762 -10.2990 -10.1467  -8.8894
    -8.2389  -8.0380  -7.8817  -7.2743  -6.0909

     occupation numbers 
     1.0000   1.0000   1.0000   1.0000   1.0000   1.0000   1.0000   1.0000
     1.0000   1.0000   1.0000   1.0000   1.0000   1.0000   1.0000   1.0000
     1.0000   1.0000   1.0000   1.0000   1.0000

          k =-0.0714 0.4536 0.0000 ( 12579 PWs)   bands (ev):

   -77.7179 -49.1485 -49.0215 -48.8193 -21.8057 -21.7283 -20.2462 -19.4575
   -14.6008 -14.2915 -11.8705 -11.0689 -10.6865 -10.5062 -10.3000  -9.0566
    -8.4237  -7.9101  -7.7070  -7.2703  -6.0986

     occupation numbers 
     1.0000   1.0000   1.0000   1.0000   1.0000   1.0000   1.0000   1.0000
     1.0000   1.0000   1.0000   1.0000   1.0000   1.0000   1.0000   1.0000
     1.0000   1.0000   1.0000   1.0000   1.0000

          k =-0.3571 0.2887 0.0000 ( 12579 PWs)   bands (ev):

   -77.7179 -49.1485 -49.0215 -48.8193 -21.8058 -21.7280 -20.2464 -19.4575
   -14.6011 -14.2914 -11.8709 -11.0687 -10.6863 -10.5060 -10.2993  -9.0570
    -8.4232  -7.9096  -7.7073  -7.2716  -6.0986

     occupation numbers 
     1.0000   1.0000   1.0000   1.0000   1.0000   1.0000   1.0000   1.0000
     1.0000   1.0000   1.0000   1.0000   1.0000   1.0000   1.0000   1.0000
     1.0000   1.0000   1.0000   1.0000   1.0000

          k = 0.4286 0.1650 0.0000 ( 12579 PWs)   bands (ev):

   -77.7179 -49.1485 -49.0215 -48.8193 -21.8057 -21.7283 -20.2462 -19.4574
   -14.6008 -14.2915 -11.8705 -11.0689 -10.6865 -10.5062 -10.3000  -9.0566
    -8.4237  -7.9101  -7.7070  -7.2703  -6.0986

     occupation numbers 
     1.0000   1.0000   1.0000   1.0000   1.0000   1.0000   1.0000   1.0000
     1.0000   1.0000   1.0000   1.0000   1.0000   1.0000   1.0000   1.0000
     1.0000   1.0000   1.0000   1.0000   1.0000

          k =-0.3571-0.2887 0.0000 ( 12579 PWs)   bands (ev):

   -77.7179 -49.1485 -49.0215 -48.8193 -21.8057 -21.7283 -20.2461 -19.4574
   -14.6008 -14.2915 -11.8705 -11.0688 -10.6868 -10.5061 -10.2997  -9.0578
    -8.4226  -7.9097  -7.7073  -7.2702  -6.0988

     occupation numbers 
     1.0000   1.0000   1.0000   1.0000   1.0000   1.0000   1.0000   1.0000
     1.0000   1.0000   1.0000   1.0000   1.0000   1.0000   1.0000   1.0000
     1.0000   1.0000   1.0000   1.0000   1.0000

          k = 0.4286-0.1650 0.0000 ( 12579 PWs)   bands (ev):

   -77.7179 -49.1485 -49.0215 -48.8193 -21.8058 -21.7280 -20.2464 -19.4575
   -14.6011 -14.2914 -11.8709 -11.0687 -10.6863 -10.5060 -10.2993  -9.0570
    -8.4232  -7.9096  -7.7073  -7.2716  -6.0986

     occupation numbers 
     1.0000   1.0000   1.0000   1.0000   1.0000   1.0000   1.0000   1.0000
     1.0000   1.0000   1.0000   1.0000   1.0000   1.0000   1.0000   1.0000
     1.0000   1.0000   1.0000   1.0000   1.0000

          k =-0.0714 0.5361 0.0000 ( 12596 PWs)   bands (ev):

   -77.7157 -49.1662 -49.0263 -48.8160 -21.4171 -21.3458 -20.2157 -19.5019
   -15.0684 -14.7698 -11.7606 -11.2739 -10.7768 -10.6950 -10.3811  -9.0514
    -8.5938  -7.7858  -7.5959  -7.2491  -6.0546

     occupation numbers 
     1.0000   1.0000   1.0000   1.0000   1.0000   1.0000   1.0000   1.0000
     1.0000   1.0000   1.0000   1.0000   1.0000   1.0000   1.0000   1.0000
     1.0000   1.0000   1.0000   1.0000   1.0000

          k =-0.4286 0.3299 0.0000 ( 12596 PWs)   bands (ev):

   -77.7157 -49.1662 -49.0263 -48.8160 -21.4173 -21.3452 -20.2160 -19.5020
   -15.0686 -14.7695 -11.7615 -11.2733 -10.7765 -10.6947 -10.3807  -9.0515
    -8.5936  -7.7854  -7.5962  -7.2506  -6.0546

     occupation numbers 
     1.0000   1.0000   1.0000   1.0000   1.0000   1.0000   1.0000   1.0000
     1.0000   1.0000   1.0000   1.0000   1.0000   1.0000   1.0000   1.0000
     1.0000   1.0000   1.0000   1.0000   1.0000

          k = 0.5000 0.2062 0.0000 ( 12596 PWs)   bands (ev):

   -77.7157 -49.1662 -49.0263 -48.8160 -21.4171 -21.3458 -20.2157 -19.5019
   -15.0684 -14.7698 -11.7606 -11.2739 -10.7768 -10.6950 -10.3811  -9.0514
    -8.5938  -7.7858  -7.5959  -7.2491  -6.0546

     occupation numbers 
     1.0000   1.0000   1.0000   1.0000   1.0000   1.0000   1.0000   1.0000
     1.0000   1.0000   1.0000   1.0000   1.0000   1.0000   1.0000   1.0000
     1.0000   1.0000   1.0000   1.0000   1.0000

          k =-0.4286-0.3299 0.0000 ( 12596 PWs)   bands (ev):

   -77.7157 -49.1662 -49.0263 -48.8160 -21.4170 -21.3458 -20.2157 -19.5019
   -15.0684 -14.7698 -11.7606 -11.2738 -10.7770 -10.6948 -10.3810  -9.0521
    -8.5931  -7.7856  -7.5960  -7.2490  -6.0547

     occupation numbers 
     1.0000   1.0000   1.0000   1.0000   1.0000   1.0000   1.0000   1.0000
     1.0000   1.0000   1.0000   1.0000   1.0000   1.0000   1.0000   1.0000
     1.0000   1.0000   1.0000   1.0000   1.0000

          k = 0.5000-0.2062 0.0000 ( 12596 PWs)   bands (ev):

   -77.7157 -49.1662 -49.0263 -48.8160 -21.4173 -21.3452 -20.2160 -19.5020
   -15.0686 -14.7695 -11.7615 -11.2733 -10.7765 -10.6947 -10.3807  -9.0515
    -8.5936  -7.7854  -7.5962  -7.2506  -6.0546

     occupation numbers 
     1.0000   1.0000   1.0000   1.0000   1.0000   1.0000   1.0000   1.0000
     1.0000   1.0000   1.0000   1.0000   1.0000   1.0000   1.0000   1.0000
     1.0000   1.0000   1.0000   1.0000   1.0000

          k =-0.1429 0.2474 0.0000 ( 12544 PWs)   bands (ev):

   -77.7276 -49.0678 -49.0032 -48.8337 -22.9466 -22.8550 -20.6828 -19.5855
   -13.1347 -12.0930 -11.6631 -10.4948 -10.4651 -10.2217  -9.6546  -8.5733
    -8.3482  -8.2069  -7.7238  -7.1707  -5.9050

     occupation numbers 
     1.0000   1.0000   1.0000   1.0000   1.0000   1.0000   1.0000   1.0000
     1.0000   1.0000   1.0000   1.0000   1.0000   1.0000   1.0000   1.0000
     1.0000   1.0000   1.0000   1.0000   1.0000

          k = 0.2857 0.0000 0.0000 ( 12544 PWs)   bands (ev):

   -77.7276 -49.0678 -49.0032 -48.8337 -22.9466 -22.8550 -20.6828 -19.5855
   -13.1347 -12.0930 -11.6631 -10.4948 -10.4651 -10.2217  -9.6546  -8.5733
    -8.3482  -8.2068  -7.7238  -7.1707  -5.9050

     occupation numbers 
     1.0000   1.0000   1.0000   1.0000   1.0000   1.0000   1.0000   1.0000
     1.0000   1.0000   1.0000   1.0000   1.0000   1.0000   1.0000   1.0000
     1.0000   1.0000   1.0000   1.0000   1.0000

          k =-0.1429 0.3299 0.0000 ( 12558 PWs)   bands (ev):

   -77.7229 -49.1017 -49.0176 -48.8267 -22.4680 -22.3818 -20.4462 -19.4869
   -13.5111 -12.9981 -11.9084 -11.0237 -10.8489 -10.2850  -9.9801  -9.0334
    -8.2210  -8.1111  -7.7123  -7.3169  -6.0902

     occupation numbers 
     1.0000   1.0000   1.0000   1.0000   1.0000   1.0000   1.0000   1.0000
     1.0000   1.0000   1.0000   1.0000   1.0000   1.0000   1.0000   1.0000
     1.0000   1.0000   1.0000   1.0000   1.0000

          k =-0.2143 0.2887 0.0000 ( 12558 PWs)   bands (ev):

   -77.7229 -49.1017 -49.0176 -48.8267 -22.4680 -22.3817 -20.4463 -19.4869
   -13.5112 -12.9981 -11.9084 -11.0237 -10.8489 -10.2849  -9.9799  -9.0335
    -8.2209  -8.1111  -7.7119  -7.3176  -6.0902

     occupation numbers 
     1.0000   1.0000   1.0000   1.0000   1.0000   1.0000   1.0000   1.0000
     1.0000   1.0000   1.0000   1.0000   1.0000   1.0000   1.0000   1.0000
     1.0000   1.0000   1.0000   1.0000   1.0000

          k = 0.3571 0.0412 0.0000 ( 12558 PWs)   bands (ev):

   -77.7229 -49.1017 -49.0176 -48.8267 -22.4680 -22.3818 -20.4462 -19.4869
   -13.5111 -12.9981 -11.9084 -11.0237 -10.8489 -10.2850  -9.9801  -9.0334
    -8.2210  -8.1111  -7.7123  -7.3169  -6.0902

     occupation numbers 
     1.0000   1.0000   1.0000   1.0000   1.0000   1.0000   1.0000   1.0000
     1.0000   1.0000   1.0000   1.0000   1.0000   1.0000   1.0000   1.0000
     1.0000   1.0000   1.0000   1.0000   1.0000

          k =-0.2143-0.2887 0.0000 ( 12558 PWs)   bands (ev):

   -77.7229 -49.1017 -49.0176 -48.8267 -22.4680 -22.3818 -20.4462 -19.4869
   -13.5109 -12.9981 -11.9084 -11.0237 -10.8493 -10.2850  -9.9797  -9.0340
    -8.2206  -8.1118  -7.7119  -7.3159  -6.0905

     occupation numbers 
     1.0000   1.0000   1.0000   1.0000   1.0000   1.0000   1.0000   1.0000
     1.0000   1.0000   1.0000   1.0000   1.0000   1.0000   1.0000   1.0000
     1.0000   1.0000   1.0000   1.0000   1.0000

          k = 0.3571-0.0412 0.0000 ( 12558 PWs)   bands (ev):

   -77.7229 -49.1017 -49.0176 -48.8267 -22.4680 -22.3817 -20.4463 -19.4869
   -13.5112 -12.9981 -11.9084 -11.0237 -10.8489 -10.2849  -9.9799  -9.0335
    -8.2209  -8.1111  -7.7119  -7.3176  -6.0902

     occupation numbers 
     1.0000   1.0000   1.0000   1.0000   1.0000   1.0000   1.0000   1.0000
     1.0000   1.0000   1.0000   1.0000   1.0000   1.0000   1.0000   1.0000
     1.0000   1.0000   1.0000   1.0000   1.0000

          k =-0.1429 0.4124 0.0000 ( 12589 PWs)   bands (ev):

   -77.7187 -49.1317 -49.0310 -48.8204 -21.9374 -21.8576 -20.2606 -19.4363
   -14.1834 -13.8371 -11.8766 -11.4166 -11.2075 -10.3764 -10.2117  -9.3002
    -8.1982  -8.1243  -7.7552  -7.2913  -6.1298

     occupation numbers 
     1.0000   1.0000   1.0000   1.0000   1.0000   1.0000   1.0000   1.0000
     1.0000   1.0000   1.0000   1.0000   1.0000   1.0000   1.0000   1.0000
     1.0000   1.0000   1.0000   1.0000   1.0000

          k =-0.2857 0.3299 0.0000 ( 12589 PWs)   bands (ev):

   -77.7187 -49.1318 -49.0310 -48.8204 -21.9375 -21.8575 -20.2607 -19.4363
   -14.1835 -13.8370 -11.8767 -11.4165 -11.2074 -10.3764 -10.2111  -9.3006
    -8.1974  -8.1247  -7.7549  -7.2923  -6.1299

     occupation numbers 
     1.0000   1.0000   1.0000   1.0000   1.0000   1.0000   1.0000   1.0000
     1.0000   1.0000   1.0000   1.0000   1.0000   1.0000   1.0000   1.0000
     1.0000   1.0000   1.0000   1.0000   1.0000

          k = 0.4286 0.0825 0.0000 ( 12589 PWs)   bands (ev):

   -77.7187 -49.1317 -49.0310 -48.8204 -21.9374 -21.8576 -20.2606 -19.4363
   -14.1834 -13.8371 -11.8766 -11.4166 -11.2075 -10.3764 -10.2117  -9.3002
    -8.1982  -8.1243  -7.7552  -7.2913  -6.1298

     occupation numbers 
     1.0000   1.0000   1.0000   1.0000   1.0000   1.0000   1.0000   1.0000
     1.0000   1.0000   1.0000   1.0000   1.0000   1.0000   1.0000   1.0000
     1.0000   1.0000   1.0000   1.0000   1.0000

          k =-0.2857-0.3299 0.0000 ( 12589 PWs)   bands (ev):

   -77.7187 -49.1317 -49.0310 -48.8204 -21.9374 -21.8577 -20.2605 -19.4362
   -14.1833 -13.8370 -11.8766 -11.4165 -11.2078 -10.3761 -10.2113  -9.3014
    -8.1977  -8.1245  -7.7540  -7.2914  -6.1301

     occupation numbers 
     1.0000   1.0000   1.0000   1.0000   1.0000   1.0000   1.0000   1.0000
     1.0000   1.0000   1.0000   1.0000   1.0000   1.0000   1.0000   1.0000
     1.0000   1.0000   1.0000   1.0000   1.0000

          k = 0.4286-0.0825 0.0000 ( 12589 PWs)   bands (ev):

   -77.7187 -49.1318 -49.0310 -48.8204 -21.9375 -21.8575 -20.2607 -19.4363
   -14.1835 -13.8370 -11.8767 -11.4165 -11.2074 -10.3764 -10.2111  -9.3006
    -8.1974  -8.1247  -7.7549  -7.2923  -6.1299

     occupation numbers 
     1.0000   1.0000   1.0000   1.0000   1.0000   1.0000   1.0000   1.0000
     1.0000   1.0000   1.0000   1.0000   1.0000   1.0000   1.0000   1.0000
     1.0000   1.0000   1.0000   1.0000   1.0000

          k =-0.1429 0.4949 0.0000 ( 12593 PWs)   bands (ev):

   -77.7157 -49.1523 -49.0404 -48.8160 -21.4656 -21.3926 -20.1871 -19.4590
   -14.7498 -14.4416 -11.8952 -11.6373 -11.2673 -10.6946 -10.3392  -9.2608
    -8.4498  -8.1081  -7.6816  -7.1954  -6.0623

     occupation numbers 
     1.0000   1.0000   1.0000   1.0000   1.0000   1.0000   1.0000   1.0000
     1.0000   1.0000   1.0000   1.0000   1.0000   1.0000   1.0000   1.0000
     1.0000   1.0000   1.0000   1.0000   1.0000

          k =-0.3571 0.3712 0.0000 ( 12593 PWs)   bands (ev):

   -77.7157 -49.1523 -49.0404 -48.8160 -21.4657 -21.3923 -20.1873 -19.4591
   -14.7500 -14.4415 -11.8954 -11.6372 -11.2674 -10.6943 -10.3388  -9.2611
    -8.4489  -8.1084  -7.6816  -7.1964  -6.0624

     occupation numbers 
     1.0000   1.0000   1.0000   1.0000   1.0000   1.0000   1.0000   1.0000
     1.0000   1.0000   1.0000   1.0000   1.0000   1.0000   1.0000   1.0000
     1.0000   1.0000   1.0000   1.0000   1.0000

          k = 0.5000 0.1237 0.0000 ( 12593 PWs)   bands (ev):

   -77.7157 -49.1523 -49.0404 -48.8160 -21.4656 -21.3926 -20.1871 -19.4590
   -14.7498 -14.4416 -11.8952 -11.6373 -11.2673 -10.6946 -10.3392  -9.2608
    -8.4498  -8.1081  -7.6816  -7.1954  -6.0623

     occupation numbers 
     1.0000   1.0000   1.0000   1.0000   1.0000   1.0000   1.0000   1.0000
     1.0000   1.0000   1.0000   1.0000   1.0000   1.0000   1.0000   1.0000
     1.0000   1.0000   1.0000   1.0000   1.0000

          k =-0.3571-0.3712 0.0000 ( 12593 PWs)   bands (ev):

   -77.7157 -49.1523 -49.0404 -48.8160 -21.4655 -21.3927 -20.1870 -19.4590
   -14.7498 -14.4416 -11.8953 -11.6373 -11.2675 -10.6944 -10.3389  -9.2620
    -8.4488  -8.1082  -7.6810  -7.1957  -6.0625

     occupation numbers 
     1.0000   1.0000   1.0000   1.0000   1.0000   1.0000   1.0000   1.0000
     1.0000   1.0000   1.0000   1.0000   1.0000   1.0000   1.0000   1.0000
     1.0000   1.0000   1.0000   1.0000   1.0000

          k = 0.5000-0.1237 0.0000 ( 12593 PWs)   bands (ev):

   -77.7157 -49.1523 -49.0404 -48.8160 -21.4657 -21.3923 -20.1873 -19.4591
   -14.7500 -14.4415 -11.8954 -11.6372 -11.2674 -10.6943 -10.3388  -9.2611
    -8.4489  -8.1084  -7.6816  -7.1964  -6.0624

     occupation numbers 
     1.0000   1.0000   1.0000   1.0000   1.0000   1.0000   1.0000   1.0000
     1.0000   1.0000   1.0000   1.0000   1.0000   1.0000   1.0000   1.0000
     1.0000   1.0000   1.0000   1.0000   1.0000

          k =-0.4286 0.4124 0.0000 ( 12612 PWs)   bands (ev):

   -77.7147 -49.1597 -49.0437 -48.8144 -21.2571 -21.1858 -20.1928 -19.4938
   -14.9677 -14.6632 -11.9337 -11.7110 -11.1529 -10.9144 -10.4094  -9.1525
    -8.6239  -8.1012  -7.6232  -7.1567  -6.0145

     occupation numbers 
     1.0000   1.0000   1.0000   1.0000   1.0000   1.0000   1.0000   1.0000
     1.0000   1.0000   1.0000   1.0000   1.0000   1.0000   1.0000   1.0000
     1.0000   1.0000   1.0000   1.0000   1.0000

          k = 0.5714 0.1650 0.0000 ( 12612 PWs)   bands (ev):

   -77.7147 -49.1597 -49.0437 -48.8144 -21.2568 -21.1864 -20.1925 -19.4936
   -14.9675 -14.6634 -11.9336 -11.7111 -11.1523 -10.9151 -10.4096  -9.1529
    -8.6242  -8.1009  -7.6229  -7.1558  -6.0145

     occupation numbers 
     1.0000   1.0000   1.0000   1.0000   1.0000   1.0000   1.0000   1.0000
     1.0000   1.0000   1.0000   1.0000   1.0000   1.0000   1.0000   1.0000
     1.0000   1.0000   1.0000   1.0000   1.0000

          k =-0.2143 0.3712 0.0000 ( 12578 PWs)   bands (ev):

   -77.7189 -49.1232 -49.0370 -48.8208 -21.9844 -21.9036 -20.2668 -19.4286
   -13.9623 -13.5744 -11.8675 -11.6226 -11.5776 -10.2267 -10.1682  -9.4287
    -8.3280  -8.0954  -7.6333  -7.3705  -6.1446

     occupation numbers 
     1.0000   1.0000   1.0000   1.0000   1.0000   1.0000   1.0000   1.0000
     1.0000   1.0000   1.0000   1.0000   1.0000   1.0000   1.0000   1.0000
     1.0000   1.0000   1.0000   1.0000   1.0000

          k = 0.4286 0.0000 0.0000 ( 12578 PWs)   bands (ev):

   -77.7189 -49.1232 -49.0370 -48.8208 -21.9844 -21.9036 -20.2668 -19.4286
   -13.9623 -13.5744 -11.8675 -11.6226 -11.5776 -10.2267 -10.1682  -9.4287
    -8.3280  -8.0954  -7.6333  -7.3705  -6.1446

     occupation numbers 
     1.0000   1.0000   1.0000   1.0000   1.0000   1.0000   1.0000   1.0000
     1.0000   1.0000   1.0000   1.0000   1.0000   1.0000   1.0000   1.0000
     1.0000   1.0000   1.0000   1.0000   1.0000

          k =-0.2143 0.4536 0.0000 ( 12607 PWs)   bands (ev):

   -77.7157 -49.1380 -49.0549 -48.8160 -21.5023 -21.4280 -20.1670 -19.4268
   -14.3993 -14.0588 -12.3050 -12.1445 -11.4738 -10.4240 -10.2859  -9.4689
    -8.5968  -8.2022  -7.6733  -7.2048  -6.0706

     occupation numbers 
     1.0000   1.0000   1.0000   1.0000   1.0000   1.0000   1.0000   1.0000
     1.0000   1.0000   1.0000   1.0000   1.0000   1.0000   1.0000   1.0000
     1.0000   1.0000   1.0000   1.0000   1.0000

          k =-0.2857 0.4124 0.0000 ( 12607 PWs)   bands (ev):

   -77.7157 -49.1380 -49.0549 -48.8160 -21.5024 -21.4279 -20.1670 -19.4268
   -14.3994 -14.0588 -12.3049 -12.1445 -11.4740 -10.4240 -10.2857  -9.4691
    -8.5966  -8.2022  -7.6733  -7.2051  -6.0707

     occupation numbers 
     1.0000   1.0000   1.0000   1.0000   1.0000   1.0000   1.0000   1.0000
     1.0000   1.0000   1.0000   1.0000   1.0000   1.0000   1.0000   1.0000
     1.0000   1.0000   1.0000   1.0000   1.0000

          k = 0.5000 0.0412 0.0000 ( 12607 PWs)   bands (ev):

   -77.7157 -49.1380 -49.0549 -48.8160 -21.5023 -21.4280 -20.1670 -19.4268
   -14.3993 -14.0588 -12.3050 -12.1445 -11.4738 -10.4240 -10.2859  -9.4689
    -8.5968  -8.2023  -7.6732  -7.2048  -6.0706

     occupation numbers 
     1.0000   1.0000   1.0000   1.0000   1.0000   1.0000   1.0000   1.0000
     1.0000   1.0000   1.0000   1.0000   1.0000   1.0000   1.0000   1.0000
     1.0000   1.0000   1.0000   1.0000   1.0000

          k =-0.2857-0.4124 0.0000 ( 12607 PWs)   bands (ev):

   -77.7157 -49.1380 -49.0550 -48.8160 -21.5022 -21.4282 -20.1668 -19.4267
   -14.3992 -14.0588 -12.3050 -12.1448 -11.4738 -10.4234 -10.2856  -9.4701
    -8.5973  -8.2018  -7.6717  -7.2054  -6.0708

     occupation numbers 
     1.0000   1.0000   1.0000   1.0000   1.0000   1.0000   1.0000   1.0000
     1.0000   1.0000   1.0000   1.0000   1.0000   1.0000   1.0000   1.0000
     1.0000   1.0000   1.0000   1.0000   1.0000

          k = 0.5000-0.0412 0.0000 ( 12607 PWs)   bands (ev):

   -77.7157 -49.1380 -49.0549 -48.8160 -21.5024 -21.4279 -20.1670 -19.4268
   -14.3994 -14.0588 -12.3049 -12.1445 -11.4740 -10.4240 -10.2856  -9.4691
    -8.5966  -8.2022  -7.6733  -7.2051  -6.0707

     occupation numbers 
     1.0000   1.0000   1.0000   1.0000   1.0000   1.0000   1.0000   1.0000
     1.0000   1.0000   1.0000   1.0000   1.0000   1.0000   1.0000   1.0000
     1.0000   1.0000   1.0000   1.0000   1.0000

          k =-0.2143 0.5361 0.0000 ( 12638 PWs)   bands (ev):

   -77.7139 -49.1451 -49.0659 -48.8134 -21.1649 -21.0940 -20.1628 -19.4673
   -14.6779 -14.3527 -12.5701 -12.4325 -11.2159 -10.6761 -10.4391  -9.2533
    -8.8469  -8.4104  -7.6067  -7.0872  -5.9658

     occupation numbers 
     1.0000   1.0000   1.0000   1.0000   1.0000   1.0000   1.0000   1.0000
     1.0000   1.0000   1.0000   1.0000   1.0000   1.0000   1.0000   1.0000
     1.0000   1.0000   1.0000   1.0000   1.0000

          k =-0.3571 0.4536 0.0000 ( 12638 PWs)   bands (ev):

   -77.7139 -49.1451 -49.0659 -48.8134 -21.1651 -21.0936 -20.1630 -19.4674
   -14.6781 -14.3526 -12.5700 -12.4324 -11.2163 -10.6759 -10.4389  -9.2533
    -8.8462  -8.4107  -7.6072  -7.0874  -5.9659

     occupation numbers 
     1.0000   1.0000   1.0000   1.0000   1.0000   1.0000   1.0000   1.0000
     1.0000   1.0000   1.0000   1.0000   1.0000   1.0000   1.0000   1.0000
     1.0000   1.0000   1.0000   1.0000   1.0000

          k = 0.5714 0.0825 0.0000 ( 12638 PWs)   bands (ev):

   -77.7139 -49.1451 -49.0659 -48.8134 -21.1649 -21.0940 -20.1628 -19.4673
   -14.6780 -14.3527 -12.5701 -12.4325 -11.2159 -10.6761 -10.4391  -9.2533
    -8.8469  -8.4104  -7.6067  -7.0872  -5.9658

     occupation numbers 
     1.0000   1.0000   1.0000   1.0000   1.0000   1.0000   1.0000   1.0000
     1.0000   1.0000   1.0000   1.0000   1.0000   1.0000   1.0000   1.0000
     1.0000   1.0000   1.0000   1.0000   1.0000

          k =-0.3571-0.4536 0.0000 ( 12638 PWs)   bands (ev):

   -77.7139 -49.1451 -49.0659 -48.8134 -21.1649 -21.0941 -20.1627 -19.4673
   -14.6779 -14.3527 -12.5701 -12.4327 -11.2159 -10.6758 -10.4390  -9.2539
    -8.8470  -8.4100  -7.6062  -7.0874  -5.9659

     occupation numbers 
     1.0000   1.0000   1.0000   1.0000   1.0000   1.0000   1.0000   1.0000
     1.0000   1.0000   1.0000   1.0000   1.0000   1.0000   1.0000   1.0000
     1.0000   1.0000   1.0000   1.0000   1.0000

          k = 0.5714-0.0825 0.0000 ( 12638 PWs)   bands (ev):

   -77.7139 -49.1451 -49.0659 -48.8134 -21.1651 -21.0936 -20.1630 -19.4674
   -14.6781 -14.3526 -12.5700 -12.4324 -11.2163 -10.6759 -10.4389  -9.2533
    -8.8462  -8.4107  -7.6072  -7.0874  -5.9660

     occupation numbers 
     1.0000   1.0000   1.0000   1.0000   1.0000   1.0000   1.0000   1.0000
     1.0000   1.0000   1.0000   1.0000   1.0000   1.0000   1.0000   1.0000
     1.0000   1.0000   1.0000   1.0000   1.0000

          k =-0.2857 0.4949 0.0000 ( 12618 PWs)   bands (ev):

   -77.7137 -49.1350 -49.0788 -48.8130 -21.1371 -21.0657 -20.1483 -19.4528
   -14.4625 -14.0993 -12.9575 -12.8392 -11.2214 -10.5427 -10.3228  -9.4494
    -9.0045  -8.4308  -7.6101  -7.0681  -5.9421

     occupation numbers 
     1.0000   1.0000   1.0000   1.0000   1.0000   1.0000   1.0000   1.0000
     1.0000   1.0000   1.0000   1.0000   1.0000   1.0000   1.0000   1.0000
     1.0000   1.0000   1.0000   1.0000   1.0000

          k = 0.5714 0.0000 0.0000 ( 12618 PWs)   bands (ev):

   -77.7137 -49.1350 -49.0788 -48.8130 -21.1371 -21.0657 -20.1483 -19.4528
   -14.4625 -14.0993 -12.9575 -12.8392 -11.2214 -10.5427 -10.3228  -9.4494
    -9.0045  -8.4308  -7.6100  -7.0681  -5.9421

     occupation numbers 
     1.0000   1.0000   1.0000   1.0000   1.0000   1.0000   1.0000   1.0000
     1.0000   1.0000   1.0000   1.0000   1.0000   1.0000   1.0000   1.0000
     1.0000   1.0000   1.0000   1.0000   1.0000

          k =-0.3571 0.5361 0.0000 ( 12650 PWs)   bands (ev):

   -77.7130 -49.1302 -49.0910 -48.8119 -20.9854 -20.9103 -20.1646 -19.4746
   -14.4491 -14.0602 -13.2276 -13.1512 -11.0635 -10.6308 -10.2851  -9.5970
    -8.9570  -8.6448  -7.5714  -7.0093  -5.8672

     occupation numbers 
     1.0000   1.0000   1.0000   1.0000   1.0000   1.0000   1.0000   1.0000
     1.0000   1.0000   1.0000   1.0000   1.0000   1.0000   1.0000   1.0000
     1.0000   1.0000   1.0000   1.0000   1.0000

          k = 0.6429 0.0412 0.0000 ( 12650 PWs)   bands (ev):

   -77.7130 -49.1302 -49.0910 -48.8119 -20.9852 -20.9105 -20.1644 -19.4745
   -14.4490 -14.0602 -13.2277 -13.1512 -11.0634 -10.6306 -10.2852  -9.5970
    -8.9582  -8.6441  -7.5710  -7.0094  -5.8672

     occupation numbers 
     1.0000   1.0000   1.0000   1.0000   1.0000   1.0000   1.0000   1.0000
     1.0000   1.0000   1.0000   1.0000   1.0000   1.0000   1.0000   1.0000
     1.0000   1.0000   1.0000   1.0000   1.0000

     highest occupied level (ev):    -5.1797

     Writing all to output data dir ./tmp/crsi2n4.save/ :
     XML data file, pseudopotentials, collected wavefunctions
 
     init_run     :      0.78s CPU      0.82s WALL (       1 calls)
     electrons    :    221.97s CPU    222.48s WALL (       1 calls)

     Called by init_run:
     wfcinit      :      0.00s CPU      0.00s WALL (       1 calls)
     wfcinit:atom :      0.06s CPU      0.06s WALL (     100 calls)
     wfcinit:wfcr :      3.87s CPU      3.91s WALL (     100 calls)
     potinit      :      0.48s CPU      0.50s WALL (       1 calls)
     hinit0       :      0.17s CPU      0.18s WALL (       1 calls)

     Called by electrons:
     c_bands      :    221.97s CPU    222.48s WALL (       1 calls)
     v_of_rho     :      0.02s CPU      0.04s WALL (       1 calls)
     v_h          :      0.00s CPU      0.01s WALL (       1 calls)
     v_xc         :      0.01s CPU      0.03s WALL (       1 calls)

     Called by c_bands:
     init_us_2    :      0.06s CPU      0.07s WALL (     100 calls)
     cegterg      :    217.71s CPU    218.06s WALL (     544 calls)

     Called by sum_band:

     Called by *egterg:
     cdiaghg      :     27.72s CPU     27.87s WALL (   10190 calls)
                                       27.80s GPU  (   10190 calls)
     cegterg:over :     39.80s CPU     39.83s WALL (   10090 calls)
     cegterg:upda :     12.15s CPU     12.15s WALL (   10090 calls)
     cegterg:last :     17.98s CPU     17.99s WALL (    8050 calls)
     h_psi        :    118.04s CPU    118.43s WALL (   10734 calls)
                                      118.37s GPU  (   10734 calls)
     g_psi        :      0.04s CPU      1.42s WALL (   10090 calls)
                                        1.38s GPU  (   10090 calls)

     Called by h_psi:
     h_psi:calbec :      0.32s CPU     19.18s WALL (   10734 calls)
                                       19.13s GPU  (   10734 calls)
     vloc_psi     :     82.26s CPU     82.60s WALL (   10734 calls)
                                       82.56s GPU  (   10734 calls)
     add_vuspsi   :      2.25s CPU     15.99s WALL (   10734 calls)
                                       15.89s GPU  (   10734 calls)

     General routines
     calbec       :      0.30s CPU      0.33s WALL (   10734 calls)
     fft          :      0.23s CPU      0.23s WALL (      11 calls)
                                        0.01s GPU  (      10 calls)
     ffts         :      0.23s CPU      0.23s WALL (       1 calls)
     fftw         :      0.31s CPU     72.11s WALL (   30438 calls)
                                       71.97s GPU  (   30438 calls)
     interpolate  :      0.45s CPU      0.46s WALL (       1 calls)
     davcio       :      0.01s CPU      0.15s WALL (     200 calls)
 
     Parallel routines
 
     PWSCF        :   3m42.98s CPU   3m43.75s WALL

 
   This run was terminated on:   4: 7:47  13Mar2026            

=------------------------------------------------------------------------------=
   JOB DONE.
=------------------------------------------------------------------------------=
