
     Program PWSCF v.7.4.1 starts on 13Mar2026 at  4: 1:13 

     This program is part of the open-source Quantum ESPRESSO suite
     for quantum simulation of materials; please cite
         "P. Giannozzi et al., J. Phys.:Condens. Matter 21 395502 (2009);
         "P. Giannozzi et al., J. Phys.:Condens. Matter 29 465901 (2017);
         "P. Giannozzi et al., J. Chem. Phys. 152 154105 (2020);
          URL http://www.quantum-espresso.org", 
     in publications or presentations arising from this work. More details at
     http://www.quantum-espresso.org/quote

     Parallel version (MPI), running on     1 processors

     MPI processes distributed on     1 nodes
     10968 MiB available memory on the printing compute node when the environment starts
 
     Reading input from scf.in

     Current dimensions of program PWSCF are:
     Max number of different atomic species (ntypx) = 10
     Max number of k-points (npk) =  40000
     Max angular momentum in pseudopotentials (lmaxx) =  4
     Message from routine setup:
     no reason to have ecutrho>4*ecutwfc
 
     Subspace diagonalization in iterative solution of the eigenvalue problem:
     a serial algorithm will be used

 
     G-vector sticks info
     --------------------
     sticks:   dense  smooth     PW     G-vecs:    dense   smooth      PW
     Sum         847     673    199               140931   100699   16027
 
     Using Slab Decomposition
 


     bravais-lattice index     =            4
     lattice parameter (alat)  =       5.5356  a.u.
     unit-cell volume          =    1041.3958 (a.u.)^3
     number of atoms/cell      =            7
     number of atomic types    =            3
     number of electrons       =        42.00
     number of Kohn-Sham states=           21
     kinetic-energy cutoff     =      80.0000  Ry
     charge density cutoff     =     400.0000  Ry
     scf convergence threshold =      1.0E-10
     mixing beta               =       0.5000
     number of iterations used =            8  plain     mixing
     Exchange-correlation= PBE
                           (   1   4   3   4   0   0   0)

     GPU acceleration is ACTIVE.  1 visible GPUs per MPI rank
     GPU-aware MPI enabled


     GPU used by master process:

        Device Number: 0
        Device name: NVIDIA RTX A2000 12GB
        Compute capability : 86
        Ratio of single to double precision performance  : 64
        Memory Clock Rate (KHz): 6001000
        Memory Bus Width (bits): 192
        Peak Memory Bandwidth (GB/s): 288.05

     celldm(1)=   5.535613  celldm(2)=   0.000000  celldm(3)=   7.089051
     celldm(4)=   0.000000  celldm(5)=   0.000000  celldm(6)=   0.000000

     crystal axes: (cart. coord. in units of alat)
               a(1) = (   1.000000   0.000000   0.000000 )  
               a(2) = (  -0.500000   0.866025   0.000000 )  
               a(3) = (   0.000000   0.000000   7.089051 )  

     reciprocal axes: (cart. coord. in units 2 pi/alat)
               b(1) = (  1.000000  0.577350 -0.000000 )  
               b(2) = (  0.000000  1.154701  0.000000 )  
               b(3) = (  0.000000 -0.000000  0.141063 )  


     PseudoPot. # 1 for Cr read from file:
     /home/rao/Desktop/pseudo/ONCVPSP/sg15/Cr_ONCV_PBE_sr.upf
     MD5 check sum: 8c25700f94aee329d8014e8d8708abb4
     Pseudo is Norm-conserving, Zval = 14.0
     Generated using ONCVPSP code by D. R. Hamann
     Using radial grid of 1490 points,  6 beta functions with: 
                l(1) =   0
                l(2) =   0
                l(3) =   1
                l(4) =   1
                l(5) =   2
                l(6) =   2

     PseudoPot. # 2 for Si read from file:
     /home/rao/Desktop/pseudo/ONCVPSP/sg15/Si_ONCV_PBE_sr.upf
     MD5 check sum: 8553c464762ac42b85b1eed164b4d029
     Pseudo is Norm-conserving, Zval =  4.0
     Generated using ONCVPSP code by D. R. Hamann
     Using radial grid of 1510 points,  4 beta functions with: 
                l(1) =   0
                l(2) =   0
                l(3) =   1
                l(4) =   1

     PseudoPot. # 3 for N  read from file:
     /home/rao/Desktop/pseudo/ONCVPSP/sg15/N_ONCV_PBE_sr.upf
     MD5 check sum: 584dff68b02d160f04ff099e3496afa1
     Pseudo is Norm-conserving, Zval =  5.0
     Generated using ONCVPSP code by D. R. Hamann
     Using radial grid of 1058 points,  4 beta functions with: 
                l(1) =   0
                l(2) =   0
                l(3) =   1
                l(4) =   1

     atomic species   valence    mass     pseudopotential
     Cr               14.00    51.99600     Cr( 1.00)
     Si                4.00    28.08600     Si( 1.00)
     N                 5.00    14.00700     N ( 1.00)

     No symmetry found


                                    s                        frac. trans.

      isym =  1     identity                                     

 cryst.   s( 1) = (     1          0          0      )
                  (     0          1          0      )
                  (     0          0          1      )

 cart.    s( 1) = (  1.0000000  0.0000000  0.0000000 )
                  (  0.0000000  1.0000000  0.0000000 )
                  (  0.0000000  0.0000000  1.0000000 )


     point group C_1 (1)    
     there are  1 classes
     the character table:

       E    
A      1.00

     the symmetry operations in each class and the name of the first element:

     E        1
          identity                                               

   Cartesian axes

     site n.     atom                  positions (alat units)
         1        Cr     tau(   1) = (   0.7855765   0.1237869   3.0320475  )
         2        N      tau(   2) = (   0.2854967   0.4125098   2.6451472  )
         3        N      tau(   3) = (   0.2855607   0.4124693   3.4249131  )
         4        N      tau(   4) = (   0.7857934   0.1236563   4.2020077  )
         5        N      tau(   5) = (  -0.2141175   0.7009648   1.8768633  )
         6        Si     tau(   6) = (   0.2858646   0.4123000   2.0473202  )
         7        Si     tau(   7) = (   0.2857925   0.4123319   4.0272574  )

   Crystallographic axes

     site n.     atom                  positions (cryst. coord.)
         1        Cr     tau(   1) = (  0.8570449  0.1429368  0.4277085  )
         2        N      tau(   2) = (  0.5236594  0.4763253  0.3731313  )
         3        N      tau(   3) = (  0.5237000  0.4762785  0.4831271  )
         4        N      tau(   4) = (  0.8571864  0.1427860  0.5927461  )
         5        N      tau(   5) = (  0.1905847  0.8094045  0.2647552  )
         6        Si     tau(   6) = (  0.5239062  0.4760830  0.2888003  )
         7        Si     tau(   7) = (  0.5238525  0.4761199  0.5680954  )

     number of k points=    61
                       cart. coord. in units 2pi/alat
        k(    1) = (   0.0000000   0.0000000   0.0000000), wk =   0.0165289
        k(    2) = (   0.0000000   0.1049728   0.0000000), wk =   0.0330579
        k(    3) = (   0.0000000   0.2099456   0.0000000), wk =   0.0330579
        k(    4) = (   0.0000000   0.3149183   0.0000000), wk =   0.0330579
        k(    5) = (   0.0000000   0.4198911   0.0000000), wk =   0.0330579
        k(    6) = (   0.0000000   0.5248639   0.0000000), wk =   0.0330579
        k(    7) = (   0.0909091   0.1574592   0.0000000), wk =   0.0330579
        k(    8) = (   0.0909091   0.2624319   0.0000000), wk =   0.0330579
        k(    9) = (   0.0909091   0.3674047   0.0000000), wk =   0.0330579
        k(   10) = (   0.0909091   0.4723775   0.0000000), wk =   0.0330579
        k(   11) = (   0.0909091   0.5773503   0.0000000), wk =   0.0330579
        k(   12) = (   0.1818182   0.3149183   0.0000000), wk =   0.0330579
        k(   13) = (   0.1818182   0.4198911   0.0000000), wk =   0.0330579
        k(   14) = (   0.1818182   0.5248639   0.0000000), wk =   0.0330579
        k(   15) = (   0.2727273   0.4723775   0.0000000), wk =   0.0330579
        k(   16) = (   0.2727273   0.5773503   0.0000000), wk =   0.0330579
        k(   17) = (  -0.0909091   0.0524864   0.0000000), wk =   0.0330579
        k(   18) = (   0.0909091   0.0524864   0.0000000), wk =   0.0330579
        k(   19) = (  -0.1818182   0.1049728   0.0000000), wk =   0.0330579
        k(   20) = (   0.1818182   0.1049728   0.0000000), wk =   0.0330579
        k(   21) = (  -0.2727273   0.1574592   0.0000000), wk =   0.0330579
        k(   22) = (   0.2727273   0.1574592   0.0000000), wk =   0.0330579
        k(   23) = (  -0.3636364   0.2099456   0.0000000), wk =   0.0330579
        k(   24) = (   0.3636364   0.2099456   0.0000000), wk =   0.0330579
        k(   25) = (  -0.4545455   0.2624319   0.0000000), wk =   0.0330579
        k(   26) = (   0.4545455   0.2624319   0.0000000), wk =   0.0330579
        k(   27) = (  -0.0909091   0.1574592   0.0000000), wk =   0.0330579
        k(   28) = (   0.1818182  -0.0000000   0.0000000), wk =   0.0330579
        k(   29) = (  -0.0909091   0.2624319   0.0000000), wk =   0.0330579
        k(   30) = (  -0.1818182   0.2099456   0.0000000), wk =   0.0330579
        k(   31) = (   0.2727273   0.0524864   0.0000000), wk =   0.0330579
        k(   32) = (  -0.1818182  -0.2099456   0.0000000), wk =   0.0330579
        k(   33) = (   0.2727273  -0.0524864   0.0000000), wk =   0.0330579
        k(   34) = (  -0.0909091   0.3674047   0.0000000), wk =   0.0330579
        k(   35) = (  -0.2727273   0.2624319   0.0000000), wk =   0.0330579
        k(   36) = (   0.3636364   0.1049728   0.0000000), wk =   0.0330579
        k(   37) = (  -0.2727273  -0.2624319   0.0000000), wk =   0.0330579
        k(   38) = (   0.3636364  -0.1049728   0.0000000), wk =   0.0330579
        k(   39) = (  -0.0909091   0.4723775   0.0000000), wk =   0.0330579
        k(   40) = (  -0.3636364   0.3149183   0.0000000), wk =   0.0330579
        k(   41) = (   0.4545455   0.1574592   0.0000000), wk =   0.0330579
        k(   42) = (  -0.3636364  -0.3149183   0.0000000), wk =   0.0330579
        k(   43) = (   0.4545455  -0.1574592   0.0000000), wk =   0.0330579
        k(   44) = (  -0.4545455   0.3674047   0.0000000), wk =   0.0330579
        k(   45) = (   0.5454545   0.2099456   0.0000000), wk =   0.0330579
        k(   46) = (  -0.1818182   0.3149183   0.0000000), wk =   0.0330579
        k(   47) = (   0.3636364  -0.0000000   0.0000000), wk =   0.0330579
        k(   48) = (  -0.1818182   0.4198911   0.0000000), wk =   0.0330579
        k(   49) = (  -0.2727273   0.3674047   0.0000000), wk =   0.0330579
        k(   50) = (   0.4545455   0.0524864   0.0000000), wk =   0.0330579
        k(   51) = (  -0.2727273  -0.3674047   0.0000000), wk =   0.0330579
        k(   52) = (   0.4545455  -0.0524864   0.0000000), wk =   0.0330579
        k(   53) = (  -0.1818182   0.5248639   0.0000000), wk =   0.0330579
        k(   54) = (  -0.3636364   0.4198911   0.0000000), wk =   0.0330579
        k(   55) = (   0.5454545   0.1049728   0.0000000), wk =   0.0330579
        k(   56) = (  -0.3636364  -0.4198911   0.0000000), wk =   0.0330579
        k(   57) = (   0.5454545  -0.1049728   0.0000000), wk =   0.0330579
        k(   58) = (  -0.2727273   0.4723775   0.0000000), wk =   0.0330579
        k(   59) = (   0.5454545  -0.0000000   0.0000000), wk =   0.0330579
        k(   60) = (  -0.3636364   0.5248639   0.0000000), wk =   0.0330579
        k(   61) = (   0.6363636   0.0524864   0.0000000), wk =   0.0330579

                       cryst. coord.
        k(    1) = (   0.0000000   0.0000000   0.0000000), wk =   0.0165289
        k(    2) = (   0.0000000   0.0909091   0.0000000), wk =   0.0330579
        k(    3) = (   0.0000000   0.1818182   0.0000000), wk =   0.0330579
        k(    4) = (   0.0000000   0.2727273   0.0000000), wk =   0.0330579
        k(    5) = (   0.0000000   0.3636364   0.0000000), wk =   0.0330579
        k(    6) = (   0.0000000   0.4545455   0.0000000), wk =   0.0330579
        k(    7) = (   0.0909091   0.0909091   0.0000000), wk =   0.0330579
        k(    8) = (   0.0909091   0.1818182   0.0000000), wk =   0.0330579
        k(    9) = (   0.0909091   0.2727273   0.0000000), wk =   0.0330579
        k(   10) = (   0.0909091   0.3636364   0.0000000), wk =   0.0330579
        k(   11) = (   0.0909091   0.4545455   0.0000000), wk =   0.0330579
        k(   12) = (   0.1818182   0.1818182   0.0000000), wk =   0.0330579
        k(   13) = (   0.1818182   0.2727273   0.0000000), wk =   0.0330579
        k(   14) = (   0.1818182   0.3636364   0.0000000), wk =   0.0330579
        k(   15) = (   0.2727273   0.2727273   0.0000000), wk =   0.0330579
        k(   16) = (   0.2727273   0.3636364   0.0000000), wk =   0.0330579
        k(   17) = (  -0.0909091   0.0909091   0.0000000), wk =   0.0330579
        k(   18) = (   0.0909091   0.0000000   0.0000000), wk =   0.0330579
        k(   19) = (  -0.1818182   0.1818182   0.0000000), wk =   0.0330579
        k(   20) = (   0.1818182   0.0000000   0.0000000), wk =   0.0330579
        k(   21) = (  -0.2727273   0.2727273   0.0000000), wk =   0.0330579
        k(   22) = (   0.2727273   0.0000000   0.0000000), wk =   0.0330579
        k(   23) = (  -0.3636364   0.3636364   0.0000000), wk =   0.0330579
        k(   24) = (   0.3636364   0.0000000   0.0000000), wk =   0.0330579
        k(   25) = (  -0.4545455   0.4545455   0.0000000), wk =   0.0330579
        k(   26) = (   0.4545455   0.0000000   0.0000000), wk =   0.0330579
        k(   27) = (  -0.0909091   0.1818182   0.0000000), wk =   0.0330579
        k(   28) = (   0.1818182  -0.0909091   0.0000000), wk =   0.0330579
        k(   29) = (  -0.0909091   0.2727273   0.0000000), wk =   0.0330579
        k(   30) = (  -0.1818182   0.2727273   0.0000000), wk =   0.0330579
        k(   31) = (   0.2727273  -0.0909091   0.0000000), wk =   0.0330579
        k(   32) = (  -0.1818182  -0.0909091   0.0000000), wk =   0.0330579
        k(   33) = (   0.2727273  -0.1818182   0.0000000), wk =   0.0330579
        k(   34) = (  -0.0909091   0.3636364   0.0000000), wk =   0.0330579
        k(   35) = (  -0.2727273   0.3636364   0.0000000), wk =   0.0330579
        k(   36) = (   0.3636364  -0.0909091   0.0000000), wk =   0.0330579
        k(   37) = (  -0.2727273  -0.0909091   0.0000000), wk =   0.0330579
        k(   38) = (   0.3636364  -0.2727273   0.0000000), wk =   0.0330579
        k(   39) = (  -0.0909091   0.4545455   0.0000000), wk =   0.0330579
        k(   40) = (  -0.3636364   0.4545455   0.0000000), wk =   0.0330579
        k(   41) = (   0.4545455  -0.0909091   0.0000000), wk =   0.0330579
        k(   42) = (  -0.3636364  -0.0909091   0.0000000), wk =   0.0330579
        k(   43) = (   0.4545455  -0.3636364   0.0000000), wk =   0.0330579
        k(   44) = (  -0.4545455   0.5454545   0.0000000), wk =   0.0330579
        k(   45) = (   0.5454545  -0.0909091   0.0000000), wk =   0.0330579
        k(   46) = (  -0.1818182   0.3636364   0.0000000), wk =   0.0330579
        k(   47) = (   0.3636364  -0.1818182   0.0000000), wk =   0.0330579
        k(   48) = (  -0.1818182   0.4545455   0.0000000), wk =   0.0330579
        k(   49) = (  -0.2727273   0.4545455   0.0000000), wk =   0.0330579
        k(   50) = (   0.4545455  -0.1818182   0.0000000), wk =   0.0330579
        k(   51) = (  -0.2727273  -0.1818182   0.0000000), wk =   0.0330579
        k(   52) = (   0.4545455  -0.2727273   0.0000000), wk =   0.0330579
        k(   53) = (  -0.1818182   0.5454545   0.0000000), wk =   0.0330579
        k(   54) = (  -0.3636364   0.5454545   0.0000000), wk =   0.0330579
        k(   55) = (   0.5454545  -0.1818182   0.0000000), wk =   0.0330579
        k(   56) = (  -0.3636364  -0.1818182   0.0000000), wk =   0.0330579
        k(   57) = (   0.5454545  -0.3636364   0.0000000), wk =   0.0330579
        k(   58) = (  -0.2727273   0.5454545   0.0000000), wk =   0.0330579
        k(   59) = (   0.5454545  -0.2727273   0.0000000), wk =   0.0330579
        k(   60) = (  -0.3636364   0.6363636   0.0000000), wk =   0.0330579
        k(   61) = (   0.6363636  -0.2727273   0.0000000), wk =   0.0330579

     Dense  grid:   140931 G-vectors     FFT dimensions: (  36,  36, 250)

     Smooth grid:   100699 G-vectors     FFT dimensions: (  32,  32, 225)

     Dynamical RAM for                 wfc:       4.03 MB

     Dynamical RAM for     wfc (w. buffer):     249.99 MB

     Dynamical RAM for           str. fact:       6.45 MB

     Dynamical RAM for           local pot:       0.00 MB

     Dynamical RAM for          nlocal pot:      12.67 MB

     Dynamical RAM for                qrad:       4.82 MB

     Dynamical RAM for          rho,v,vnew:      13.87 MB

     Dynamical RAM for               rhoin:       4.62 MB

     Dynamical RAM for            rho*nmix:      34.41 MB

     Dynamical RAM for           G-vectors:       8.83 MB

     Dynamical RAM for          h,s,v(r/c):       0.08 MB

     Dynamical RAM for          <psi|beta>:       0.02 MB

     Dynamical RAM for                 psi:       8.06 MB

     Dynamical RAM for                hpsi:       8.06 MB

     Dynamical RAM for      wfcinit/wfcrot:       8.07 MB

     Estimated static dynamical RAM per process >     322.21 MB

     Estimated max dynamical RAM per process >     372.85 MB
 ----2D----2D----2D----2D----2D----2D----2D----2D----2D----2D----2D----2D
  The code is running with the 2D cutoff
  Please refer to:
  Sohier, T., Calandra, M., & Mauri, F. (2017), 
  Density functional perturbation theory for gated two-dimensional heterostructures:
  Theoretical developments and application to flexural phonons in graphene.
  Physical Review B, 96(7), 75448. https://doi.org/10.1103/PhysRevB.96.075448
 ----2D----2D----2D----2D----2D----2D----2D----2D----2D----2D----2D----2D

     Initial potential from superposition of free atoms

     starting charge      41.9980, renormalised to      42.0000

     negative rho (up, down):  1.133E-06 0.000E+00
     Starting wfcs are   34 randomized atomic wfcs

     total cpu time spent up to now is        3.4 secs

     Self-consistent Calculation
[tb_dev] Currently allocated     1.51E+00 Mbytes, locked:    0 /   5
[tb_pin] Currently allocated     0.00E+00 Mbytes, locked:    0 /   0

     iteration #  1     ecut=    80.00 Ry     beta= 0.50
     Davidson diagonalization with overlap

---- Real-time Memory Report at c_bands before calling an iterative solver
           928 MiB given to the printing process from OS
             0 MiB allocation reported by mallinfo(arena+hblkhd)
         10457 MiB available memory on the node where the printing process lives
     GPU memory used/free/total (MiB): 2055 / 9859 / 11914
------------------
     ethr =  1.00E-02,  avg # of iterations =  2.0

     total cpu time spent up to now is        8.0 secs

     total energy              =    -262.42866867 Ry
     estimated scf accuracy    <       2.32506702 Ry
[tb_dev] Currently allocated     2.67E-05 Mbytes, locked:    0 /   1
[tb_pin] Currently allocated     0.00E+00 Mbytes, locked:    0 /   0

     iteration #  2     ecut=    80.00 Ry     beta= 0.50
     Davidson diagonalization with overlap

---- Real-time Memory Report at c_bands before calling an iterative solver
           944 MiB given to the printing process from OS
             0 MiB allocation reported by mallinfo(arena+hblkhd)
         10441 MiB available memory on the node where the printing process lives
     GPU memory used/free/total (MiB): 2079 / 9835 / 11914
------------------
     ethr =  5.54E-03,  avg # of iterations =  7.9

     total cpu time spent up to now is       16.7 secs

     total energy              =    -261.95777050 Ry
     estimated scf accuracy    <       8.10555818 Ry
[tb_dev] Currently allocated     2.67E-05 Mbytes, locked:    0 /   1
[tb_pin] Currently allocated     0.00E+00 Mbytes, locked:    0 /   0

     iteration #  3     ecut=    80.00 Ry     beta= 0.50
     Davidson diagonalization with overlap

---- Real-time Memory Report at c_bands before calling an iterative solver
           965 MiB given to the printing process from OS
             0 MiB allocation reported by mallinfo(arena+hblkhd)
         10422 MiB available memory on the node where the printing process lives
     GPU memory used/free/total (MiB): 2079 / 9835 / 11914
------------------
     ethr =  5.54E-03,  avg # of iterations =  6.2

     total cpu time spent up to now is       23.5 secs

     total energy              =    -263.19315695 Ry
     estimated scf accuracy    <       1.35186197 Ry
[tb_dev] Currently allocated     2.67E-05 Mbytes, locked:    0 /   1
[tb_pin] Currently allocated     0.00E+00 Mbytes, locked:    0 /   0

     iteration #  4     ecut=    80.00 Ry     beta= 0.50
     Davidson diagonalization with overlap

---- Real-time Memory Report at c_bands before calling an iterative solver
           971 MiB given to the printing process from OS
             0 MiB allocation reported by mallinfo(arena+hblkhd)
         10415 MiB available memory on the node where the printing process lives
     GPU memory used/free/total (MiB): 2079 / 9835 / 11914
------------------
     ethr =  3.22E-03,  avg # of iterations =  2.6

     total cpu time spent up to now is       28.1 secs

     total energy              =    -263.27838057 Ry
     estimated scf accuracy    <       0.28416290 Ry
[tb_dev] Currently allocated     2.67E-05 Mbytes, locked:    0 /   1
[tb_pin] Currently allocated     0.00E+00 Mbytes, locked:    0 /   0

     iteration #  5     ecut=    80.00 Ry     beta= 0.50
     Davidson diagonalization with overlap

---- Real-time Memory Report at c_bands before calling an iterative solver
           974 MiB given to the printing process from OS
             0 MiB allocation reported by mallinfo(arena+hblkhd)
         10414 MiB available memory on the node where the printing process lives
     GPU memory used/free/total (MiB): 2079 / 9835 / 11914
------------------
     ethr =  6.77E-04,  avg # of iterations =  3.8

     total cpu time spent up to now is       33.3 secs

     total energy              =    -263.30409585 Ry
     estimated scf accuracy    <       0.04869103 Ry
[tb_dev] Currently allocated     2.67E-05 Mbytes, locked:    0 /   1
[tb_pin] Currently allocated     0.00E+00 Mbytes, locked:    0 /   0

     iteration #  6     ecut=    80.00 Ry     beta= 0.50
     Davidson diagonalization with overlap

---- Real-time Memory Report at c_bands before calling an iterative solver
           979 MiB given to the printing process from OS
             0 MiB allocation reported by mallinfo(arena+hblkhd)
         10406 MiB available memory on the node where the printing process lives
     GPU memory used/free/total (MiB): 2079 / 9835 / 11914
------------------
     ethr =  1.16E-04,  avg # of iterations =  7.8

     total cpu time spent up to now is       41.6 secs

     total energy              =    -263.32858305 Ry
     estimated scf accuracy    <       0.06042936 Ry
[tb_dev] Currently allocated     2.67E-05 Mbytes, locked:    0 /   1
[tb_pin] Currently allocated     0.00E+00 Mbytes, locked:    0 /   0

     iteration #  7     ecut=    80.00 Ry     beta= 0.50
     Davidson diagonalization with overlap

---- Real-time Memory Report at c_bands before calling an iterative solver
           984 MiB given to the printing process from OS
             0 MiB allocation reported by mallinfo(arena+hblkhd)
         10407 MiB available memory on the node where the printing process lives
     GPU memory used/free/total (MiB): 2079 / 9835 / 11914
------------------
     ethr =  1.16E-04,  avg # of iterations =  4.5

     total cpu time spent up to now is       47.6 secs

     total energy              =    -263.32511584 Ry
     estimated scf accuracy    <       0.05854052 Ry
[tb_dev] Currently allocated     2.67E-05 Mbytes, locked:    0 /   1
[tb_pin] Currently allocated     0.00E+00 Mbytes, locked:    0 /   0

     iteration #  8     ecut=    80.00 Ry     beta= 0.50
     Davidson diagonalization with overlap

---- Real-time Memory Report at c_bands before calling an iterative solver
           988 MiB given to the printing process from OS
             0 MiB allocation reported by mallinfo(arena+hblkhd)
         10397 MiB available memory on the node where the printing process lives
     GPU memory used/free/total (MiB): 2079 / 9835 / 11914
------------------
     ethr =  1.16E-04,  avg # of iterations =  3.3

     total cpu time spent up to now is       52.9 secs

     total energy              =    -263.32620538 Ry
     estimated scf accuracy    <       0.02021659 Ry
[tb_dev] Currently allocated     2.67E-05 Mbytes, locked:    0 /   1
[tb_pin] Currently allocated     0.00E+00 Mbytes, locked:    0 /   0

     iteration #  9     ecut=    80.00 Ry     beta= 0.50
     Davidson diagonalization with overlap

---- Real-time Memory Report at c_bands before calling an iterative solver
           993 MiB given to the printing process from OS
             0 MiB allocation reported by mallinfo(arena+hblkhd)
         10390 MiB available memory on the node where the printing process lives
     GPU memory used/free/total (MiB): 2079 / 9835 / 11914
------------------
     ethr =  4.81E-05,  avg # of iterations =  4.2

     total cpu time spent up to now is       58.6 secs

     total energy              =    -263.32737304 Ry
     estimated scf accuracy    <       0.00379081 Ry
[tb_dev] Currently allocated     2.67E-05 Mbytes, locked:    0 /   1
[tb_pin] Currently allocated     0.00E+00 Mbytes, locked:    0 /   0

     iteration # 10     ecut=    80.00 Ry     beta= 0.50
     Davidson diagonalization with overlap

---- Real-time Memory Report at c_bands before calling an iterative solver
           998 MiB given to the printing process from OS
             0 MiB allocation reported by mallinfo(arena+hblkhd)
         10385 MiB available memory on the node where the printing process lives
     GPU memory used/free/total (MiB): 2079 / 9835 / 11914
------------------
     ethr =  9.03E-06,  avg # of iterations =  5.8

     total cpu time spent up to now is       65.3 secs

     total energy              =    -263.32887309 Ry
     estimated scf accuracy    <       0.00132350 Ry
[tb_dev] Currently allocated     2.67E-05 Mbytes, locked:    0 /   1
[tb_pin] Currently allocated     0.00E+00 Mbytes, locked:    0 /   0

     iteration # 11     ecut=    80.00 Ry     beta= 0.50
     Davidson diagonalization with overlap

---- Real-time Memory Report at c_bands before calling an iterative solver
           998 MiB given to the printing process from OS
             0 MiB allocation reported by mallinfo(arena+hblkhd)
         10383 MiB available memory on the node where the printing process lives
     GPU memory used/free/total (MiB): 2079 / 9835 / 11914
------------------
     ethr =  3.15E-06,  avg # of iterations =  2.3

     total cpu time spent up to now is       69.6 secs

     total energy              =    -263.32872262 Ry
     estimated scf accuracy    <       0.00086155 Ry
[tb_dev] Currently allocated     2.67E-05 Mbytes, locked:    0 /   1
[tb_pin] Currently allocated     0.00E+00 Mbytes, locked:    0 /   0

     iteration # 12     ecut=    80.00 Ry     beta= 0.50
     Davidson diagonalization with overlap

---- Real-time Memory Report at c_bands before calling an iterative solver
           999 MiB given to the printing process from OS
             0 MiB allocation reported by mallinfo(arena+hblkhd)
         10384 MiB available memory on the node where the printing process lives
     GPU memory used/free/total (MiB): 2079 / 9835 / 11914
------------------
     ethr =  2.05E-06,  avg # of iterations =  5.3

     total cpu time spent up to now is       75.8 secs

     total energy              =    -263.32889837 Ry
     estimated scf accuracy    <       0.00002836 Ry
[tb_dev] Currently allocated     2.67E-05 Mbytes, locked:    0 /   1
[tb_pin] Currently allocated     0.00E+00 Mbytes, locked:    0 /   0

     iteration # 13     ecut=    80.00 Ry     beta= 0.50
     Davidson diagonalization with overlap

---- Real-time Memory Report at c_bands before calling an iterative solver
           999 MiB given to the printing process from OS
             0 MiB allocation reported by mallinfo(arena+hblkhd)
         10383 MiB available memory on the node where the printing process lives
     GPU memory used/free/total (MiB): 2079 / 9835 / 11914
------------------
     ethr =  6.75E-08,  avg # of iterations =  7.4

     total cpu time spent up to now is       84.3 secs

     total energy              =    -263.32891084 Ry
     estimated scf accuracy    <       0.00006687 Ry
[tb_dev] Currently allocated     2.67E-05 Mbytes, locked:    0 /   1
[tb_pin] Currently allocated     0.00E+00 Mbytes, locked:    0 /   0

     iteration # 14     ecut=    80.00 Ry     beta= 0.50
     Davidson diagonalization with overlap

---- Real-time Memory Report at c_bands before calling an iterative solver
           999 MiB given to the printing process from OS
             0 MiB allocation reported by mallinfo(arena+hblkhd)
         10380 MiB available memory on the node where the printing process lives
     GPU memory used/free/total (MiB): 2081 / 9833 / 11914
------------------
     ethr =  6.75E-08,  avg # of iterations =  5.1

     total cpu time spent up to now is       90.5 secs

     total energy              =    -263.32891760 Ry
     estimated scf accuracy    <       0.00000283 Ry
[tb_dev] Currently allocated     2.67E-05 Mbytes, locked:    0 /   1
[tb_pin] Currently allocated     0.00E+00 Mbytes, locked:    0 /   0

     iteration # 15     ecut=    80.00 Ry     beta= 0.50
     Davidson diagonalization with overlap

---- Real-time Memory Report at c_bands before calling an iterative solver
           999 MiB given to the printing process from OS
             0 MiB allocation reported by mallinfo(arena+hblkhd)
         10377 MiB available memory on the node where the printing process lives
     GPU memory used/free/total (MiB): 2081 / 9833 / 11914
------------------
     ethr =  6.75E-09,  avg # of iterations =  7.4

     total cpu time spent up to now is       99.1 secs

     total energy              =    -263.32891748 Ry
     estimated scf accuracy    <       0.00002483 Ry
[tb_dev] Currently allocated     2.67E-05 Mbytes, locked:    0 /   1
[tb_pin] Currently allocated     0.00E+00 Mbytes, locked:    0 /   0

     iteration # 16     ecut=    80.00 Ry     beta= 0.50
     Davidson diagonalization with overlap

---- Real-time Memory Report at c_bands before calling an iterative solver
          1000 MiB given to the printing process from OS
             0 MiB allocation reported by mallinfo(arena+hblkhd)
         10377 MiB available memory on the node where the printing process lives
     GPU memory used/free/total (MiB): 2081 / 9833 / 11914
------------------
     ethr =  6.75E-09,  avg # of iterations =  7.3

     total cpu time spent up to now is      106.7 secs

     total energy              =    -263.32891932 Ry
     estimated scf accuracy    <       0.00000131 Ry
[tb_dev] Currently allocated     2.67E-05 Mbytes, locked:    0 /   1
[tb_pin] Currently allocated     0.00E+00 Mbytes, locked:    0 /   0

     iteration # 17     ecut=    80.00 Ry     beta= 0.50
     Davidson diagonalization with overlap

---- Real-time Memory Report at c_bands before calling an iterative solver
          1000 MiB given to the printing process from OS
             0 MiB allocation reported by mallinfo(arena+hblkhd)
         10375 MiB available memory on the node where the printing process lives
     GPU memory used/free/total (MiB): 2081 / 9833 / 11914
------------------
     ethr =  3.11E-09,  avg # of iterations =  1.5

     total cpu time spent up to now is      110.6 secs

     total energy              =    -263.32891925 Ry
     estimated scf accuracy    <       0.00000089 Ry
[tb_dev] Currently allocated     2.67E-05 Mbytes, locked:    0 /   1
[tb_pin] Currently allocated     0.00E+00 Mbytes, locked:    0 /   0

     iteration # 18     ecut=    80.00 Ry     beta= 0.50
     Davidson diagonalization with overlap

---- Real-time Memory Report at c_bands before calling an iterative solver
          1002 MiB given to the printing process from OS
             0 MiB allocation reported by mallinfo(arena+hblkhd)
         10374 MiB available memory on the node where the printing process lives
     GPU memory used/free/total (MiB): 2081 / 9833 / 11914
------------------
     ethr =  2.12E-09,  avg # of iterations =  4.6

     total cpu time spent up to now is      116.4 secs

     total energy              =    -263.32891932 Ry
     estimated scf accuracy    <       0.00000023 Ry
[tb_dev] Currently allocated     2.67E-05 Mbytes, locked:    0 /   1
[tb_pin] Currently allocated     0.00E+00 Mbytes, locked:    0 /   0

     iteration # 19     ecut=    80.00 Ry     beta= 0.50
     Davidson diagonalization with overlap

---- Real-time Memory Report at c_bands before calling an iterative solver
          1002 MiB given to the printing process from OS
             0 MiB allocation reported by mallinfo(arena+hblkhd)
         10372 MiB available memory on the node where the printing process lives
     GPU memory used/free/total (MiB): 2081 / 9833 / 11914
------------------
     ethr =  5.42E-10,  avg # of iterations =  6.1

     total cpu time spent up to now is      123.4 secs

     total energy              =    -263.32891938 Ry
     estimated scf accuracy    <       0.00000018 Ry
[tb_dev] Currently allocated     2.67E-05 Mbytes, locked:    0 /   1
[tb_pin] Currently allocated     0.00E+00 Mbytes, locked:    0 /   0

     iteration # 20     ecut=    80.00 Ry     beta= 0.50
     Davidson diagonalization with overlap

---- Real-time Memory Report at c_bands before calling an iterative solver
          1002 MiB given to the printing process from OS
             0 MiB allocation reported by mallinfo(arena+hblkhd)
         10368 MiB available memory on the node where the printing process lives
     GPU memory used/free/total (MiB): 2081 / 9833 / 11914
------------------
     ethr =  4.40E-10,  avg # of iterations =  1.5

     total cpu time spent up to now is      127.2 secs

     total energy              =    -263.32891937 Ry
     estimated scf accuracy    <       0.00000011 Ry
[tb_dev] Currently allocated     2.67E-05 Mbytes, locked:    0 /   1
[tb_pin] Currently allocated     0.00E+00 Mbytes, locked:    0 /   0

     iteration # 21     ecut=    80.00 Ry     beta= 0.50
     Davidson diagonalization with overlap

---- Real-time Memory Report at c_bands before calling an iterative solver
          1002 MiB given to the printing process from OS
             0 MiB allocation reported by mallinfo(arena+hblkhd)
         10368 MiB available memory on the node where the printing process lives
     GPU memory used/free/total (MiB): 2081 / 9833 / 11914
------------------
     ethr =  2.54E-10,  avg # of iterations =  5.1

     total cpu time spent up to now is      133.6 secs

     total energy              =    -263.32891939 Ry
     estimated scf accuracy    <          3.4E-09 Ry
[tb_dev] Currently allocated     2.67E-05 Mbytes, locked:    0 /   1
[tb_pin] Currently allocated     0.00E+00 Mbytes, locked:    0 /   0

     iteration # 22     ecut=    80.00 Ry     beta= 0.50
     Davidson diagonalization with overlap

---- Real-time Memory Report at c_bands before calling an iterative solver
          1002 MiB given to the printing process from OS
             0 MiB allocation reported by mallinfo(arena+hblkhd)
         10376 MiB available memory on the node where the printing process lives
     GPU memory used/free/total (MiB): 2081 / 9833 / 11914
------------------
     ethr =  8.07E-12,  avg # of iterations =  7.8

     total cpu time spent up to now is      142.1 secs

     total energy              =    -263.32891939 Ry
     estimated scf accuracy    <          2.5E-09 Ry
[tb_dev] Currently allocated     2.67E-05 Mbytes, locked:    0 /   1
[tb_pin] Currently allocated     0.00E+00 Mbytes, locked:    0 /   0

     iteration # 23     ecut=    80.00 Ry     beta= 0.50
     Davidson diagonalization with overlap

---- Real-time Memory Report at c_bands before calling an iterative solver
          1002 MiB given to the printing process from OS
             0 MiB allocation reported by mallinfo(arena+hblkhd)
         10378 MiB available memory on the node where the printing process lives
     GPU memory used/free/total (MiB): 2081 / 9833 / 11914
------------------
     ethr =  6.06E-12,  avg # of iterations =  4.8

     total cpu time spent up to now is      148.4 secs

     total energy              =    -263.32891939 Ry
     estimated scf accuracy    <          4.8E-10 Ry
[tb_dev] Currently allocated     2.67E-05 Mbytes, locked:    0 /   1
[tb_pin] Currently allocated     0.00E+00 Mbytes, locked:    0 /   0

     iteration # 24     ecut=    80.00 Ry     beta= 0.50
     Davidson diagonalization with overlap

---- Real-time Memory Report at c_bands before calling an iterative solver
          1002 MiB given to the printing process from OS
             0 MiB allocation reported by mallinfo(arena+hblkhd)
         10379 MiB available memory on the node where the printing process lives
     GPU memory used/free/total (MiB): 2081 / 9833 / 11914
------------------
     ethr =  1.15E-12,  avg # of iterations =  7.1

     total cpu time spent up to now is      156.0 secs

     total energy              =    -263.32891939 Ry
     estimated scf accuracy    <          1.3E-09 Ry
[tb_dev] Currently allocated     2.67E-05 Mbytes, locked:    0 /   1
[tb_pin] Currently allocated     0.00E+00 Mbytes, locked:    0 /   0

     iteration # 25     ecut=    80.00 Ry     beta= 0.50
     Davidson diagonalization with overlap

---- Real-time Memory Report at c_bands before calling an iterative solver
          1002 MiB given to the printing process from OS
             0 MiB allocation reported by mallinfo(arena+hblkhd)
         10376 MiB available memory on the node where the printing process lives
     GPU memory used/free/total (MiB): 2081 / 9833 / 11914
------------------
     ethr =  1.15E-12,  avg # of iterations =  5.9

     total cpu time spent up to now is      162.7 secs

     total energy              =    -263.32891939 Ry
     estimated scf accuracy    <          1.9E-10 Ry
[tb_dev] Currently allocated     2.67E-05 Mbytes, locked:    0 /   1
[tb_pin] Currently allocated     0.00E+00 Mbytes, locked:    0 /   0

     iteration # 26     ecut=    80.00 Ry     beta= 0.50
     Davidson diagonalization with overlap

---- Real-time Memory Report at c_bands before calling an iterative solver
          1002 MiB given to the printing process from OS
             0 MiB allocation reported by mallinfo(arena+hblkhd)
         10371 MiB available memory on the node where the printing process lives
     GPU memory used/free/total (MiB): 2081 / 9833 / 11914
------------------
     ethr =  4.44E-13,  avg # of iterations =  5.2

     total cpu time spent up to now is      169.4 secs

     End of self-consistent calculation

          k = 0.0000 0.0000 0.0000 ( 12573 PWs)   bands (ev):

   -77.7392 -48.9755 -48.9755 -48.8509 -23.8676 -23.7650 -21.2756 -19.8769
   -13.4748 -10.7655  -9.1940  -9.1938  -9.1275  -9.1269  -8.9128  -8.6790
    -8.6789  -7.3997  -7.3984  -7.1040  -5.1797

     occupation numbers 
     1.0000   1.0000   1.0000   1.0000   1.0000   1.0000   1.0000   1.0000
     1.0000   1.0000   1.0000   1.0000   1.0000   1.0000   1.0000   1.0000
     1.0000   1.0000   1.0000   1.0000   1.0000

          k = 0.0000 0.1050 0.0000 ( 12523 PWs)   bands (ev):

   -77.7373 -48.9913 -48.9791 -48.8481 -23.7369 -23.6360 -21.1820 -19.8287
   -13.3807 -10.7270  -9.8218  -9.7533  -9.3180  -9.2609  -8.9330  -8.7321
    -8.5997  -7.5694  -7.5253  -6.9893  -5.2830

     occupation numbers 
     1.0000   1.0000   1.0000   1.0000   1.0000   1.0000   1.0000   1.0000
     1.0000   1.0000   1.0000   1.0000   1.0000   1.0000   1.0000   1.0000
     1.0000   1.0000   1.0000   1.0000   1.0000

          k = 0.0000 0.2099 0.0000 ( 12526 PWs)   bands (ev):

   -77.7323 -49.0334 -48.9888 -48.8407 -23.3564 -23.2601 -20.9269 -19.7011
   -13.1730 -11.2172 -11.0338 -10.5410  -9.6367  -9.5904  -9.4886  -8.5157
    -8.3661  -7.9114  -7.8309  -7.0637  -5.6297

     occupation numbers 
     1.0000   1.0000   1.0000   1.0000   1.0000   1.0000   1.0000   1.0000
     1.0000   1.0000   1.0000   1.0000   1.0000   1.0000   1.0000   1.0000
     1.0000   1.0000   1.0000   1.0000   1.0000

          k = 0.0000 0.3149 0.0000 ( 12570 PWs)   bands (ev):

   -77.7258 -49.0881 -49.0015 -48.8310 -22.7668 -22.6774 -20.5903 -19.5485
   -13.3435 -12.7099 -11.9777 -10.4913 -10.0810 -10.0164  -9.9695  -8.4533
    -8.2296  -8.1945  -8.0156  -7.2195  -5.9809

     occupation numbers 
     1.0000   1.0000   1.0000   1.0000   1.0000   1.0000   1.0000   1.0000
     1.0000   1.0000   1.0000   1.0000   1.0000   1.0000   1.0000   1.0000
     1.0000   1.0000   1.0000   1.0000   1.0000

          k = 0.0000 0.4199 0.0000 ( 12580 PWs)   bands (ev):

   -77.7198 -49.1381 -49.0131 -48.8220 -22.0653 -21.9845 -20.3118 -19.4637
   -14.3377 -14.0123 -11.9535 -10.8293 -10.3317 -10.3070 -10.2794  -8.8257
    -8.4732  -8.0138  -7.6799  -7.2927  -6.0976

     occupation numbers 
     1.0000   1.0000   1.0000   1.0000   1.0000   1.0000   1.0000   1.0000
     1.0000   1.0000   1.0000   1.0000   1.0000   1.0000   1.0000   1.0000
     1.0000   1.0000   1.0000   1.0000   1.0000

          k = 0.0000 0.5249 0.0000 ( 12588 PWs)   bands (ev):

   -77.7162 -49.1676 -49.0200 -48.8167 -21.4896 -21.4178 -20.2266 -19.5037
   -15.0832 -14.7859 -11.7865 -11.2038 -10.5061 -10.4501 -10.4145  -8.9551
    -8.6301  -7.8027  -7.4565  -7.3070  -6.0648

     occupation numbers 
     1.0000   1.0000   1.0000   1.0000   1.0000   1.0000   1.0000   1.0000
     1.0000   1.0000   1.0000   1.0000   1.0000   1.0000   1.0000   1.0000
     1.0000   1.0000   1.0000   1.0000   1.0000

          k = 0.0909 0.1575 0.0000 ( 12524 PWs)   bands (ev):

   -77.7339 -49.0192 -48.9867 -48.8430 -23.4811 -23.3834 -21.0075 -19.7406
   -13.2254 -10.8283 -10.6392 -10.4929  -9.6938  -9.5939  -9.2049  -8.5781
    -8.4665  -7.8744  -7.6744  -6.9937  -5.5180

     occupation numbers 
     1.0000   1.0000   1.0000   1.0000   1.0000   1.0000   1.0000   1.0000
     1.0000   1.0000   1.0000   1.0000   1.0000   1.0000   1.0000   1.0000
     1.0000   1.0000   1.0000   1.0000   1.0000

          k = 0.0909 0.2624 0.0000 ( 12552 PWs)   bands (ev):

   -77.7281 -49.0653 -49.0002 -48.8344 -22.9945 -22.9025 -20.7099 -19.5984
   -13.1357 -12.0550 -11.6610 -10.4890 -10.2711 -10.0876  -9.6583  -8.4737
    -8.3522  -8.1996  -7.7965  -7.1549  -5.8776

     occupation numbers 
     1.0000   1.0000   1.0000   1.0000   1.0000   1.0000   1.0000   1.0000
     1.0000   1.0000   1.0000   1.0000   1.0000   1.0000   1.0000   1.0000
     1.0000   1.0000   1.0000   1.0000   1.0000

          k = 0.0909 0.3674 0.0000 ( 12581 PWs)   bands (ev):

   -77.7219 -49.1150 -49.0151 -48.8251 -22.3410 -22.2565 -20.3978 -19.4749
   -13.7981 -13.3908 -11.9728 -10.8477 -10.6036 -10.3080 -10.1265  -8.9637
    -8.2106  -8.0248  -7.8814  -7.2792  -6.0977

     occupation numbers 
     1.0000   1.0000   1.0000   1.0000   1.0000   1.0000   1.0000   1.0000
     1.0000   1.0000   1.0000   1.0000   1.0000   1.0000   1.0000   1.0000
     1.0000   1.0000   1.0000   1.0000   1.0000

          k = 0.0909 0.4724 0.0000 ( 12599 PWs)   bands (ev):

   -77.7171 -49.1527 -49.0264 -48.8180 -21.6708 -21.5955 -20.2215 -19.4601
   -14.7155 -14.4101 -11.8332 -11.2111 -10.8665 -10.6047 -10.3132  -9.1311
    -8.4321  -7.8935  -7.7183  -7.2502  -6.0900

     occupation numbers 
     1.0000   1.0000   1.0000   1.0000   1.0000   1.0000   1.0000   1.0000
     1.0000   1.0000   1.0000   1.0000   1.0000   1.0000   1.0000   1.0000
     1.0000   1.0000   1.0000   1.0000   1.0000

          k = 0.0909 0.5774 0.0000 ( 12588 PWs)   bands (ev):

   -77.7153 -49.1667 -49.0306 -48.8153 -21.3363 -21.2659 -20.2126 -19.5087
   -15.0966 -14.7972 -11.7496 -11.3579 -10.8882 -10.8373 -10.3926  -9.0766
    -8.6128  -7.8105  -7.6204  -7.2226  -6.0405

     occupation numbers 
     1.0000   1.0000   1.0000   1.0000   1.0000   1.0000   1.0000   1.0000
     1.0000   1.0000   1.0000   1.0000   1.0000   1.0000   1.0000   1.0000
     1.0000   1.0000   1.0000   1.0000   1.0000

          k = 0.1818 0.3149 0.0000 ( 12576 PWs)   bands (ev):

   -77.7226 -49.1020 -49.0202 -48.8263 -22.4389 -22.3532 -20.4327 -19.4808
   -13.5067 -12.9888 -11.8786 -11.1438 -10.9847 -10.2703  -9.9730  -9.0976
    -8.2337  -8.1248  -7.6405  -7.3525  -6.1015

     occupation numbers 
     1.0000   1.0000   1.0000   1.0000   1.0000   1.0000   1.0000   1.0000
     1.0000   1.0000   1.0000   1.0000   1.0000   1.0000   1.0000   1.0000
     1.0000   1.0000   1.0000   1.0000   1.0000

          k = 0.1818 0.4199 0.0000 ( 12586 PWs)   bands (ev):

   -77.7176 -49.1329 -49.0411 -48.8188 -21.7884 -21.7106 -20.2187 -19.4250
   -14.2213 -13.8727 -11.9415 -11.7335 -11.5148 -10.3523 -10.2156  -9.4372
    -8.3432  -8.1370  -7.6952  -7.2889  -6.1248

     occupation numbers 
     1.0000   1.0000   1.0000   1.0000   1.0000   1.0000   1.0000   1.0000
     1.0000   1.0000   1.0000   1.0000   1.0000   1.0000   1.0000   1.0000
     1.0000   1.0000   1.0000   1.0000   1.0000

          k = 0.1818 0.5249 0.0000 ( 12626 PWs)   bands (ev):

   -77.7146 -49.1504 -49.0544 -48.8143 -21.2666 -21.1959 -20.1706 -19.4672
   -14.7610 -14.4472 -12.2332 -12.0695 -11.2770 -10.7316 -10.4034  -9.2584
    -8.6345  -8.3051  -7.6279  -7.1307  -6.0081

     occupation numbers 
     1.0000   1.0000   1.0000   1.0000   1.0000   1.0000   1.0000   1.0000
     1.0000   1.0000   1.0000   1.0000   1.0000   1.0000   1.0000   1.0000
     1.0000   1.0000   1.0000   1.0000   1.0000

          k = 0.2727 0.4724 0.0000 ( 12620 PWs)   bands (ev):

   -77.7143 -49.1365 -49.0711 -48.8139 -21.2531 -21.1820 -20.1461 -19.4400
   -14.4458 -14.0919 -12.7636 -12.6293 -11.3195 -10.4840 -10.3204  -9.4505
    -8.9093  -8.3287  -7.6343  -7.1138  -5.9901

     occupation numbers 
     1.0000   1.0000   1.0000   1.0000   1.0000   1.0000   1.0000   1.0000
     1.0000   1.0000   1.0000   1.0000   1.0000   1.0000   1.0000   1.0000
     1.0000   1.0000   1.0000   1.0000   1.0000

          k = 0.2727 0.5774 0.0000 ( 12638 PWs)   bands (ev):

   -77.7131 -49.1329 -49.0872 -48.8121 -21.0041 -20.9304 -20.1637 -19.4739
   -14.4911 -14.1197 -13.1371 -13.0486 -11.0779 -10.6274 -10.3506  -9.4940
    -8.9886  -8.6043  -7.5746  -7.0179  -5.8799

     occupation numbers 
     1.0000   1.0000   1.0000   1.0000   1.0000   1.0000   1.0000   1.0000
     1.0000   1.0000   1.0000   1.0000   1.0000   1.0000   1.0000   1.0000
     1.0000   1.0000   1.0000   1.0000   1.0000

          k =-0.0909 0.0525 0.0000 ( 12523 PWs)   bands (ev):

   -77.7373 -48.9913 -48.9791 -48.8481 -23.7369 -23.6360 -21.1820 -19.8287
   -13.3807 -10.7269  -9.8220  -9.7537  -9.3178  -9.2605  -8.9332  -8.7321
    -8.5996  -7.5682  -7.5261  -6.9897  -5.2830

     occupation numbers 
     1.0000   1.0000   1.0000   1.0000   1.0000   1.0000   1.0000   1.0000
     1.0000   1.0000   1.0000   1.0000   1.0000   1.0000   1.0000   1.0000
     1.0000   1.0000   1.0000   1.0000   1.0000

          k = 0.0909 0.0525 0.0000 ( 12523 PWs)   bands (ev):

   -77.7373 -48.9913 -48.9791 -48.8481 -23.7369 -23.6360 -21.1820 -19.8287
   -13.3807 -10.7270  -9.8218  -9.7533  -9.3180  -9.2610  -8.9330  -8.7321
    -8.5997  -7.5694  -7.5252  -6.9893  -5.2830

     occupation numbers 
     1.0000   1.0000   1.0000   1.0000   1.0000   1.0000   1.0000   1.0000
     1.0000   1.0000   1.0000   1.0000   1.0000   1.0000   1.0000   1.0000
     1.0000   1.0000   1.0000   1.0000   1.0000

          k =-0.1818 0.1050 0.0000 ( 12526 PWs)   bands (ev):

   -77.7324 -49.0334 -48.9888 -48.8407 -23.3564 -23.2601 -20.9269 -19.7011
   -13.1731 -11.2172 -11.0339 -10.5410  -9.6366  -9.5900  -9.4888  -8.5156
    -8.3661  -7.9101  -7.8316  -7.0648  -5.6297

     occupation numbers 
     1.0000   1.0000   1.0000   1.0000   1.0000   1.0000   1.0000   1.0000
     1.0000   1.0000   1.0000   1.0000   1.0000   1.0000   1.0000   1.0000
     1.0000   1.0000   1.0000   1.0000   1.0000

          k = 0.1818 0.1050 0.0000 ( 12526 PWs)   bands (ev):

   -77.7323 -49.0334 -48.9888 -48.8407 -23.3564 -23.2601 -20.9269 -19.7011
   -13.1730 -11.2172 -11.0338 -10.5410  -9.6367  -9.5904  -9.4886  -8.5157
    -8.3661  -7.9114  -7.8309  -7.0637  -5.6297

     occupation numbers 
     1.0000   1.0000   1.0000   1.0000   1.0000   1.0000   1.0000   1.0000
     1.0000   1.0000   1.0000   1.0000   1.0000   1.0000   1.0000   1.0000
     1.0000   1.0000   1.0000   1.0000   1.0000

          k =-0.2727 0.1575 0.0000 ( 12570 PWs)   bands (ev):

   -77.7258 -49.0881 -49.0014 -48.8310 -22.7668 -22.6773 -20.5904 -19.5485
   -13.3437 -12.7099 -11.9777 -10.4914 -10.0807 -10.0162  -9.9692  -8.4526
    -8.2293  -8.1952  -8.0154  -7.2207  -5.9808

     occupation numbers 
     1.0000   1.0000   1.0000   1.0000   1.0000   1.0000   1.0000   1.0000
     1.0000   1.0000   1.0000   1.0000   1.0000   1.0000   1.0000   1.0000
     1.0000   1.0000   1.0000   1.0000   1.0000

          k = 0.2727 0.1575 0.0000 ( 12570 PWs)   bands (ev):

   -77.7258 -49.0881 -49.0015 -48.8310 -22.7668 -22.6774 -20.5903 -19.5485
   -13.3435 -12.7099 -11.9777 -10.4913 -10.0809 -10.0163  -9.9695  -8.4533
    -8.2296  -8.1945  -8.0156  -7.2195  -5.9809

     occupation numbers 
     1.0000   1.0000   1.0000   1.0000   1.0000   1.0000   1.0000   1.0000
     1.0000   1.0000   1.0000   1.0000   1.0000   1.0000   1.0000   1.0000
     1.0000   1.0000   1.0000   1.0000   1.0000

          k =-0.3636 0.2099 0.0000 ( 12580 PWs)   bands (ev):

   -77.7198 -49.1381 -49.0131 -48.8220 -22.0654 -21.9843 -20.3119 -19.4637
   -14.3380 -14.0121 -11.9538 -10.8294 -10.3316 -10.3063 -10.2791  -8.8253
    -8.4737  -8.0135  -7.6799  -7.2941  -6.0975

     occupation numbers 
     1.0000   1.0000   1.0000   1.0000   1.0000   1.0000   1.0000   1.0000
     1.0000   1.0000   1.0000   1.0000   1.0000   1.0000   1.0000   1.0000
     1.0000   1.0000   1.0000   1.0000   1.0000

          k = 0.3636 0.2099 0.0000 ( 12580 PWs)   bands (ev):

   -77.7198 -49.1381 -49.0131 -48.8220 -22.0653 -21.9845 -20.3118 -19.4637
   -14.3377 -14.0123 -11.9535 -10.8293 -10.3317 -10.3070 -10.2794  -8.8257
    -8.4732  -8.0138  -7.6799  -7.2927  -6.0976

     occupation numbers 
     1.0000   1.0000   1.0000   1.0000   1.0000   1.0000   1.0000   1.0000
     1.0000   1.0000   1.0000   1.0000   1.0000   1.0000   1.0000   1.0000
     1.0000   1.0000   1.0000   1.0000   1.0000

          k =-0.4545 0.2624 0.0000 ( 12588 PWs)   bands (ev):

   -77.7162 -49.1677 -49.0199 -48.8167 -21.4899 -21.4172 -20.2269 -19.5038
   -15.0834 -14.7856 -11.7874 -11.2031 -10.5060 -10.4498 -10.4139  -8.9547
    -8.6306  -7.8021  -7.4567  -7.3089  -6.0647

     occupation numbers 
     1.0000   1.0000   1.0000   1.0000   1.0000   1.0000   1.0000   1.0000
     1.0000   1.0000   1.0000   1.0000   1.0000   1.0000   1.0000   1.0000
     1.0000   1.0000   1.0000   1.0000   1.0000

          k = 0.4545 0.2624 0.0000 ( 12588 PWs)   bands (ev):

   -77.7162 -49.1676 -49.0200 -48.8167 -21.4896 -21.4178 -20.2266 -19.5037
   -15.0832 -14.7859 -11.7865 -11.2038 -10.5061 -10.4501 -10.4145  -8.9551
    -8.6301  -7.8027  -7.4565  -7.3070  -6.0648

     occupation numbers 
     1.0000   1.0000   1.0000   1.0000   1.0000   1.0000   1.0000   1.0000
     1.0000   1.0000   1.0000   1.0000   1.0000   1.0000   1.0000   1.0000
     1.0000   1.0000   1.0000   1.0000   1.0000

          k =-0.0909 0.1575 0.0000 ( 12524 PWs)   bands (ev):

   -77.7339 -49.0193 -48.9867 -48.8430 -23.4811 -23.3834 -21.0075 -19.7406
   -13.2254 -10.8283 -10.6394 -10.4931  -9.6936  -9.5935  -9.2051  -8.5784
    -8.4662  -7.8745  -7.6734  -6.9949  -5.5179

     occupation numbers 
     1.0000   1.0000   1.0000   1.0000   1.0000   1.0000   1.0000   1.0000
     1.0000   1.0000   1.0000   1.0000   1.0000   1.0000   1.0000   1.0000
     1.0000   1.0000   1.0000   1.0000   1.0000

          k = 0.1818-0.0000 0.0000 ( 12524 PWs)   bands (ev):

   -77.7339 -49.0193 -48.9867 -48.8430 -23.4811 -23.3834 -21.0075 -19.7406
   -13.2254 -10.8283 -10.6394 -10.4931  -9.6936  -9.5935  -9.2051  -8.5784
    -8.4662  -7.8745  -7.6734  -6.9949  -5.5179

     occupation numbers 
     1.0000   1.0000   1.0000   1.0000   1.0000   1.0000   1.0000   1.0000
     1.0000   1.0000   1.0000   1.0000   1.0000   1.0000   1.0000   1.0000
     1.0000   1.0000   1.0000   1.0000   1.0000

          k =-0.0909 0.2624 0.0000 ( 12552 PWs)   bands (ev):

   -77.7281 -49.0653 -49.0002 -48.8344 -22.9945 -22.9024 -20.7100 -19.5984
   -13.1358 -12.0551 -11.6611 -10.4889 -10.2711 -10.0873  -9.6585  -8.4736
    -8.3524  -8.1990  -7.7962  -7.1561  -5.8775

     occupation numbers 
     1.0000   1.0000   1.0000   1.0000   1.0000   1.0000   1.0000   1.0000
     1.0000   1.0000   1.0000   1.0000   1.0000   1.0000   1.0000   1.0000
     1.0000   1.0000   1.0000   1.0000   1.0000

          k =-0.1818 0.2099 0.0000 ( 12552 PWs)   bands (ev):

   -77.7281 -49.0653 -49.0002 -48.8344 -22.9945 -22.9024 -20.7100 -19.5984
   -13.1359 -12.0551 -11.6611 -10.4890 -10.2709 -10.0871  -9.6585  -8.4735
    -8.3524  -8.1990  -7.7960  -7.1567  -5.8774

     occupation numbers 
     1.0000   1.0000   1.0000   1.0000   1.0000   1.0000   1.0000   1.0000
     1.0000   1.0000   1.0000   1.0000   1.0000   1.0000   1.0000   1.0000
     1.0000   1.0000   1.0000   1.0000   1.0000

          k = 0.2727 0.0525 0.0000 ( 12552 PWs)   bands (ev):

   -77.7281 -49.0653 -49.0002 -48.8344 -22.9945 -22.9024 -20.7100 -19.5984
   -13.1358 -12.0551 -11.6611 -10.4889 -10.2711 -10.0873  -9.6585  -8.4736
    -8.3524  -8.1990  -7.7962  -7.1561  -5.8775

     occupation numbers 
     1.0000   1.0000   1.0000   1.0000   1.0000   1.0000   1.0000   1.0000
     1.0000   1.0000   1.0000   1.0000   1.0000   1.0000   1.0000   1.0000
     1.0000   1.0000   1.0000   1.0000   1.0000

          k =-0.1818-0.2099 0.0000 ( 12552 PWs)   bands (ev):

   -77.7281 -49.0653 -49.0002 -48.8344 -22.9945 -22.9025 -20.7099 -19.5984
   -13.1357 -12.0550 -11.6610 -10.4890 -10.2711 -10.0876  -9.6583  -8.4737
    -8.3522  -8.1996  -7.7965  -7.1549  -5.8776

     occupation numbers 
     1.0000   1.0000   1.0000   1.0000   1.0000   1.0000   1.0000   1.0000
     1.0000   1.0000   1.0000   1.0000   1.0000   1.0000   1.0000   1.0000
     1.0000   1.0000   1.0000   1.0000   1.0000

          k = 0.2727-0.0525 0.0000 ( 12552 PWs)   bands (ev):

   -77.7281 -49.0653 -49.0002 -48.8344 -22.9945 -22.9024 -20.7100 -19.5984
   -13.1359 -12.0551 -11.6611 -10.4890 -10.2709 -10.0871  -9.6585  -8.4735
    -8.3524  -8.1990  -7.7960  -7.1566  -5.8774

     occupation numbers 
     1.0000   1.0000   1.0000   1.0000   1.0000   1.0000   1.0000   1.0000
     1.0000   1.0000   1.0000   1.0000   1.0000   1.0000   1.0000   1.0000
     1.0000   1.0000   1.0000   1.0000   1.0000

          k =-0.0909 0.3674 0.0000 ( 12581 PWs)   bands (ev):

   -77.7219 -49.1150 -49.0151 -48.8251 -22.3410 -22.2565 -20.3978 -19.4749
   -13.7982 -13.3908 -11.9728 -10.8478 -10.6033 -10.3080 -10.1269  -8.9628
    -8.2107  -8.0254  -7.8815  -7.2795  -6.0975

     occupation numbers 
     1.0000   1.0000   1.0000   1.0000   1.0000   1.0000   1.0000   1.0000
     1.0000   1.0000   1.0000   1.0000   1.0000   1.0000   1.0000   1.0000
     1.0000   1.0000   1.0000   1.0000   1.0000

          k =-0.2727 0.2624 0.0000 ( 12581 PWs)   bands (ev):

   -77.7219 -49.1150 -49.0150 -48.8251 -22.3410 -22.2564 -20.3979 -19.4749
   -13.7984 -13.3907 -11.9729 -10.8478 -10.6032 -10.3078 -10.1264  -8.9632
    -8.2106  -8.0248  -7.8815  -7.2806  -6.0975

     occupation numbers 
     1.0000   1.0000   1.0000   1.0000   1.0000   1.0000   1.0000   1.0000
     1.0000   1.0000   1.0000   1.0000   1.0000   1.0000   1.0000   1.0000
     1.0000   1.0000   1.0000   1.0000   1.0000

          k = 0.3636 0.1050 0.0000 ( 12581 PWs)   bands (ev):

   -77.7219 -49.1150 -49.0151 -48.8251 -22.3410 -22.2565 -20.3978 -19.4749
   -13.7982 -13.3908 -11.9728 -10.8478 -10.6033 -10.3080 -10.1269  -8.9629
    -8.2107  -8.0254  -7.8815  -7.2795  -6.0975

     occupation numbers 
     1.0000   1.0000   1.0000   1.0000   1.0000   1.0000   1.0000   1.0000
     1.0000   1.0000   1.0000   1.0000   1.0000   1.0000   1.0000   1.0000
     1.0000   1.0000   1.0000   1.0000   1.0000

          k =-0.2727-0.2624 0.0000 ( 12581 PWs)   bands (ev):

   -77.7219 -49.1150 -49.0151 -48.8251 -22.3410 -22.2565 -20.3978 -19.4749
   -13.7981 -13.3908 -11.9728 -10.8477 -10.6036 -10.3080 -10.1265  -8.9637
    -8.2106  -8.0248  -7.8814  -7.2792  -6.0977

     occupation numbers 
     1.0000   1.0000   1.0000   1.0000   1.0000   1.0000   1.0000   1.0000
     1.0000   1.0000   1.0000   1.0000   1.0000   1.0000   1.0000   1.0000
     1.0000   1.0000   1.0000   1.0000   1.0000

          k = 0.3636-0.1050 0.0000 ( 12581 PWs)   bands (ev):

   -77.7219 -49.1150 -49.0150 -48.8251 -22.3410 -22.2564 -20.3979 -19.4749
   -13.7984 -13.3907 -11.9729 -10.8478 -10.6032 -10.3078 -10.1264  -8.9632
    -8.2106  -8.0248  -7.8815  -7.2806  -6.0975

     occupation numbers 
     1.0000   1.0000   1.0000   1.0000   1.0000   1.0000   1.0000   1.0000
     1.0000   1.0000   1.0000   1.0000   1.0000   1.0000   1.0000   1.0000
     1.0000   1.0000   1.0000   1.0000   1.0000

          k =-0.0909 0.4724 0.0000 ( 12599 PWs)   bands (ev):

   -77.7171 -49.1527 -49.0264 -48.8180 -21.6708 -21.5954 -20.2215 -19.4602
   -14.7155 -14.4101 -11.8332 -11.2112 -10.8662 -10.6049 -10.3135  -9.1299
    -8.4332  -7.8938  -7.7183  -7.2502  -6.0897

     occupation numbers 
     1.0000   1.0000   1.0000   1.0000   1.0000   1.0000   1.0000   1.0000
     1.0000   1.0000   1.0000   1.0000   1.0000   1.0000   1.0000   1.0000
     1.0000   1.0000   1.0000   1.0000   1.0000

          k =-0.3636 0.3149 0.0000 ( 12599 PWs)   bands (ev):

   -77.7171 -49.1527 -49.0264 -48.8180 -21.6709 -21.5951 -20.2217 -19.4602
   -14.7157 -14.4099 -11.8336 -11.2110 -10.8660 -10.6047 -10.3129  -9.1303
    -8.4326  -7.8935  -7.7185  -7.2515  -6.0898

     occupation numbers 
     1.0000   1.0000   1.0000   1.0000   1.0000   1.0000   1.0000   1.0000
     1.0000   1.0000   1.0000   1.0000   1.0000   1.0000   1.0000   1.0000
     1.0000   1.0000   1.0000   1.0000   1.0000

          k = 0.4545 0.1575 0.0000 ( 12599 PWs)   bands (ev):

   -77.7171 -49.1527 -49.0264 -48.8180 -21.6708 -21.5954 -20.2215 -19.4601
   -14.7155 -14.4101 -11.8332 -11.2112 -10.8662 -10.6049 -10.3135  -9.1299
    -8.4332  -7.8938  -7.7183  -7.2502  -6.0897

     occupation numbers 
     1.0000   1.0000   1.0000   1.0000   1.0000   1.0000   1.0000   1.0000
     1.0000   1.0000   1.0000   1.0000   1.0000   1.0000   1.0000   1.0000
     1.0000   1.0000   1.0000   1.0000   1.0000

          k =-0.3636-0.3149 0.0000 ( 12599 PWs)   bands (ev):

   -77.7171 -49.1527 -49.0264 -48.8180 -21.6708 -21.5955 -20.2215 -19.4601
   -14.7155 -14.4101 -11.8332 -11.2111 -10.8665 -10.6047 -10.3132  -9.1311
    -8.4320  -7.8935  -7.7183  -7.2502  -6.0900

     occupation numbers 
     1.0000   1.0000   1.0000   1.0000   1.0000   1.0000   1.0000   1.0000
     1.0000   1.0000   1.0000   1.0000   1.0000   1.0000   1.0000   1.0000
     1.0000   1.0000   1.0000   1.0000   1.0000

          k = 0.4545-0.1575 0.0000 ( 12599 PWs)   bands (ev):

   -77.7171 -49.1527 -49.0264 -48.8180 -21.6709 -21.5951 -20.2217 -19.4602
   -14.7157 -14.4099 -11.8336 -11.2110 -10.8660 -10.6047 -10.3129  -9.1303
    -8.4326  -7.8935  -7.7185  -7.2515  -6.0898

     occupation numbers 
     1.0000   1.0000   1.0000   1.0000   1.0000   1.0000   1.0000   1.0000
     1.0000   1.0000   1.0000   1.0000   1.0000   1.0000   1.0000   1.0000
     1.0000   1.0000   1.0000   1.0000   1.0000

          k =-0.4545 0.3674 0.0000 ( 12588 PWs)   bands (ev):

   -77.7153 -49.1667 -49.0306 -48.8153 -21.3366 -21.2653 -20.2130 -19.5089
   -15.0968 -14.7969 -11.7505 -11.3575 -10.8879 -10.8370 -10.3922  -9.0763
    -8.6129  -7.8105  -7.6204  -7.2240  -6.0405

     occupation numbers 
     1.0000   1.0000   1.0000   1.0000   1.0000   1.0000   1.0000   1.0000
     1.0000   1.0000   1.0000   1.0000   1.0000   1.0000   1.0000   1.0000
     1.0000   1.0000   1.0000   1.0000   1.0000

          k = 0.5455 0.2099 0.0000 ( 12588 PWs)   bands (ev):

   -77.7153 -49.1667 -49.0306 -48.8153 -21.3363 -21.2660 -20.2126 -19.5087
   -15.0966 -14.7972 -11.7496 -11.3579 -10.8882 -10.8373 -10.3926  -9.0767
    -8.6128  -7.8105  -7.6204  -7.2226  -6.0405

     occupation numbers 
     1.0000   1.0000   1.0000   1.0000   1.0000   1.0000   1.0000   1.0000
     1.0000   1.0000   1.0000   1.0000   1.0000   1.0000   1.0000   1.0000
     1.0000   1.0000   1.0000   1.0000   1.0000

          k =-0.1818 0.3149 0.0000 ( 12576 PWs)   bands (ev):

   -77.7226 -49.1020 -49.0202 -48.8263 -22.4389 -22.3531 -20.4328 -19.4808
   -13.5069 -12.9889 -11.8786 -11.1437 -10.9843 -10.2702  -9.9733  -9.0970
    -8.2340  -8.1240  -7.6406  -7.3540  -6.1012

     occupation numbers 
     1.0000   1.0000   1.0000   1.0000   1.0000   1.0000   1.0000   1.0000
     1.0000   1.0000   1.0000   1.0000   1.0000   1.0000   1.0000   1.0000
     1.0000   1.0000   1.0000   1.0000   1.0000

          k = 0.3636-0.0000 0.0000 ( 12576 PWs)   bands (ev):

   -77.7226 -49.1020 -49.0202 -48.8263 -22.4389 -22.3531 -20.4328 -19.4808
   -13.5069 -12.9889 -11.8786 -11.1437 -10.9843 -10.2702  -9.9733  -9.0970
    -8.2340  -8.1240  -7.6406  -7.3540  -6.1012

     occupation numbers 
     1.0000   1.0000   1.0000   1.0000   1.0000   1.0000   1.0000   1.0000
     1.0000   1.0000   1.0000   1.0000   1.0000   1.0000   1.0000   1.0000
     1.0000   1.0000   1.0000   1.0000   1.0000

          k =-0.1818 0.4199 0.0000 ( 12586 PWs)   bands (ev):

   -77.7176 -49.1329 -49.0411 -48.8188 -21.7885 -21.7105 -20.2188 -19.4251
   -14.2214 -13.8727 -11.9414 -11.7333 -11.5147 -10.3527 -10.2160  -9.4359
    -8.3430  -8.1371  -7.6970  -7.2884  -6.1245

     occupation numbers 
     1.0000   1.0000   1.0000   1.0000   1.0000   1.0000   1.0000   1.0000
     1.0000   1.0000   1.0000   1.0000   1.0000   1.0000   1.0000   1.0000
     1.0000   1.0000   1.0000   1.0000   1.0000

          k =-0.2727 0.3674 0.0000 ( 12586 PWs)   bands (ev):

   -77.7176 -49.1329 -49.0411 -48.8188 -21.7885 -21.7104 -20.2188 -19.4251
   -14.2215 -13.8726 -11.9414 -11.7332 -11.5147 -10.3528 -10.2155  -9.4362
    -8.3427  -8.1370  -7.6968  -7.2891  -6.1246

     occupation numbers 
     1.0000   1.0000   1.0000   1.0000   1.0000   1.0000   1.0000   1.0000
     1.0000   1.0000   1.0000   1.0000   1.0000   1.0000   1.0000   1.0000
     1.0000   1.0000   1.0000   1.0000   1.0000

          k = 0.4545 0.0525 0.0000 ( 12586 PWs)   bands (ev):

   -77.7176 -49.1329 -49.0411 -48.8188 -21.7885 -21.7105 -20.2188 -19.4251
   -14.2214 -13.8727 -11.9415 -11.7333 -11.5147 -10.3527 -10.2160  -9.4359
    -8.3430  -8.1371  -7.6970  -7.2884  -6.1245

     occupation numbers 
     1.0000   1.0000   1.0000   1.0000   1.0000   1.0000   1.0000   1.0000
     1.0000   1.0000   1.0000   1.0000   1.0000   1.0000   1.0000   1.0000
     1.0000   1.0000   1.0000   1.0000   1.0000

          k =-0.2727-0.3674 0.0000 ( 12586 PWs)   bands (ev):

   -77.7176 -49.1329 -49.0411 -48.8188 -21.7884 -21.7106 -20.2187 -19.4250
   -14.2213 -13.8727 -11.9415 -11.7335 -11.5148 -10.3523 -10.2156  -9.4372
    -8.3432  -8.1370  -7.6952  -7.2889  -6.1248

     occupation numbers 
     1.0000   1.0000   1.0000   1.0000   1.0000   1.0000   1.0000   1.0000
     1.0000   1.0000   1.0000   1.0000   1.0000   1.0000   1.0000   1.0000
     1.0000   1.0000   1.0000   1.0000   1.0000

          k = 0.4545-0.0525 0.0000 ( 12586 PWs)   bands (ev):

   -77.7176 -49.1329 -49.0411 -48.8188 -21.7885 -21.7104 -20.2188 -19.4251
   -14.2215 -13.8726 -11.9414 -11.7332 -11.5147 -10.3528 -10.2155  -9.4362
    -8.3427  -8.1371  -7.6968  -7.2891  -6.1246

     occupation numbers 
     1.0000   1.0000   1.0000   1.0000   1.0000   1.0000   1.0000   1.0000
     1.0000   1.0000   1.0000   1.0000   1.0000   1.0000   1.0000   1.0000
     1.0000   1.0000   1.0000   1.0000   1.0000

          k =-0.1818 0.5249 0.0000 ( 12626 PWs)   bands (ev):

   -77.7146 -49.1504 -49.0544 -48.8143 -21.2667 -21.1958 -20.1706 -19.4672
   -14.7611 -14.4472 -12.2332 -12.0694 -11.2769 -10.7318 -10.4036  -9.2575
    -8.6349  -8.3054  -7.6284  -7.1304  -6.0079

     occupation numbers 
     1.0000   1.0000   1.0000   1.0000   1.0000   1.0000   1.0000   1.0000
     1.0000   1.0000   1.0000   1.0000   1.0000   1.0000   1.0000   1.0000
     1.0000   1.0000   1.0000   1.0000   1.0000

          k =-0.3636 0.4199 0.0000 ( 12626 PWs)   bands (ev):

   -77.7146 -49.1504 -49.0543 -48.8143 -21.2669 -21.1954 -20.1708 -19.4673
   -14.7612 -14.4471 -12.2332 -12.0693 -11.2774 -10.7315 -10.4034  -9.2576
    -8.6341  -8.3057  -7.6287  -7.1310  -6.0081

     occupation numbers 
     1.0000   1.0000   1.0000   1.0000   1.0000   1.0000   1.0000   1.0000
     1.0000   1.0000   1.0000   1.0000   1.0000   1.0000   1.0000   1.0000
     1.0000   1.0000   1.0000   1.0000   1.0000

          k = 0.5455 0.1050 0.0000 ( 12626 PWs)   bands (ev):

   -77.7146 -49.1504 -49.0544 -48.8143 -21.2667 -21.1958 -20.1706 -19.4672
   -14.7611 -14.4472 -12.2332 -12.0694 -11.2769 -10.7318 -10.4036  -9.2575
    -8.6349  -8.3053  -7.6284  -7.1304  -6.0080

     occupation numbers 
     1.0000   1.0000   1.0000   1.0000   1.0000   1.0000   1.0000   1.0000
     1.0000   1.0000   1.0000   1.0000   1.0000   1.0000   1.0000   1.0000
     1.0000   1.0000   1.0000   1.0000   1.0000

          k =-0.3636-0.4199 0.0000 ( 12626 PWs)   bands (ev):

   -77.7146 -49.1504 -49.0544 -48.8143 -21.2666 -21.1959 -20.1705 -19.4672
   -14.7610 -14.4473 -12.2332 -12.0695 -11.2770 -10.7316 -10.4034  -9.2585
    -8.6345  -8.3051  -7.6279  -7.1307  -6.0081

     occupation numbers 
     1.0000   1.0000   1.0000   1.0000   1.0000   1.0000   1.0000   1.0000
     1.0000   1.0000   1.0000   1.0000   1.0000   1.0000   1.0000   1.0000
     1.0000   1.0000   1.0000   1.0000   1.0000

          k = 0.5455-0.1050 0.0000 ( 12626 PWs)   bands (ev):

   -77.7146 -49.1504 -49.0543 -48.8143 -21.2669 -21.1954 -20.1708 -19.4673
   -14.7612 -14.4471 -12.2332 -12.0693 -11.2774 -10.7315 -10.4034  -9.2576
    -8.6341  -8.3057  -7.6287  -7.1310  -6.0081

     occupation numbers 
     1.0000   1.0000   1.0000   1.0000   1.0000   1.0000   1.0000   1.0000
     1.0000   1.0000   1.0000   1.0000   1.0000   1.0000   1.0000   1.0000
     1.0000   1.0000   1.0000   1.0000   1.0000

          k =-0.2727 0.4724 0.0000 ( 12620 PWs)   bands (ev):

   -77.7143 -49.1365 -49.0711 -48.8139 -21.2532 -21.1817 -20.1462 -19.4401
   -14.4460 -14.0919 -12.7635 -12.6290 -11.3195 -10.4847 -10.3204  -9.4499
    -8.9083  -8.3294  -7.6356  -7.1133  -5.9900

     occupation numbers 
     1.0000   1.0000   1.0000   1.0000   1.0000   1.0000   1.0000   1.0000
     1.0000   1.0000   1.0000   1.0000   1.0000   1.0000   1.0000   1.0000
     1.0000   1.0000   1.0000   1.0000   1.0000

          k = 0.5455-0.0000 0.0000 ( 12620 PWs)   bands (ev):

   -77.7143 -49.1365 -49.0711 -48.8139 -21.2532 -21.1817 -20.1462 -19.4401
   -14.4460 -14.0919 -12.7635 -12.6290 -11.3195 -10.4847 -10.3204  -9.4499
    -8.9083  -8.3294  -7.6356  -7.1133  -5.9900

     occupation numbers 
     1.0000   1.0000   1.0000   1.0000   1.0000   1.0000   1.0000   1.0000
     1.0000   1.0000   1.0000   1.0000   1.0000   1.0000   1.0000   1.0000
     1.0000   1.0000   1.0000   1.0000   1.0000

          k =-0.3636 0.5249 0.0000 ( 12638 PWs)   bands (ev):

   -77.7131 -49.1329 -49.0872 -48.8121 -21.0043 -20.9301 -20.1638 -19.4739
   -14.4912 -14.1196 -13.1370 -13.0485 -11.0780 -10.6277 -10.3505  -9.4941
    -8.9874  -8.6050  -7.5751  -7.0178  -5.8799

     occupation numbers 
     1.0000   1.0000   1.0000   1.0000   1.0000   1.0000   1.0000   1.0000
     1.0000   1.0000   1.0000   1.0000   1.0000   1.0000   1.0000   1.0000
     1.0000   1.0000   1.0000   1.0000   1.0000

          k = 0.6364 0.0525 0.0000 ( 12638 PWs)   bands (ev):

   -77.7131 -49.1329 -49.0872 -48.8121 -21.0041 -20.9304 -20.1637 -19.4739
   -14.4911 -14.1197 -13.1371 -13.0486 -11.0779 -10.6274 -10.3506  -9.4940
    -8.9886  -8.6043  -7.5746  -7.0179  -5.8799

     occupation numbers 
     1.0000   1.0000   1.0000   1.0000   1.0000   1.0000   1.0000   1.0000
     1.0000   1.0000   1.0000   1.0000   1.0000   1.0000   1.0000   1.0000
     1.0000   1.0000   1.0000   1.0000   1.0000

     highest occupied level (ev):    -5.1797

!    total energy              =    -263.32891939 Ry
     estimated scf accuracy    <          8.5E-12 Ry

     The total energy is the sum of the following terms:
     one-electron contribution =   -4289.27431304 Ry
     hartree contribution      =    2141.50372267 Ry
     xc contribution           =     -44.46319445 Ry
     ewald contribution        =    1928.90486542 Ry

     convergence has been achieved in  26 iterations

     Writing all to output data dir ./tmp/crsi2n4.save/ :
     XML data file, charge density, pseudopotentials, collected wavefunctions
 
     init_run     :      3.12s CPU      3.29s WALL (       1 calls)
     electrons    :    165.69s CPU    166.00s WALL (       1 calls)

     Called by init_run:
     wfcinit      :      2.35s CPU      2.47s WALL (       1 calls)
     wfcinit:atom :      0.04s CPU      0.04s WALL (      61 calls)
     wfcinit:wfcr :      2.22s CPU      2.27s WALL (      61 calls)
     potinit      :      0.51s CPU      0.54s WALL (       1 calls)
     hinit0       :      0.17s CPU      0.18s WALL (       1 calls)

     Called by electrons:
     c_bands      :    152.88s CPU    153.16s WALL (      26 calls)
     sum_band     :     11.75s CPU     11.76s WALL (      26 calls)
     v_of_rho     :      0.33s CPU      0.36s WALL (      27 calls)
     v_h          :      0.08s CPU      0.09s WALL (      27 calls)
     v_xc         :      0.25s CPU      0.28s WALL (      27 calls)
     mix_rho      :      0.47s CPU      0.48s WALL (      26 calls)

     Called by c_bands:
     init_us_2    :      1.98s CPU      1.99s WALL (    3233 calls)
     cegterg      :    146.06s CPU    146.32s WALL (    1586 calls)

     Called by sum_band:
     sum_band:wei :      0.00s CPU      0.00s WALL (      26 calls)
     sum_band:loo :     11.67s CPU     11.67s WALL (      26 calls)
     sum_band:buf :      1.63s CPU      1.64s WALL (    1586 calls)
     sum_band:ini :      0.98s CPU      0.98s WALL (    1586 calls)

     Called by *egterg:
     cdiaghg      :     19.60s CPU     19.74s WALL (    9674 calls)
                                       19.68s GPU  (    9674 calls)
     cegterg:over :     29.54s CPU     29.55s WALL (    8088 calls)
     cegterg:upda :      7.68s CPU      7.69s WALL (    8088 calls)
     cegterg:last :      6.55s CPU      6.55s WALL (    3947 calls)
     h_psi        :     79.70s CPU     80.01s WALL (    9735 calls)
                                       79.93s GPU  (    9735 calls)
     g_psi        :      0.03s CPU      0.69s WALL (    8088 calls)
                                        0.65s GPU  (    8088 calls)

     Called by h_psi:
     h_psi:calbec :      0.30s CPU     14.31s WALL (    9735 calls)
                                       14.26s GPU  (    9735 calls)
     vloc_psi     :     52.40s CPU     52.68s WALL (    9735 calls)
                                       52.63s GPU  (    9735 calls)
     add_vuspsi   :      1.91s CPU     12.47s WALL (    9735 calls)
                                       12.39s GPU  (    9735 calls)

     General routines
     calbec       :      0.29s CPU      0.32s WALL (    9735 calls)
     fft          :      0.31s CPU      0.43s WALL (     321 calls)
                                        0.12s GPU  (     294 calls)
     ffts         :      0.28s CPU      0.29s WALL (      53 calls)
                                        0.01s GPU  (      26 calls)
     fftw         :      0.33s CPU     52.29s WALL (   29452 calls)
                                       52.15s GPU  (   29452 calls)
     interpolate  :      0.63s CPU      0.64s WALL (      27 calls)
 
     Parallel routines
 
     PWSCF        :   2m49.01s CPU   2m49.57s WALL

 
   This run was terminated on:   4: 4: 3  13Mar2026            

=------------------------------------------------------------------------------=
   JOB DONE.
=------------------------------------------------------------------------------=
