
     Program PWSCF v.7.3.1 starts on  4Jan2026 at 21:37: 5 

     This program is part of the open-source Quantum ESPRESSO suite
     for quantum simulation of materials; please cite
         "P. Giannozzi et al., J. Phys.:Condens. Matter 21 395502 (2009);
         "P. Giannozzi et al., J. Phys.:Condens. Matter 29 465901 (2017);
         "P. Giannozzi et al., J. Chem. Phys. 152 154105 (2020);
          URL http://www.quantum-espresso.org", 
     in publications or presentations arising from this work. More details at
     http://www.quantum-espresso.org/quote

     Parallel version (MPI), running on     4 processors

     MPI processes distributed on     1 nodes
     1872 MiB available memory on the printing compute node when the environment starts

     Waiting for input...
     Reading input from standard input

     Current dimensions of program PWSCF are:
     Max number of different atomic species (ntypx) = 10
     Max number of k-points (npk) =  40000
     Max angular momentum in pseudopotentials (lmaxx) =  4

     Atomic positions and unit cell read from directory:
     ./tmp/crsi2n4.save/


     R & G space division:  proc/nbgrp/npool/nimage =       4
     Subspace diagonalization in iterative solution of the eigenvalue problem:
     a serial algorithm will be used


     Parallelization info
     --------------------
     sticks:   dense  smooth     PW     G-vecs:    dense   smooth      PW
     Min         201     162     46                33155    23758    3760
     Max         202     163     47                33163    23770    3787
     Sum         805     649    187               132633    95059   15103

     Using Slab Decomposition



     bravais-lattice index     =            0
     lattice parameter (alat)  =       5.3744  a.u.
     unit-cell volume          =     981.6153 (a.u.)^3
     number of atoms/cell      =            7
     number of atomic types    =            3
     number of electrons       =        42.00
     number of Kohn-Sham states=           21
     kinetic-energy cutoff     =      80.0000  Ry
     charge density cutoff     =     400.0000  Ry
     Exchange-correlation= PBE
                           (   1   4   3   4   0   0   0)

     celldm(1)=   5.374381  celldm(2)=   0.000000  celldm(3)=   0.000000
     celldm(4)=   0.000000  celldm(5)=   0.000000  celldm(6)=   0.000000

     crystal axes: (cart. coord. in units of alat)
               a(1) = (   1.000000   0.000000   0.000000 )  
               a(2) = (  -0.500000   0.866025   0.000000 )  
               a(3) = (   0.000000   0.000000   7.301723 )  

     reciprocal axes: (cart. coord. in units 2 pi/alat)
               b(1) = (  1.000000  0.577350 -0.000000 )  
               b(2) = (  0.000000  1.154701  0.000000 )  
               b(3) = (  0.000000 -0.000000  0.136954 )  


     PseudoPot. # 1 for Cr read from file:
     ./../../pseudo/ONCVPSP/abinit/Cr_ONCV_PBE_sr.upf
     MD5 check sum: 3baa404e46b6888915b3a385d4a3464a
     Pseudo is Norm-conserving + core correction, Zval = 14.0
     Generated using ONCVPSP code by D. R. Hamann
     Using radial grid of 1638 points,  6 beta functions with: 
                l(1) =   0
                l(2) =   0
                l(3) =   1
                l(4) =   1
                l(5) =   2
                l(6) =   2

     PseudoPot. # 2 for Si read from file:
     ./../../pseudo/ONCVPSP/abinit/Si_ONCV_PBE_sr.upf
     MD5 check sum: e543d271109d17c80368dfa7c482276d
     Pseudo is Norm-conserving + core correction, Zval =  4.0
     Generated using ONCVPSP code by D. R. Hamann
     Using radial grid of 1510 points,  6 beta functions with: 
                l(1) =   0
                l(2) =   0
                l(3) =   1
                l(4) =   1
                l(5) =   2
                l(6) =   2

     PseudoPot. # 3 for N  read from file:
     ./../../pseudo/ONCVPSP/abinit/N_ONCV_PBE_sr.upf
     MD5 check sum: 18c6af81dac9c5a2d6d52ed11cf7bfee
     Pseudo is Norm-conserving + core correction, Zval =  5.0
     Generated using ONCVPSP code by D. R. Hamann
     Using radial grid of 1058 points,  4 beta functions with: 
                l(1) =   0
                l(2) =   0
                l(3) =   1
                l(4) =   1

     atomic species   valence    mass     pseudopotential
     Cr               14.00    51.99600     Cr( 1.00)
     Si                4.00    28.08600     Si( 1.00)
     N                 5.00    14.00700     N ( 1.00)

     No symmetry found


                                    s                        frac. trans.

      isym =  1     identity                                     

 cryst.   s( 1) = (     1          0          0      )
                  (     0          1          0      )
                  (     0          0          1      )

 cart.    s( 1) = (  1.0000000  0.0000000  0.0000000 )
                  (  0.0000000  1.0000000  0.0000000 )
                  (  0.0000000  0.0000000  1.0000000 )


   Cartesian axes

     site n.     atom                  positions (alat units)
         1        Cr     tau(   1) = (   0.7856992   0.1237169   3.1237137  )
         2        N      tau(   2) = (   0.2857045   0.4123895   2.7238712  )
         3        N      tau(   3) = (   0.2857069   0.4123867   3.5287613  )
         4        N      tau(   4) = (   0.7857152   0.1236985   4.3391106  )
         5        N      tau(   5) = (  -0.2142868   0.7010642   1.9209304  )
         6        Si     tau(   6) = (   0.2857130   0.4123891   2.1091259  )
         7        Si     tau(   7) = (   0.2857150   0.4123739   4.1477101  )

   Crystallographic axes

     site n.     atom                  positions (cryst. coord.)
         1        Cr     tau(   1) = (  0.8571272  0.1428560  0.4278050  )
         2        N      tau(   2) = (  0.5237977  0.4761865  0.3730450  )
         3        N      tau(   3) = (  0.5237985  0.4761832  0.4832779  )
         4        N      tau(   4) = (  0.8571325  0.1428347  0.5942585  )
         5        N      tau(   5) = (  0.1904728  0.8095192  0.2630791  )
         6        Si     tau(   6) = (  0.5238059  0.4761860  0.2888532  )
         7        Si     tau(   7) = (  0.5237992  0.4761684  0.5680454  )

     number of k points=    61
                       cart. coord. in units 2pi/alat
        k(    1) = (   0.0000000   0.0000000   0.0000000), wk =   0.0165289
        k(    2) = (   0.0000000   0.1049728   0.0000000), wk =   0.0330579
        k(    3) = (   0.0000000   0.2099456   0.0000000), wk =   0.0330579
        k(    4) = (   0.0000000   0.3149184   0.0000000), wk =   0.0330579
        k(    5) = (   0.0000000   0.4198911   0.0000000), wk =   0.0330579
        k(    6) = (   0.0000000   0.5248639   0.0000000), wk =   0.0330579
        k(    7) = (   0.0909091   0.1574592   0.0000000), wk =   0.0330579
        k(    8) = (   0.0909091   0.2624320   0.0000000), wk =   0.0330579
        k(    9) = (   0.0909091   0.3674048   0.0000000), wk =   0.0330579
        k(   10) = (   0.0909091   0.4723775   0.0000000), wk =   0.0330579
        k(   11) = (   0.0909091   0.5773503   0.0000000), wk =   0.0330579
        k(   12) = (   0.1818182   0.3149184   0.0000000), wk =   0.0330579
        k(   13) = (   0.1818182   0.4198911   0.0000000), wk =   0.0330579
        k(   14) = (   0.1818182   0.5248639   0.0000000), wk =   0.0330579
        k(   15) = (   0.2727273   0.4723775   0.0000000), wk =   0.0330579
        k(   16) = (   0.2727273   0.5773503   0.0000000), wk =   0.0330579
        k(   17) = (  -0.0909091   0.0524864   0.0000000), wk =   0.0330579
        k(   18) = (   0.0909091   0.0524864   0.0000000), wk =   0.0330579
        k(   19) = (  -0.1818182   0.1049728   0.0000000), wk =   0.0330579
        k(   20) = (   0.1818182   0.1049728   0.0000000), wk =   0.0330579
        k(   21) = (  -0.2727273   0.1574592   0.0000000), wk =   0.0330579
        k(   22) = (   0.2727273   0.1574592   0.0000000), wk =   0.0330579
        k(   23) = (  -0.3636364   0.2099456   0.0000000), wk =   0.0330579
        k(   24) = (   0.3636364   0.2099456   0.0000000), wk =   0.0330579
        k(   25) = (  -0.4545455   0.2624320   0.0000000), wk =   0.0330579
        k(   26) = (   0.4545455   0.2624320   0.0000000), wk =   0.0330579
        k(   27) = (  -0.0909091   0.1574592   0.0000000), wk =   0.0330579
        k(   28) = (   0.1818182   0.0000000   0.0000000), wk =   0.0330579
        k(   29) = (  -0.0909091   0.2624320   0.0000000), wk =   0.0330579
        k(   30) = (  -0.1818182   0.2099456   0.0000000), wk =   0.0330579
        k(   31) = (   0.2727273   0.0524864   0.0000000), wk =   0.0330579
        k(   32) = (  -0.1818182  -0.2099456   0.0000000), wk =   0.0330579
        k(   33) = (   0.2727273  -0.0524864   0.0000000), wk =   0.0330579
        k(   34) = (  -0.0909091   0.3674048   0.0000000), wk =   0.0330579
        k(   35) = (  -0.2727273   0.2624320   0.0000000), wk =   0.0330579
        k(   36) = (   0.3636364   0.1049728   0.0000000), wk =   0.0330579
        k(   37) = (  -0.2727273  -0.2624320   0.0000000), wk =   0.0330579
        k(   38) = (   0.3636364  -0.1049728   0.0000000), wk =   0.0330579
        k(   39) = (  -0.0909091   0.4723775   0.0000000), wk =   0.0330579
        k(   40) = (  -0.3636364   0.3149184   0.0000000), wk =   0.0330579
        k(   41) = (   0.4545455   0.1574592   0.0000000), wk =   0.0330579
        k(   42) = (  -0.3636364  -0.3149184   0.0000000), wk =   0.0330579
        k(   43) = (   0.4545455  -0.1574592   0.0000000), wk =   0.0330579
        k(   44) = (  -0.4545455   0.3674048   0.0000000), wk =   0.0330579
        k(   45) = (   0.5454545   0.2099456   0.0000000), wk =   0.0330579
        k(   46) = (  -0.1818182   0.3149184   0.0000000), wk =   0.0330579
        k(   47) = (   0.3636364   0.0000000   0.0000000), wk =   0.0330579
        k(   48) = (  -0.1818182   0.4198911   0.0000000), wk =   0.0330579
        k(   49) = (  -0.2727273   0.3674048   0.0000000), wk =   0.0330579
        k(   50) = (   0.4545455   0.0524864   0.0000000), wk =   0.0330579
        k(   51) = (  -0.2727273  -0.3674048   0.0000000), wk =   0.0330579
        k(   52) = (   0.4545455  -0.0524864   0.0000000), wk =   0.0330579
        k(   53) = (  -0.1818182   0.5248639   0.0000000), wk =   0.0330579
        k(   54) = (  -0.3636364   0.4198911   0.0000000), wk =   0.0330579
        k(   55) = (   0.5454545   0.1049728   0.0000000), wk =   0.0330579
        k(   56) = (  -0.3636364  -0.4198911   0.0000000), wk =   0.0330579
        k(   57) = (   0.5454545  -0.1049728   0.0000000), wk =   0.0330579
        k(   58) = (  -0.2727273   0.4723775   0.0000000), wk =   0.0330579
        k(   59) = (   0.5454545   0.0000000   0.0000000), wk =   0.0330579
        k(   60) = (  -0.3636364   0.5248639   0.0000000), wk =   0.0330579
        k(   61) = (   0.6363636   0.0524864   0.0000000), wk =   0.0330579

                       cryst. coord.
        k(    1) = (   0.0000000   0.0000000   0.0000000), wk =   0.0165289
        k(    2) = (   0.0000000   0.0909091   0.0000000), wk =   0.0330579
        k(    3) = (   0.0000000   0.1818182   0.0000000), wk =   0.0330579
        k(    4) = (   0.0000000   0.2727273   0.0000000), wk =   0.0330579
        k(    5) = (   0.0000000   0.3636364   0.0000000), wk =   0.0330579
        k(    6) = (   0.0000000   0.4545455   0.0000000), wk =   0.0330579
        k(    7) = (   0.0909091   0.0909091   0.0000000), wk =   0.0330579
        k(    8) = (   0.0909091   0.1818182   0.0000000), wk =   0.0330579
        k(    9) = (   0.0909091   0.2727273   0.0000000), wk =   0.0330579
        k(   10) = (   0.0909091   0.3636364   0.0000000), wk =   0.0330579
        k(   11) = (   0.0909091   0.4545455   0.0000000), wk =   0.0330579
        k(   12) = (   0.1818182   0.1818182   0.0000000), wk =   0.0330579
        k(   13) = (   0.1818182   0.2727273   0.0000000), wk =   0.0330579
        k(   14) = (   0.1818182   0.3636364   0.0000000), wk =   0.0330579
        k(   15) = (   0.2727273   0.2727273   0.0000000), wk =   0.0330579
        k(   16) = (   0.2727273   0.3636364   0.0000000), wk =   0.0330579
        k(   17) = (  -0.0909091   0.0909091   0.0000000), wk =   0.0330579
        k(   18) = (   0.0909091   0.0000000   0.0000000), wk =   0.0330579
        k(   19) = (  -0.1818182   0.1818182   0.0000000), wk =   0.0330579
        k(   20) = (   0.1818182   0.0000000   0.0000000), wk =   0.0330579
        k(   21) = (  -0.2727273   0.2727273   0.0000000), wk =   0.0330579
        k(   22) = (   0.2727273   0.0000000   0.0000000), wk =   0.0330579
        k(   23) = (  -0.3636364   0.3636364   0.0000000), wk =   0.0330579
        k(   24) = (   0.3636364   0.0000000   0.0000000), wk =   0.0330579
        k(   25) = (  -0.4545455   0.4545455   0.0000000), wk =   0.0330579
        k(   26) = (   0.4545455   0.0000000   0.0000000), wk =   0.0330579
        k(   27) = (  -0.0909091   0.1818182   0.0000000), wk =   0.0330579
        k(   28) = (   0.1818182  -0.0909091   0.0000000), wk =   0.0330579
        k(   29) = (  -0.0909091   0.2727273   0.0000000), wk =   0.0330579
        k(   30) = (  -0.1818182   0.2727273   0.0000000), wk =   0.0330579
        k(   31) = (   0.2727273  -0.0909091   0.0000000), wk =   0.0330579
        k(   32) = (  -0.1818182  -0.0909091   0.0000000), wk =   0.0330579
        k(   33) = (   0.2727273  -0.1818182   0.0000000), wk =   0.0330579
        k(   34) = (  -0.0909091   0.3636364   0.0000000), wk =   0.0330579
        k(   35) = (  -0.2727273   0.3636364   0.0000000), wk =   0.0330579
        k(   36) = (   0.3636364  -0.0909091   0.0000000), wk =   0.0330579
        k(   37) = (  -0.2727273  -0.0909091   0.0000000), wk =   0.0330579
        k(   38) = (   0.3636364  -0.2727273   0.0000000), wk =   0.0330579
        k(   39) = (  -0.0909091   0.4545455   0.0000000), wk =   0.0330579
        k(   40) = (  -0.3636364   0.4545455   0.0000000), wk =   0.0330579
        k(   41) = (   0.4545455  -0.0909091   0.0000000), wk =   0.0330579
        k(   42) = (  -0.3636364  -0.0909091   0.0000000), wk =   0.0330579
        k(   43) = (   0.4545455  -0.3636364   0.0000000), wk =   0.0330579
        k(   44) = (  -0.4545455   0.5454545   0.0000000), wk =   0.0330579
        k(   45) = (   0.5454545  -0.0909091   0.0000000), wk =   0.0330579
        k(   46) = (  -0.1818182   0.3636364   0.0000000), wk =   0.0330579
        k(   47) = (   0.3636364  -0.1818182   0.0000000), wk =   0.0330579
        k(   48) = (  -0.1818182   0.4545455   0.0000000), wk =   0.0330579
        k(   49) = (  -0.2727273   0.4545455   0.0000000), wk =   0.0330579
        k(   50) = (   0.4545455  -0.1818182   0.0000000), wk =   0.0330579
        k(   51) = (  -0.2727273  -0.1818182   0.0000000), wk =   0.0330579
        k(   52) = (   0.4545455  -0.2727273   0.0000000), wk =   0.0330579
        k(   53) = (  -0.1818182   0.5454545   0.0000000), wk =   0.0330579
        k(   54) = (  -0.3636364   0.5454545   0.0000000), wk =   0.0330579
        k(   55) = (   0.5454545  -0.1818182   0.0000000), wk =   0.0330579
        k(   56) = (  -0.3636364  -0.1818182   0.0000000), wk =   0.0330579
        k(   57) = (   0.5454545  -0.3636364   0.0000000), wk =   0.0330579
        k(   58) = (  -0.2727273   0.5454545   0.0000000), wk =   0.0330579
        k(   59) = (   0.5454545  -0.2727273   0.0000000), wk =   0.0330579
        k(   60) = (  -0.3636364   0.6363636   0.0000000), wk =   0.0330579
        k(   61) = (   0.6363636  -0.2727273   0.0000000), wk =   0.0330579

     Dense  grid:   132633 G-vectors     FFT dimensions: (  36,  36, 250)

     Smooth grid:    95059 G-vectors     FFT dimensions: (  32,  32, 225)

     Dynamical RAM for                 wfc:       0.95 MB

     Dynamical RAM for     wfc (w. buffer):       0.95 MB

     Dynamical RAM for           str. fact:       1.52 MB

     Dynamical RAM for           local pot:       0.00 MB

     Dynamical RAM for          nlocal pot:       3.89 MB

     Dynamical RAM for                qrad:       4.82 MB

     Dynamical RAM for          rho,v,vnew:       3.39 MB

     Dynamical RAM for           G-vectors:       2.08 MB

     Dynamical RAM for          h,s,v(r/c):       0.08 MB

     Dynamical RAM for          <psi|beta>:       0.03 MB

     Dynamical RAM for                 psi:       1.90 MB

     Dynamical RAM for                hpsi:       1.90 MB

     Dynamical RAM for      wfcinit/wfcrot:       3.10 MB

     Estimated static dynamical RAM per process >      21.78 MB

     Estimated max dynamical RAM per process >      25.69 MB

     Estimated total dynamical RAM >     102.75 MB
 ----2D----2D----2D----2D----2D----2D----2D----2D----2D----2D----2D----2D
  The code is running with the 2D cutoff
  Please refer to:
  Sohier, T., Calandra, M., & Mauri, F. (2017), 
  Density functional perturbation theory for gated two-dimensional heterostructures:
  Theoretical developments and application to flexural phonons in graphene.
  Physical Review B, 96(7), 75448. https://doi.org/10.1103/PhysRevB.96.075448
 ----2D----2D----2D----2D----2D----2D----2D----2D----2D----2D----2D----2D

     The potential is recalculated from file :
     ./tmp/crsi2n4.save/charge-density

     Starting wfcs are   34 randomized atomic wfcs

     Band Structure Calculation
     Davidson diagonalization with overlap

     Computing kpt #:     1  of    61
     total cpu time spent up to now is        4.0 secs

     Computing kpt #:     2  of    61
     total cpu time spent up to now is        8.1 secs

     Computing kpt #:     3  of    61
     total cpu time spent up to now is       12.2 secs

     Computing kpt #:     4  of    61
     total cpu time spent up to now is       15.9 secs

     Computing kpt #:     5  of    61
     total cpu time spent up to now is       19.9 secs

     Computing kpt #:     6  of    61
     c_bands:  1 eigenvalues not converged
     total cpu time spent up to now is       24.0 secs

     Computing kpt #:     7  of    61
     total cpu time spent up to now is       28.0 secs

     Computing kpt #:     8  of    61
     total cpu time spent up to now is       31.8 secs

     Computing kpt #:     9  of    61
     total cpu time spent up to now is       35.7 secs

     Computing kpt #:    10  of    61
     total cpu time spent up to now is       39.8 secs

     Computing kpt #:    11  of    61
     total cpu time spent up to now is       43.7 secs

     Computing kpt #:    12  of    61
     total cpu time spent up to now is       47.6 secs

     Computing kpt #:    13  of    61
     total cpu time spent up to now is       51.6 secs

     Computing kpt #:    14  of    61
     c_bands:  1 eigenvalues not converged
     total cpu time spent up to now is       55.6 secs

     Computing kpt #:    15  of    61
     total cpu time spent up to now is       59.6 secs

     Computing kpt #:    16  of    61
     total cpu time spent up to now is       63.7 secs

     Computing kpt #:    17  of    61
     total cpu time spent up to now is       67.8 secs

     Computing kpt #:    18  of    61
     total cpu time spent up to now is       72.0 secs

     Computing kpt #:    19  of    61
     total cpu time spent up to now is       76.1 secs

     Computing kpt #:    20  of    61
     total cpu time spent up to now is       80.3 secs

     Computing kpt #:    21  of    61
     total cpu time spent up to now is       84.0 secs

     Computing kpt #:    22  of    61
     total cpu time spent up to now is       87.7 secs

     Computing kpt #:    23  of    61
     total cpu time spent up to now is       91.7 secs

     Computing kpt #:    24  of    61
     total cpu time spent up to now is       95.8 secs

     Computing kpt #:    25  of    61
     c_bands:  1 eigenvalues not converged
     total cpu time spent up to now is       99.9 secs

     Computing kpt #:    26  of    61
     total cpu time spent up to now is      104.0 secs

     Computing kpt #:    27  of    61
     total cpu time spent up to now is      107.9 secs

     Computing kpt #:    28  of    61
     total cpu time spent up to now is      111.9 secs

     Computing kpt #:    29  of    61
     total cpu time spent up to now is      115.8 secs

     Computing kpt #:    30  of    61
     total cpu time spent up to now is      119.7 secs

     Computing kpt #:    31  of    61
     total cpu time spent up to now is      123.6 secs

     Computing kpt #:    32  of    61
     total cpu time spent up to now is      127.6 secs

     Computing kpt #:    33  of    61
     total cpu time spent up to now is      131.5 secs

     Computing kpt #:    34  of    61
     total cpu time spent up to now is      135.5 secs

     Computing kpt #:    35  of    61
     total cpu time spent up to now is      139.4 secs

     Computing kpt #:    36  of    61
     total cpu time spent up to now is      143.3 secs

     Computing kpt #:    37  of    61
     total cpu time spent up to now is      147.2 secs

     Computing kpt #:    38  of    61
     total cpu time spent up to now is      151.1 secs

     Computing kpt #:    39  of    61
     total cpu time spent up to now is      155.2 secs

     Computing kpt #:    40  of    61
     c_bands:  1 eigenvalues not converged
     total cpu time spent up to now is      159.4 secs

     Computing kpt #:    41  of    61
     c_bands:  1 eigenvalues not converged
     total cpu time spent up to now is      163.6 secs

     Computing kpt #:    42  of    61
     total cpu time spent up to now is      167.6 secs

     Computing kpt #:    43  of    61
     total cpu time spent up to now is      171.8 secs

     Computing kpt #:    44  of    61
     total cpu time spent up to now is      175.8 secs

     Computing kpt #:    45  of    61
     total cpu time spent up to now is      179.9 secs

     Computing kpt #:    46  of    61
     total cpu time spent up to now is      183.8 secs

     Computing kpt #:    47  of    61
     total cpu time spent up to now is      187.6 secs

     Computing kpt #:    48  of    61
     total cpu time spent up to now is      191.6 secs

     Computing kpt #:    49  of    61
     total cpu time spent up to now is      195.6 secs

     Computing kpt #:    50  of    61
     total cpu time spent up to now is      199.6 secs

     Computing kpt #:    51  of    61
     total cpu time spent up to now is      203.6 secs

     Computing kpt #:    52  of    61
     total cpu time spent up to now is      207.7 secs

     Computing kpt #:    53  of    61
     total cpu time spent up to now is      211.7 secs

     Computing kpt #:    54  of    61
     total cpu time spent up to now is      215.8 secs

     Computing kpt #:    55  of    61
     total cpu time spent up to now is      219.8 secs

     Computing kpt #:    56  of    61
     total cpu time spent up to now is      223.8 secs

     Computing kpt #:    57  of    61
     total cpu time spent up to now is      227.9 secs

     Computing kpt #:    58  of    61
     total cpu time spent up to now is      231.9 secs

     Computing kpt #:    59  of    61
     total cpu time spent up to now is      235.7 secs

     Computing kpt #:    60  of    61
     total cpu time spent up to now is      239.7 secs

     Computing kpt #:    61  of    61
     total cpu time spent up to now is      243.6 secs

     ethr =  2.38E-13,  avg # of iterations =111.6

     total cpu time spent up to now is      243.6 secs

     End of band structure calculation

          k = 0.0000 0.0000 0.0000 ( 11937 PWs)   bands (ev):

   -77.7288 -48.9926 -48.9926 -48.9531 -24.5055 -24.4189 -21.7636 -20.3270
   -13.9767 -11.3036  -9.3660  -9.2206  -9.2206  -9.1550  -9.1550  -8.8207
    -8.8207  -7.5221  -7.5219  -7.4068  -5.3088

     occupation numbers 
     1.0000   1.0000   1.0000   1.0000   1.0000   1.0000   1.0000   1.0000
     1.0000   1.0000   1.0000   1.0000   1.0000   1.0000   1.0000   1.0000
     1.0000   1.0000   1.0000   1.0000   1.0000

          k = 0.0000 0.1050 0.0000 ( 11913 PWs)   bands (ev):

   -77.7261 -49.0144 -48.9975 -48.9492 -24.3637 -24.2791 -21.6548 -20.2688
   -13.8638 -11.2525  -9.9098  -9.8174  -9.3467  -9.3001  -9.1618  -9.0750
    -8.7385  -7.7735  -7.6651  -7.2361  -5.4180

     occupation numbers 
     1.0000   1.0000   1.0000   1.0000   1.0000   1.0000   1.0000   1.0000
     1.0000   1.0000   1.0000   1.0000   1.0000   1.0000   1.0000   1.0000
     1.0000   1.0000   1.0000   1.0000   1.0000

          k = 0.0000 0.2099 0.0000 ( 11871 PWs)   bands (ev):

   -77.7186 -49.0725 -49.0107 -48.9386 -23.9501 -23.8713 -21.3555 -20.1117
   -13.5902 -11.3860 -11.2065 -11.0077  -9.6924  -9.6848  -9.6563  -8.9282
    -8.4828  -8.1689  -8.0079  -7.3255  -5.7889

     occupation numbers 
     1.0000   1.0000   1.0000   1.0000   1.0000   1.0000   1.0000   1.0000
     1.0000   1.0000   1.0000   1.0000   1.0000   1.0000   1.0000   1.0000
     1.0000   1.0000   1.0000   1.0000   1.0000

          k = 0.0000 0.3149 0.0000 ( 11857 PWs)   bands (ev):

   -77.7088 -49.1480 -49.0280 -48.9247 -23.3072 -23.2370 -20.9522 -19.9138
   -13.6061 -12.9453 -12.3652 -10.9477 -10.3603 -10.0938 -10.0624  -8.7839
    -8.5884  -8.4068  -8.1027  -7.5177  -6.1817

     occupation numbers 
     1.0000   1.0000   1.0000   1.0000   1.0000   1.0000   1.0000   1.0000
     1.0000   1.0000   1.0000   1.0000   1.0000   1.0000   1.0000   1.0000
     1.0000   1.0000   1.0000   1.0000   1.0000

          k = 0.0000 0.4199 0.0000 ( 11855 PWs)   bands (ev):

   -77.6998 -49.2167 -49.0438 -48.9119 -22.5381 -22.4784 -20.5998 -19.7794
   -14.6478 -14.3647 -12.3760 -11.1691 -10.7381 -10.4341 -10.3935  -9.1922
    -8.7194  -8.3544  -7.7344  -7.6103  -6.3116

     occupation numbers 
     1.0000   1.0000   1.0000   1.0000   1.0000   1.0000   1.0000   1.0000
     1.0000   1.0000   1.0000   1.0000   1.0000   1.0000   1.0000   1.0000
     1.0000   1.0000   1.0000   1.0000   1.0000

          k = 0.0000 0.5249 0.0000 ( 11852 PWs)   bands (ev):

   -77.6944 -49.2572 -49.0532 -48.9043 -21.9041 -21.8539 -20.4647 -19.7904
   -15.4776 -15.2220 -12.1945 -11.5647 -10.8709 -10.6219 -10.5760  -9.3478
    -8.8924  -8.1044  -7.6325  -7.4966  -6.2696

     occupation numbers 
     1.0000   1.0000   1.0000   1.0000   1.0000   1.0000   1.0000   1.0000
     1.0000   1.0000   1.0000   1.0000   1.0000   1.0000   1.0000   1.0000
     1.0000   1.0000   1.0000   1.0000   1.0000

          k = 0.0909 0.1575 0.0000 ( 11915 PWs)   bands (ev):

   -77.7209 -49.0530 -49.0079 -48.9419 -24.0858 -24.0051 -21.4505 -20.1608
   -13.6672 -11.1955 -10.7759 -10.7338  -9.7887  -9.6541  -9.3585  -8.9897
    -8.5955  -8.0596  -7.9206  -7.2244  -5.6679

     occupation numbers 
     1.0000   1.0000   1.0000   1.0000   1.0000   1.0000   1.0000   1.0000
     1.0000   1.0000   1.0000   1.0000   1.0000   1.0000   1.0000   1.0000
     1.0000   1.0000   1.0000   1.0000   1.0000

          k = 0.0909 0.2624 0.0000 ( 11890 PWs)   bands (ev):

   -77.7123 -49.1165 -49.0264 -48.9297 -23.5559 -23.4824 -21.0972 -19.9809
   -13.4623 -12.2359 -11.9457 -10.9582 -10.4280 -10.2003  -9.8446  -8.7819
    -8.6777  -8.3172  -8.0591  -7.4040  -6.0639

     occupation numbers 
     1.0000   1.0000   1.0000   1.0000   1.0000   1.0000   1.0000   1.0000
     1.0000   1.0000   1.0000   1.0000   1.0000   1.0000   1.0000   1.0000
     1.0000   1.0000   1.0000   1.0000   1.0000

          k = 0.0909 0.3674 0.0000 ( 11861 PWs)   bands (ev):

   -77.7029 -49.1849 -49.0466 -48.9164 -22.8413 -22.7772 -20.7133 -19.8082
   -14.0534 -13.6809 -12.3941 -11.0923 -10.8132 -10.6337 -10.3676  -9.2981
    -8.5378  -8.2589  -8.0234  -7.5738  -6.3050

     occupation numbers 
     1.0000   1.0000   1.0000   1.0000   1.0000   1.0000   1.0000   1.0000
     1.0000   1.0000   1.0000   1.0000   1.0000   1.0000   1.0000   1.0000
     1.0000   1.0000   1.0000   1.0000   1.0000

          k = 0.0909 0.4724 0.0000 ( 11834 PWs)   bands (ev):

   -77.6957 -49.2366 -49.0621 -48.9062 -22.1049 -22.0513 -20.4720 -19.7510
   -15.0654 -14.8045 -12.2285 -11.4936 -11.0676 -10.8234 -10.7256  -9.5085
    -8.7186  -8.1613  -7.8780  -7.5392  -6.2742

     occupation numbers 
     1.0000   1.0000   1.0000   1.0000   1.0000   1.0000   1.0000   1.0000
     1.0000   1.0000   1.0000   1.0000   1.0000   1.0000   1.0000   1.0000
     1.0000   1.0000   1.0000   1.0000   1.0000

          k = 0.0909 0.5774 0.0000 ( 11864 PWs)   bands (ev):

   -77.6930 -49.2558 -49.0678 -48.9024 -21.7373 -21.6884 -20.4363 -19.7857
   -15.4930 -15.2367 -12.1174 -11.6830 -11.1221 -11.0463 -10.8046  -9.4594
    -8.9118  -8.0340  -7.8135  -7.5098  -6.2060

     occupation numbers 
     1.0000   1.0000   1.0000   1.0000   1.0000   1.0000   1.0000   1.0000
     1.0000   1.0000   1.0000   1.0000   1.0000   1.0000   1.0000   1.0000
     1.0000   1.0000   1.0000   1.0000   1.0000

          k = 0.1818 0.3149 0.0000 ( 11882 PWs)   bands (ev):

   -77.7040 -49.1669 -49.0539 -48.9180 -22.9490 -22.8833 -20.7584 -19.8205
   -13.7380 -13.2342 -12.2829 -11.3449 -11.1865 -10.7079 -10.2132  -9.4340
    -8.5454  -8.2973  -7.8981  -7.6195  -6.3039

     occupation numbers 
     1.0000   1.0000   1.0000   1.0000   1.0000   1.0000   1.0000   1.0000
     1.0000   1.0000   1.0000   1.0000   1.0000   1.0000   1.0000   1.0000
     1.0000   1.0000   1.0000   1.0000   1.0000

          k = 0.1818 0.4199 0.0000 ( 11838 PWs)   bands (ev):

   -77.6964 -49.2094 -49.0826 -48.9073 -22.2361 -22.1798 -20.4774 -19.7180
   -14.5038 -14.2037 -12.2576 -12.0042 -11.8256 -10.6961 -10.5726  -9.8422
    -8.5505  -8.4183  -7.9790  -7.5815  -6.2915

     occupation numbers 
     1.0000   1.0000   1.0000   1.0000   1.0000   1.0000   1.0000   1.0000
     1.0000   1.0000   1.0000   1.0000   1.0000   1.0000   1.0000   1.0000
     1.0000   1.0000   1.0000   1.0000   1.0000

          k = 0.1818 0.5249 0.0000 ( 11836 PWs)   bands (ev):

   -77.6919 -49.2334 -49.1008 -48.9009 -21.6653 -21.6159 -20.3814 -19.7302
   -15.1114 -14.8482 -12.5173 -12.3404 -11.6321 -11.0721 -10.8417  -9.6485
    -8.9055  -8.5569  -7.9319  -7.4156  -6.1255

     occupation numbers 
     1.0000   1.0000   1.0000   1.0000   1.0000   1.0000   1.0000   1.0000
     1.0000   1.0000   1.0000   1.0000   1.0000   1.0000   1.0000   1.0000
     1.0000   1.0000   1.0000   1.0000   1.0000

          k = 0.2727 0.4724 0.0000 ( 11850 PWs)   bands (ev):

   -77.6915 -49.2142 -49.1240 -48.9003 -21.6528 -21.6030 -20.3520 -19.6963
   -14.7373 -14.4421 -13.1015 -12.9611 -11.6899 -10.8944 -10.6592  -9.8304
    -9.2097  -8.6266  -7.9491  -7.3963  -6.0917

     occupation numbers 
     1.0000   1.0000   1.0000   1.0000   1.0000   1.0000   1.0000   1.0000
     1.0000   1.0000   1.0000   1.0000   1.0000   1.0000   1.0000   1.0000
     1.0000   1.0000   1.0000   1.0000   1.0000

          k = 0.2727 0.5774 0.0000 ( 11810 PWs)   bands (ev):

   -77.6897 -49.2091 -49.1463 -48.8977 -21.3857 -21.3340 -20.3413 -19.7143
   -14.7735 -14.4693 -13.5263 -13.4268 -11.3968 -11.0650 -10.7281  -9.7887
    -9.3755  -8.9376  -7.8825  -7.2967  -5.9451

     occupation numbers 
     1.0000   1.0000   1.0000   1.0000   1.0000   1.0000   1.0000   1.0000
     1.0000   1.0000   1.0000   1.0000   1.0000   1.0000   1.0000   1.0000
     1.0000   1.0000   1.0000   1.0000   1.0000

          k =-0.0909 0.0525 0.0000 ( 11913 PWs)   bands (ev):

   -77.7261 -49.0144 -48.9975 -48.9492 -24.3637 -24.2791 -21.6548 -20.2688
   -13.8638 -11.2525  -9.9097  -9.8174  -9.3467  -9.3001  -9.1618  -9.0750
    -8.7386  -7.7737  -7.6650  -7.2361  -5.4180

     occupation numbers 
     1.0000   1.0000   1.0000   1.0000   1.0000   1.0000   1.0000   1.0000
     1.0000   1.0000   1.0000   1.0000   1.0000   1.0000   1.0000   1.0000
     1.0000   1.0000   1.0000   1.0000   1.0000

          k = 0.0909 0.0525 0.0000 ( 11913 PWs)   bands (ev):

   -77.7261 -49.0144 -48.9975 -48.9492 -24.3637 -24.2791 -21.6548 -20.2688
   -13.8638 -11.2525  -9.9098  -9.8174  -9.3467  -9.3001  -9.1618  -9.0750
    -8.7385  -7.7735  -7.6651  -7.2361  -5.4180

     occupation numbers 
     1.0000   1.0000   1.0000   1.0000   1.0000   1.0000   1.0000   1.0000
     1.0000   1.0000   1.0000   1.0000   1.0000   1.0000   1.0000   1.0000
     1.0000   1.0000   1.0000   1.0000   1.0000

          k =-0.1818 0.1050 0.0000 ( 11871 PWs)   bands (ev):

   -77.7186 -49.0725 -49.0107 -48.9386 -23.9501 -23.8713 -21.3555 -20.1117
   -13.5902 -11.3860 -11.2065 -11.0077  -9.6924  -9.6848  -9.6563  -8.9282
    -8.4828  -8.1690  -8.0078  -7.3255  -5.7890

     occupation numbers 
     1.0000   1.0000   1.0000   1.0000   1.0000   1.0000   1.0000   1.0000
     1.0000   1.0000   1.0000   1.0000   1.0000   1.0000   1.0000   1.0000
     1.0000   1.0000   1.0000   1.0000   1.0000

          k = 0.1818 0.1050 0.0000 ( 11871 PWs)   bands (ev):

   -77.7186 -49.0725 -49.0107 -48.9386 -23.9501 -23.8713 -21.3555 -20.1117
   -13.5902 -11.3860 -11.2065 -11.0077  -9.6924  -9.6848  -9.6563  -8.9282
    -8.4828  -8.1689  -8.0079  -7.3255  -5.7889

     occupation numbers 
     1.0000   1.0000   1.0000   1.0000   1.0000   1.0000   1.0000   1.0000
     1.0000   1.0000   1.0000   1.0000   1.0000   1.0000   1.0000   1.0000
     1.0000   1.0000   1.0000   1.0000   1.0000

          k =-0.2727 0.1575 0.0000 ( 11857 PWs)   bands (ev):

   -77.7088 -49.1480 -49.0280 -48.9247 -23.3072 -23.2370 -20.9522 -19.9138
   -13.6060 -12.9453 -12.3652 -10.9477 -10.3603 -10.0938 -10.0624  -8.7839
    -8.5884  -8.4067  -8.1027  -7.5178  -6.1818

     occupation numbers 
     1.0000   1.0000   1.0000   1.0000   1.0000   1.0000   1.0000   1.0000
     1.0000   1.0000   1.0000   1.0000   1.0000   1.0000   1.0000   1.0000
     1.0000   1.0000   1.0000   1.0000   1.0000

          k = 0.2727 0.1575 0.0000 ( 11857 PWs)   bands (ev):

   -77.7088 -49.1480 -49.0280 -48.9247 -23.3072 -23.2370 -20.9522 -19.9138
   -13.6061 -12.9453 -12.3652 -10.9477 -10.3603 -10.0938 -10.0624  -8.7839
    -8.5884  -8.4068  -8.1027  -7.5177  -6.1818

     occupation numbers 
     1.0000   1.0000   1.0000   1.0000   1.0000   1.0000   1.0000   1.0000
     1.0000   1.0000   1.0000   1.0000   1.0000   1.0000   1.0000   1.0000
     1.0000   1.0000   1.0000   1.0000   1.0000

          k =-0.3636 0.2099 0.0000 ( 11855 PWs)   bands (ev):

   -77.6998 -49.2167 -49.0438 -48.9119 -22.5381 -22.4784 -20.5998 -19.7794
   -14.6478 -14.3648 -12.3760 -11.1691 -10.7381 -10.4341 -10.3935  -9.1922
    -8.7193  -8.3544  -7.7344  -7.6104  -6.3117

     occupation numbers 
     1.0000   1.0000   1.0000   1.0000   1.0000   1.0000   1.0000   1.0000
     1.0000   1.0000   1.0000   1.0000   1.0000   1.0000   1.0000   1.0000
     1.0000   1.0000   1.0000   1.0000   1.0000

          k = 0.3636 0.2099 0.0000 ( 11855 PWs)   bands (ev):

   -77.6998 -49.2167 -49.0438 -48.9119 -22.5381 -22.4784 -20.5998 -19.7794
   -14.6478 -14.3648 -12.3761 -11.1691 -10.7381 -10.4341 -10.3935  -9.1922
    -8.7194  -8.3544  -7.7344  -7.6103  -6.3116

     occupation numbers 
     1.0000   1.0000   1.0000   1.0000   1.0000   1.0000   1.0000   1.0000
     1.0000   1.0000   1.0000   1.0000   1.0000   1.0000   1.0000   1.0000
     1.0000   1.0000   1.0000   1.0000   1.0000

          k =-0.4545 0.2624 0.0000 ( 11852 PWs)   bands (ev):

   -77.6944 -49.2572 -49.0532 -48.9043 -21.9041 -21.8539 -20.4647 -19.7904
   -15.4776 -15.2220 -12.1945 -11.5646 -10.8709 -10.6219 -10.5760  -9.3479
    -8.8924  -8.1044  -7.6325  -7.4965  -6.2697

     occupation numbers 
     1.0000   1.0000   1.0000   1.0000   1.0000   1.0000   1.0000   1.0000
     1.0000   1.0000   1.0000   1.0000   1.0000   1.0000   1.0000   1.0000
     1.0000   1.0000   1.0000   1.0000   1.0000

          k = 0.4545 0.2624 0.0000 ( 11852 PWs)   bands (ev):

   -77.6944 -49.2572 -49.0532 -48.9043 -21.9041 -21.8539 -20.4647 -19.7904
   -15.4776 -15.2220 -12.1945 -11.5647 -10.8709 -10.6219 -10.5760  -9.3479
    -8.8924  -8.1044  -7.6325  -7.4966  -6.2696

     occupation numbers 
     1.0000   1.0000   1.0000   1.0000   1.0000   1.0000   1.0000   1.0000
     1.0000   1.0000   1.0000   1.0000   1.0000   1.0000   1.0000   1.0000
     1.0000   1.0000   1.0000   1.0000   1.0000

          k =-0.0909 0.1575 0.0000 ( 11915 PWs)   bands (ev):

   -77.7209 -49.0530 -49.0079 -48.9419 -24.0858 -24.0051 -21.4505 -20.1608
   -13.6672 -11.1955 -10.7759 -10.7338  -9.7887  -9.6541  -9.3584  -8.9897
    -8.5956  -8.0594  -7.9206  -7.2244  -5.6679

     occupation numbers 
     1.0000   1.0000   1.0000   1.0000   1.0000   1.0000   1.0000   1.0000
     1.0000   1.0000   1.0000   1.0000   1.0000   1.0000   1.0000   1.0000
     1.0000   1.0000   1.0000   1.0000   1.0000

          k = 0.1818 0.0000 0.0000 ( 11915 PWs)   bands (ev):

   -77.7209 -49.0530 -49.0079 -48.9419 -24.0858 -24.0051 -21.4505 -20.1608
   -13.6672 -11.1955 -10.7759 -10.7338  -9.7887  -9.6541  -9.3584  -8.9897
    -8.5956  -8.0594  -7.9206  -7.2244  -5.6679

     occupation numbers 
     1.0000   1.0000   1.0000   1.0000   1.0000   1.0000   1.0000   1.0000
     1.0000   1.0000   1.0000   1.0000   1.0000   1.0000   1.0000   1.0000
     1.0000   1.0000   1.0000   1.0000   1.0000

          k =-0.0909 0.2624 0.0000 ( 11890 PWs)   bands (ev):

   -77.7123 -49.1165 -49.0264 -48.9297 -23.5559 -23.4824 -21.0972 -19.9809
   -13.4623 -12.2359 -11.9457 -10.9582 -10.4280 -10.2003  -9.8446  -8.7819
    -8.6777  -8.3172  -8.0592  -7.4039  -6.0640

     occupation numbers 
     1.0000   1.0000   1.0000   1.0000   1.0000   1.0000   1.0000   1.0000
     1.0000   1.0000   1.0000   1.0000   1.0000   1.0000   1.0000   1.0000
     1.0000   1.0000   1.0000   1.0000   1.0000

          k =-0.1818 0.2099 0.0000 ( 11890 PWs)   bands (ev):

   -77.7123 -49.1165 -49.0264 -48.9297 -23.5559 -23.4824 -21.0972 -19.9809
   -13.4623 -12.2359 -11.9457 -10.9582 -10.4280 -10.2003  -9.8446  -8.7819
    -8.6777  -8.3172  -8.0591  -7.4040  -6.0640

     occupation numbers 
     1.0000   1.0000   1.0000   1.0000   1.0000   1.0000   1.0000   1.0000
     1.0000   1.0000   1.0000   1.0000   1.0000   1.0000   1.0000   1.0000
     1.0000   1.0000   1.0000   1.0000   1.0000

          k = 0.2727 0.0525 0.0000 ( 11890 PWs)   bands (ev):

   -77.7123 -49.1165 -49.0264 -48.9297 -23.5559 -23.4824 -21.0972 -19.9809
   -13.4623 -12.2359 -11.9457 -10.9582 -10.4280 -10.2003  -9.8446  -8.7819
    -8.6777  -8.3171  -8.0592  -7.4039  -6.0640

     occupation numbers 
     1.0000   1.0000   1.0000   1.0000   1.0000   1.0000   1.0000   1.0000
     1.0000   1.0000   1.0000   1.0000   1.0000   1.0000   1.0000   1.0000
     1.0000   1.0000   1.0000   1.0000   1.0000

          k =-0.1818-0.2099 0.0000 ( 11890 PWs)   bands (ev):

   -77.7123 -49.1165 -49.0264 -48.9297 -23.5559 -23.4824 -21.0972 -19.9809
   -13.4623 -12.2359 -11.9457 -10.9582 -10.4280 -10.2003  -9.8446  -8.7819
    -8.6777  -8.3172  -8.0591  -7.4040  -6.0639

     occupation numbers 
     1.0000   1.0000   1.0000   1.0000   1.0000   1.0000   1.0000   1.0000
     1.0000   1.0000   1.0000   1.0000   1.0000   1.0000   1.0000   1.0000
     1.0000   1.0000   1.0000   1.0000   1.0000

          k = 0.2727-0.0525 0.0000 ( 11890 PWs)   bands (ev):

   -77.7123 -49.1165 -49.0264 -48.9297 -23.5559 -23.4824 -21.0972 -19.9809
   -13.4623 -12.2359 -11.9457 -10.9582 -10.4280 -10.2003  -9.8446  -8.7819
    -8.6777  -8.3172  -8.0592  -7.4040  -6.0640

     occupation numbers 
     1.0000   1.0000   1.0000   1.0000   1.0000   1.0000   1.0000   1.0000
     1.0000   1.0000   1.0000   1.0000   1.0000   1.0000   1.0000   1.0000
     1.0000   1.0000   1.0000   1.0000   1.0000

          k =-0.0909 0.3674 0.0000 ( 11861 PWs)   bands (ev):

   -77.7029 -49.1849 -49.0466 -48.9164 -22.8413 -22.7772 -20.7133 -19.8082
   -14.0534 -13.6809 -12.3941 -11.0923 -10.8132 -10.6337 -10.3676  -9.2981
    -8.5378  -8.2589  -8.0234  -7.5738  -6.3051

     occupation numbers 
     1.0000   1.0000   1.0000   1.0000   1.0000   1.0000   1.0000   1.0000
     1.0000   1.0000   1.0000   1.0000   1.0000   1.0000   1.0000   1.0000
     1.0000   1.0000   1.0000   1.0000   1.0000

          k =-0.2727 0.2624 0.0000 ( 11861 PWs)   bands (ev):

   -77.7029 -49.1849 -49.0466 -48.9164 -22.8413 -22.7772 -20.7133 -19.8082
   -14.0534 -13.6809 -12.3941 -11.0923 -10.8132 -10.6337 -10.3676  -9.2981
    -8.5378  -8.2589  -8.0234  -7.5739  -6.3051

     occupation numbers 
     1.0000   1.0000   1.0000   1.0000   1.0000   1.0000   1.0000   1.0000
     1.0000   1.0000   1.0000   1.0000   1.0000   1.0000   1.0000   1.0000
     1.0000   1.0000   1.0000   1.0000   1.0000

          k = 0.3636 0.1050 0.0000 ( 11861 PWs)   bands (ev):

   -77.7029 -49.1849 -49.0466 -48.9164 -22.8413 -22.7772 -20.7133 -19.8082
   -14.0534 -13.6809 -12.3941 -11.0923 -10.8132 -10.6337 -10.3676  -9.2981
    -8.5378  -8.2589  -8.0234  -7.5738  -6.3051

     occupation numbers 
     1.0000   1.0000   1.0000   1.0000   1.0000   1.0000   1.0000   1.0000
     1.0000   1.0000   1.0000   1.0000   1.0000   1.0000   1.0000   1.0000
     1.0000   1.0000   1.0000   1.0000   1.0000

          k =-0.2727-0.2624 0.0000 ( 11861 PWs)   bands (ev):

   -77.7029 -49.1849 -49.0466 -48.9164 -22.8413 -22.7772 -20.7133 -19.8082
   -14.0534 -13.6809 -12.3941 -11.0923 -10.8132 -10.6337 -10.3676  -9.2982
    -8.5378  -8.2589  -8.0234  -7.5738  -6.3050

     occupation numbers 
     1.0000   1.0000   1.0000   1.0000   1.0000   1.0000   1.0000   1.0000
     1.0000   1.0000   1.0000   1.0000   1.0000   1.0000   1.0000   1.0000
     1.0000   1.0000   1.0000   1.0000   1.0000

          k = 0.3636-0.1050 0.0000 ( 11861 PWs)   bands (ev):

   -77.7029 -49.1849 -49.0466 -48.9164 -22.8413 -22.7772 -20.7133 -19.8082
   -14.0534 -13.6809 -12.3941 -11.0923 -10.8132 -10.6337 -10.3676  -9.2981
    -8.5378  -8.2589  -8.0234  -7.5739  -6.3051

     occupation numbers 
     1.0000   1.0000   1.0000   1.0000   1.0000   1.0000   1.0000   1.0000
     1.0000   1.0000   1.0000   1.0000   1.0000   1.0000   1.0000   1.0000
     1.0000   1.0000   1.0000   1.0000   1.0000

          k =-0.0909 0.4724 0.0000 ( 11834 PWs)   bands (ev):

   -77.6957 -49.2366 -49.0621 -48.9062 -22.1049 -22.0513 -20.4720 -19.7510
   -15.0654 -14.8045 -12.2285 -11.4936 -11.0676 -10.8234 -10.7256  -9.5086
    -8.7186  -8.1613  -7.8780  -7.5393  -6.2743

     occupation numbers 
     1.0000   1.0000   1.0000   1.0000   1.0000   1.0000   1.0000   1.0000
     1.0000   1.0000   1.0000   1.0000   1.0000   1.0000   1.0000   1.0000
     1.0000   1.0000   1.0000   1.0000   1.0000

          k =-0.3636 0.3149 0.0000 ( 11834 PWs)   bands (ev):

   -77.6957 -49.2366 -49.0621 -48.9062 -22.1049 -22.0513 -20.4720 -19.7510
   -15.0654 -14.8045 -12.2285 -11.4936 -11.0675 -10.8234 -10.7256  -9.5086
    -8.7186  -8.1612  -7.8780  -7.5393  -6.2743

     occupation numbers 
     1.0000   1.0000   1.0000   1.0000   1.0000   1.0000   1.0000   1.0000
     1.0000   1.0000   1.0000   1.0000   1.0000   1.0000   1.0000   1.0000
     1.0000   1.0000   1.0000   1.0000   1.0000

          k = 0.4545 0.1575 0.0000 ( 11834 PWs)   bands (ev):

   -77.6957 -49.2366 -49.0621 -48.9062 -22.1049 -22.0513 -20.4720 -19.7510
   -15.0654 -14.8045 -12.2285 -11.4936 -11.0676 -10.8234 -10.7256  -9.5086
    -8.7186  -8.1613  -7.8780  -7.5393  -6.2743

     occupation numbers 
     1.0000   1.0000   1.0000   1.0000   1.0000   1.0000   1.0000   1.0000
     1.0000   1.0000   1.0000   1.0000   1.0000   1.0000   1.0000   1.0000
     1.0000   1.0000   1.0000   1.0000   1.0000

          k =-0.3636-0.3149 0.0000 ( 11834 PWs)   bands (ev):

   -77.6957 -49.2366 -49.0621 -48.9062 -22.1049 -22.0513 -20.4720 -19.7510
   -15.0654 -14.8045 -12.2285 -11.4936 -11.0676 -10.8234 -10.7256  -9.5086
    -8.7186  -8.1612  -7.8780  -7.5392  -6.2742

     occupation numbers 
     1.0000   1.0000   1.0000   1.0000   1.0000   1.0000   1.0000   1.0000
     1.0000   1.0000   1.0000   1.0000   1.0000   1.0000   1.0000   1.0000
     1.0000   1.0000   1.0000   1.0000   1.0000

          k = 0.4545-0.1575 0.0000 ( 11834 PWs)   bands (ev):

   -77.6957 -49.2366 -49.0621 -48.9062 -22.1049 -22.0513 -20.4720 -19.7510
   -15.0654 -14.8045 -12.2285 -11.4936 -11.0676 -10.8234 -10.7256  -9.5085
    -8.7186  -8.1612  -7.8780  -7.5393  -6.2743

     occupation numbers 
     1.0000   1.0000   1.0000   1.0000   1.0000   1.0000   1.0000   1.0000
     1.0000   1.0000   1.0000   1.0000   1.0000   1.0000   1.0000   1.0000
     1.0000   1.0000   1.0000   1.0000   1.0000

          k =-0.4545 0.3674 0.0000 ( 11864 PWs)   bands (ev):

   -77.6930 -49.2558 -49.0678 -48.9024 -21.7374 -21.6884 -20.4363 -19.7857
   -15.4930 -15.2367 -12.1175 -11.6829 -11.1221 -11.0463 -10.8046  -9.4594
    -8.9118  -8.0340  -7.8134  -7.5099  -6.2060

     occupation numbers 
     1.0000   1.0000   1.0000   1.0000   1.0000   1.0000   1.0000   1.0000
     1.0000   1.0000   1.0000   1.0000   1.0000   1.0000   1.0000   1.0000
     1.0000   1.0000   1.0000   1.0000   1.0000

          k = 0.5455 0.2099 0.0000 ( 11864 PWs)   bands (ev):

   -77.6930 -49.2558 -49.0678 -48.9024 -21.7374 -21.6884 -20.4363 -19.7857
   -15.4930 -15.2367 -12.1174 -11.6830 -11.1221 -11.0463 -10.8046  -9.4594
    -8.9118  -8.0340  -7.8135  -7.5098  -6.2060

     occupation numbers 
     1.0000   1.0000   1.0000   1.0000   1.0000   1.0000   1.0000   1.0000
     1.0000   1.0000   1.0000   1.0000   1.0000   1.0000   1.0000   1.0000
     1.0000   1.0000   1.0000   1.0000   1.0000

          k =-0.1818 0.3149 0.0000 ( 11882 PWs)   bands (ev):

   -77.7040 -49.1669 -49.0539 -48.9180 -22.9490 -22.8833 -20.7584 -19.8205
   -13.7380 -13.2342 -12.2829 -11.3449 -11.1865 -10.7080 -10.2131  -9.4340
    -8.5454  -8.2972  -7.8981  -7.6195  -6.3040

     occupation numbers 
     1.0000   1.0000   1.0000   1.0000   1.0000   1.0000   1.0000   1.0000
     1.0000   1.0000   1.0000   1.0000   1.0000   1.0000   1.0000   1.0000
     1.0000   1.0000   1.0000   1.0000   1.0000

          k = 0.3636 0.0000 0.0000 ( 11882 PWs)   bands (ev):

   -77.7040 -49.1669 -49.0539 -48.9180 -22.9490 -22.8833 -20.7584 -19.8205
   -13.7380 -13.2342 -12.2829 -11.3449 -11.1865 -10.7080 -10.2131  -9.4340
    -8.5454  -8.2972  -7.8981  -7.6195  -6.3040

     occupation numbers 
     1.0000   1.0000   1.0000   1.0000   1.0000   1.0000   1.0000   1.0000
     1.0000   1.0000   1.0000   1.0000   1.0000   1.0000   1.0000   1.0000
     1.0000   1.0000   1.0000   1.0000   1.0000

          k =-0.1818 0.4199 0.0000 ( 11838 PWs)   bands (ev):

   -77.6964 -49.2094 -49.0826 -48.9073 -22.2361 -22.1798 -20.4774 -19.7180
   -14.5038 -14.2037 -12.2576 -12.0042 -11.8256 -10.6961 -10.5726  -9.8422
    -8.5505  -8.4182  -7.9790  -7.5815  -6.2916

     occupation numbers 
     1.0000   1.0000   1.0000   1.0000   1.0000   1.0000   1.0000   1.0000
     1.0000   1.0000   1.0000   1.0000   1.0000   1.0000   1.0000   1.0000
     1.0000   1.0000   1.0000   1.0000   1.0000

          k =-0.2727 0.3674 0.0000 ( 11838 PWs)   bands (ev):

   -77.6964 -49.2094 -49.0826 -48.9073 -22.2361 -22.1798 -20.4773 -19.7180
   -14.5038 -14.2037 -12.2576 -12.0042 -11.8256 -10.6961 -10.5726  -9.8422
    -8.5505  -8.4182  -7.9789  -7.5816  -6.2916

     occupation numbers 
     1.0000   1.0000   1.0000   1.0000   1.0000   1.0000   1.0000   1.0000
     1.0000   1.0000   1.0000   1.0000   1.0000   1.0000   1.0000   1.0000
     1.0000   1.0000   1.0000   1.0000   1.0000

          k = 0.4545 0.0525 0.0000 ( 11838 PWs)   bands (ev):

   -77.6964 -49.2094 -49.0826 -48.9073 -22.2361 -22.1798 -20.4773 -19.7180
   -14.5038 -14.2037 -12.2576 -12.0042 -11.8256 -10.6961 -10.5726  -9.8422
    -8.5506  -8.4182  -7.9790  -7.5815  -6.2916

     occupation numbers 
     1.0000   1.0000   1.0000   1.0000   1.0000   1.0000   1.0000   1.0000
     1.0000   1.0000   1.0000   1.0000   1.0000   1.0000   1.0000   1.0000
     1.0000   1.0000   1.0000   1.0000   1.0000

          k =-0.2727-0.3674 0.0000 ( 11838 PWs)   bands (ev):

   -77.6964 -49.2094 -49.0826 -48.9073 -22.2361 -22.1798 -20.4774 -19.7180
   -14.5038 -14.2037 -12.2576 -12.0042 -11.8256 -10.6961 -10.5726  -9.8422
    -8.5505  -8.4183  -7.9790  -7.5815  -6.2915

     occupation numbers 
     1.0000   1.0000   1.0000   1.0000   1.0000   1.0000   1.0000   1.0000
     1.0000   1.0000   1.0000   1.0000   1.0000   1.0000   1.0000   1.0000
     1.0000   1.0000   1.0000   1.0000   1.0000

          k = 0.4545-0.0525 0.0000 ( 11838 PWs)   bands (ev):

   -77.6964 -49.2094 -49.0826 -48.9073 -22.2361 -22.1798 -20.4773 -19.7180
   -14.5038 -14.2037 -12.2576 -12.0042 -11.8256 -10.6961 -10.5726  -9.8422
    -8.5505  -8.4183  -7.9789  -7.5815  -6.2916

     occupation numbers 
     1.0000   1.0000   1.0000   1.0000   1.0000   1.0000   1.0000   1.0000
     1.0000   1.0000   1.0000   1.0000   1.0000   1.0000   1.0000   1.0000
     1.0000   1.0000   1.0000   1.0000   1.0000

          k =-0.1818 0.5249 0.0000 ( 11836 PWs)   bands (ev):

   -77.6919 -49.2334 -49.1008 -48.9009 -21.6653 -21.6159 -20.3814 -19.7302
   -15.1114 -14.8482 -12.5173 -12.3404 -11.6321 -11.0721 -10.8417  -9.6485
    -8.9055  -8.5569  -7.9319  -7.4156  -6.1255

     occupation numbers 
     1.0000   1.0000   1.0000   1.0000   1.0000   1.0000   1.0000   1.0000
     1.0000   1.0000   1.0000   1.0000   1.0000   1.0000   1.0000   1.0000
     1.0000   1.0000   1.0000   1.0000   1.0000

          k =-0.3636 0.4199 0.0000 ( 11836 PWs)   bands (ev):

   -77.6919 -49.2334 -49.1008 -48.9009 -21.6653 -21.6159 -20.3814 -19.7302
   -15.1114 -14.8482 -12.5173 -12.3404 -11.6321 -11.0721 -10.8417  -9.6485
    -8.9055  -8.5569  -7.9319  -7.4156  -6.1255

     occupation numbers 
     1.0000   1.0000   1.0000   1.0000   1.0000   1.0000   1.0000   1.0000
     1.0000   1.0000   1.0000   1.0000   1.0000   1.0000   1.0000   1.0000
     1.0000   1.0000   1.0000   1.0000   1.0000

          k = 0.5455 0.1050 0.0000 ( 11836 PWs)   bands (ev):

   -77.6919 -49.2334 -49.1008 -48.9009 -21.6653 -21.6159 -20.3814 -19.7302
   -15.1114 -14.8482 -12.5173 -12.3404 -11.6321 -11.0721 -10.8417  -9.6486
    -8.9055  -8.5569  -7.9319  -7.4156  -6.1255

     occupation numbers 
     1.0000   1.0000   1.0000   1.0000   1.0000   1.0000   1.0000   1.0000
     1.0000   1.0000   1.0000   1.0000   1.0000   1.0000   1.0000   1.0000
     1.0000   1.0000   1.0000   1.0000   1.0000

          k =-0.3636-0.4199 0.0000 ( 11836 PWs)   bands (ev):

   -77.6919 -49.2334 -49.1008 -48.9009 -21.6653 -21.6159 -20.3814 -19.7302
   -15.1114 -14.8482 -12.5173 -12.3404 -11.6321 -11.0721 -10.8417  -9.6485
    -8.9055  -8.5569  -7.9319  -7.4156  -6.1255

     occupation numbers 
     1.0000   1.0000   1.0000   1.0000   1.0000   1.0000   1.0000   1.0000
     1.0000   1.0000   1.0000   1.0000   1.0000   1.0000   1.0000   1.0000
     1.0000   1.0000   1.0000   1.0000   1.0000

          k = 0.5455-0.1050 0.0000 ( 11836 PWs)   bands (ev):

   -77.6919 -49.2334 -49.1008 -48.9009 -21.6653 -21.6159 -20.3814 -19.7302
   -15.1114 -14.8482 -12.5173 -12.3404 -11.6321 -11.0721 -10.8417  -9.6485
    -8.9055  -8.5569  -7.9319  -7.4156  -6.1255

     occupation numbers 
     1.0000   1.0000   1.0000   1.0000   1.0000   1.0000   1.0000   1.0000
     1.0000   1.0000   1.0000   1.0000   1.0000   1.0000   1.0000   1.0000
     1.0000   1.0000   1.0000   1.0000   1.0000

          k =-0.2727 0.4724 0.0000 ( 11850 PWs)   bands (ev):

   -77.6915 -49.2142 -49.1240 -48.9003 -21.6528 -21.6030 -20.3520 -19.6963
   -14.7373 -14.4421 -13.1015 -12.9611 -11.6899 -10.8943 -10.6592  -9.8304
    -9.2097  -8.6266  -7.9491  -7.3962  -6.0918

     occupation numbers 
     1.0000   1.0000   1.0000   1.0000   1.0000   1.0000   1.0000   1.0000
     1.0000   1.0000   1.0000   1.0000   1.0000   1.0000   1.0000   1.0000
     1.0000   1.0000   1.0000   1.0000   1.0000

          k = 0.5455 0.0000 0.0000 ( 11850 PWs)   bands (ev):

   -77.6915 -49.2142 -49.1240 -48.9003 -21.6528 -21.6030 -20.3519 -19.6963
   -14.7373 -14.4421 -13.1015 -12.9611 -11.6899 -10.8943 -10.6591  -9.8304
    -9.2097  -8.6266  -7.9491  -7.3962  -6.0918

     occupation numbers 
     1.0000   1.0000   1.0000   1.0000   1.0000   1.0000   1.0000   1.0000
     1.0000   1.0000   1.0000   1.0000   1.0000   1.0000   1.0000   1.0000
     1.0000   1.0000   1.0000   1.0000   1.0000

          k =-0.3636 0.5249 0.0000 ( 11810 PWs)   bands (ev):

   -77.6897 -49.2091 -49.1463 -48.8977 -21.3857 -21.3340 -20.3413 -19.7143
   -14.7735 -14.4693 -13.5263 -13.4268 -11.3968 -11.0650 -10.7281  -9.7887
    -9.3755  -8.9376  -7.8825  -7.2967  -5.9451

     occupation numbers 
     1.0000   1.0000   1.0000   1.0000   1.0000   1.0000   1.0000   1.0000
     1.0000   1.0000   1.0000   1.0000   1.0000   1.0000   1.0000   1.0000
     1.0000   1.0000   1.0000   1.0000   1.0000

          k = 0.6364 0.0525 0.0000 ( 11810 PWs)   bands (ev):

   -77.6897 -49.2091 -49.1463 -48.8977 -21.3857 -21.3340 -20.3413 -19.7143
   -14.7735 -14.4693 -13.5264 -13.4268 -11.3968 -11.0650 -10.7281  -9.7887
    -9.3755  -8.9376  -7.8825  -7.2967  -5.9451

     occupation numbers 
     1.0000   1.0000   1.0000   1.0000   1.0000   1.0000   1.0000   1.0000
     1.0000   1.0000   1.0000   1.0000   1.0000   1.0000   1.0000   1.0000
     1.0000   1.0000   1.0000   1.0000   1.0000

     highest occupied level (ev):    -5.3088

     Writing all to output data dir ./tmp/crsi2n4.save/ :
     XML data file, pseudopotentials, collected wavefunctions

     init_run     :      0.35s CPU      0.36s WALL (       1 calls)
     electrons    :    237.15s CPU    243.09s WALL (       1 calls)

     Called by init_run:
     wfcinit      :      0.00s CPU      0.00s WALL (       1 calls)
     wfcinit:atom :      0.04s CPU      0.04s WALL (      61 calls)
     wfcinit:wfcr :      3.69s CPU      3.81s WALL (      61 calls)
     potinit      :      0.12s CPU      0.12s WALL (       1 calls)
     hinit0       :      0.19s CPU      0.20s WALL (       1 calls)

     Called by electrons:
     c_bands      :    237.15s CPU    243.08s WALL (       1 calls)
     v_of_rho     :      0.03s CPU      0.03s WALL (       1 calls)
     v_h          :      0.00s CPU      0.00s WALL (       1 calls)
     v_xc         :      0.03s CPU      0.03s WALL (       1 calls)

     Called by c_bands:
     init_us_2    :      0.10s CPU      0.10s WALL (      61 calls)
     cegterg      :    232.73s CPU    238.51s WALL (     362 calls)

     Called by sum_band:

     Called by *egterg:
     cdiaghg      :      4.15s CPU      4.16s WALL (    6867 calls)
     cegterg:over :     28.48s CPU     28.59s WALL (    6806 calls)
     cegterg:upda :     18.16s CPU     18.17s WALL (    6806 calls)
     cegterg:last :     41.02s CPU     41.04s WALL (    5523 calls)
     h_psi        :    139.28s CPU    145.03s WALL (    7229 calls)
     g_psi        :      0.80s CPU      0.80s WALL (    6806 calls)

     Called by h_psi:
     h_psi:calbec :     39.91s CPU     40.31s WALL (    7229 calls)
     vloc_psi     :     60.97s CPU     66.28s WALL (    7229 calls)
     add_vuspsi   :     37.95s CPU     37.99s WALL (    7229 calls)

     General routines
     calbec       :     39.89s CPU     40.30s WALL (    7229 calls)
     fft          :      0.13s CPU      0.13s WALL (      12 calls)
     ffts         :      0.09s CPU      0.09s WALL (       1 calls)
     fftw         :     49.84s CPU     54.21s WALL (  199908 calls)
     interpolate  :      0.09s CPU      0.09s WALL (       1 calls)
     davcio       :      0.02s CPU      0.03s WALL (     122 calls)

     Parallel routines

     PWSCF        :   3m57.69s CPU   4m 3.79s WALL


   This run was terminated on:  21:41: 9   4Jan2026            

=------------------------------------------------------------------------------=
   JOB DONE.
=------------------------------------------------------------------------------=
