
     Program PWSCF v.7.4.1 starts on 28Apr2026 at 21:24:14 

     This program is part of the open-source Quantum ESPRESSO suite
     for quantum simulation of materials; please cite
         "P. Giannozzi et al., J. Phys.:Condens. Matter 21 395502 (2009);
         "P. Giannozzi et al., J. Phys.:Condens. Matter 29 465901 (2017);
         "P. Giannozzi et al., J. Chem. Phys. 152 154105 (2020);
          URL http://www.quantum-espresso.org", 
     in publications or presentations arising from this work. More details at
     http://www.quantum-espresso.org/quote

     Parallel version (MPI), running on     1 processors

     MPI processes distributed on     1 nodes
     13772 MiB available memory on the printing compute node when the environment starts
 
     Reading input from crsi2n4_bi_-0.015.in
Warning: card &CELL ignored
Warning: card / ignored
Warning: card &FCP ignored
Warning: card / ignored
Warning: card &RISM ignored
Warning: card / ignored

     Current dimensions of program PWSCF are:
     Max number of different atomic species (ntypx) = 10
     Max number of k-points (npk) =  40000
     Max angular momentum in pseudopotentials (lmaxx) =  4
     Message from routine setup:
     no reason to have ecutrho>4*ecutwfc
 
     Subspace diagonalization in iterative solution of the eigenvalue problem:
     a serial algorithm will be used

 
     G-vector sticks info
     --------------------
     sticks:   dense  smooth     PW     G-vecs:    dense   smooth      PW
     Sum         769     613    199               159597   113881   20249
 
     Using Slab Decomposition
 


     bravais-lattice index     =            0
     lattice parameter (alat)  =       5.2938  a.u.
     unit-cell volume          =    1181.7008 (a.u.)^3
     number of atoms/cell      =            7
     number of atomic types    =            3
     number of electrons       =        42.00
     number of Kohn-Sham states=           21
     kinetic-energy cutoff     =      80.0000  Ry
     charge density cutoff     =     400.0000  Ry
     scf convergence threshold =      1.0E-10
     mixing beta               =       0.4000
     number of iterations used =            8  plain     mixing
     Exchange-correlation= PBE
                           (   1   4   3   4   0   0   0)

     GPU acceleration is ACTIVE.  1 visible GPUs per MPI rank
     GPU-aware MPI enabled


     GPU used by master process:

        Device Number: 0
        Device name: NVIDIA RTX A2000 12GB
        Compute capability : 86
        Ratio of single to double precision performance  : 64
        Memory Clock Rate (KHz): 6001000
        Memory Bus Width (bits): 192
        Peak Memory Bandwidth (GB/s): 288.05

     celldm(1)=   5.293765  celldm(2)=   0.000000  celldm(3)=   0.000000
     celldm(4)=   0.000000  celldm(5)=   0.000000  celldm(6)=   0.000000

     crystal axes: (cart. coord. in units of alat)
               a(1) = (   1.000000   0.000000   0.000000 )  
               a(2) = (  -0.500000   0.866025   0.000000 )  
               a(3) = (   0.000000   0.000000   9.197777 )  

     reciprocal axes: (cart. coord. in units 2 pi/alat)
               b(1) = (  1.000000  0.577350 -0.000000 )  
               b(2) = (  0.000000  1.154701  0.000000 )  
               b(3) = (  0.000000 -0.000000  0.108722 )  


     PseudoPot. # 1 for Cr read from file:
     /home/rao/Desktop/pseudo/ONCVPSP/sg15/Cr_ONCV_PBE_sr.upf
     MD5 check sum: 8c25700f94aee329d8014e8d8708abb4
     Pseudo is Norm-conserving, Zval = 14.0
     Generated using ONCVPSP code by D. R. Hamann
     Using radial grid of 1490 points,  6 beta functions with: 
                l(1) =   0
                l(2) =   0
                l(3) =   1
                l(4) =   1
                l(5) =   2
                l(6) =   2

     PseudoPot. # 2 for N  read from file:
     /home/rao/Desktop/pseudo/ONCVPSP/sg15/N_ONCV_PBE_sr.upf
     MD5 check sum: 584dff68b02d160f04ff099e3496afa1
     Pseudo is Norm-conserving, Zval =  5.0
     Generated using ONCVPSP code by D. R. Hamann
     Using radial grid of 1058 points,  4 beta functions with: 
                l(1) =   0
                l(2) =   0
                l(3) =   1
                l(4) =   1

     PseudoPot. # 3 for Si read from file:
     /home/rao/Desktop/pseudo/ONCVPSP/sg15/Si_ONCV_PBE_sr.upf
     MD5 check sum: 8553c464762ac42b85b1eed164b4d029
     Pseudo is Norm-conserving, Zval =  4.0
     Generated using ONCVPSP code by D. R. Hamann
     Using radial grid of 1510 points,  4 beta functions with: 
                l(1) =   0
                l(2) =   0
                l(3) =   1
                l(4) =   1

     atomic species   valence    mass     pseudopotential
     Cr               14.00    51.99610     Cr( 1.00)
     N                 5.00    14.00700     N ( 1.00)
     Si                4.00    28.08500     Si( 1.00)

     No symmetry found


                                    s                        frac. trans.

      isym =  1     identity                                     

 cryst.   s( 1) = (     1          0          0      )
                  (     0          1          0      )
                  (     0          0          1      )

 cart.    s( 1) = (  1.0000000  0.0000000  0.0000000 )
                  (  0.0000000  1.0000000  0.0000000 )
                  (  0.0000000  0.0000000  1.0000000 )


   Cartesian axes

     site n.     atom                  positions (alat units)
         1        Cr     tau(   1) = (   0.7857349   0.1236953   3.9360132  )
         2        N      tau(   2) = (   0.2857160   0.4123827   3.5241787  )
         3        N      tau(   3) = (   0.2856744   0.4124039   4.3524741  )
         4        N      tau(   4) = (   0.7856418   0.1237439   5.1817707  )
         5        N      tau(   5) = (  -0.2142709   0.7010533   2.7025348  )
         6        Si     tau(   6) = (   0.2857829   0.4123472   2.9008923  )
         7        Si     tau(   7) = (   0.2856880   0.4123925   4.9804189  )

   Crystallographic axes

     site n.     atom                  positions (cryst. coord.)
         1        Cr     tau(   1) = (  0.8571504  0.1428311  0.4279309  )
         2        N      tau(   2) = (  0.5238053  0.4761785  0.3831555  )
         3        N      tau(   3) = (  0.5237759  0.4762030  0.4732094  )
         4        N      tau(   4) = (  0.8570853  0.1428872  0.5633721  )
         5        N      tau(   5) = (  0.1904825  0.8095067  0.2938248  )
         6        Si     tau(   6) = (  0.5238517  0.4761376  0.3153906  )
         7        Si     tau(   7) = (  0.5237829  0.4761899  0.5414807  )

     number of k points=   121
                       cart. coord. in units 2pi/alat
        k(    1) = (   0.0000000   0.0000000   0.0000000), wk =   0.0165289
        k(    2) = (   0.0000000   0.1049728   0.0000000), wk =   0.0165289
        k(    3) = (   0.0000000   0.2099456   0.0000000), wk =   0.0165289
        k(    4) = (   0.0000000   0.3149184   0.0000000), wk =   0.0165289
        k(    5) = (   0.0000000   0.4198911   0.0000000), wk =   0.0165289
        k(    6) = (   0.0000000   0.5248639   0.0000000), wk =   0.0165289
        k(    7) = (   0.0000000  -0.5248639   0.0000000), wk =   0.0165289
        k(    8) = (   0.0000000  -0.4198911   0.0000000), wk =   0.0165289
        k(    9) = (   0.0000000  -0.3149184   0.0000000), wk =   0.0165289
        k(   10) = (   0.0000000  -0.2099456   0.0000000), wk =   0.0165289
        k(   11) = (   0.0000000  -0.1049728   0.0000000), wk =   0.0165289
        k(   12) = (   0.0909091   0.0524864   0.0000000), wk =   0.0165289
        k(   13) = (   0.0909091   0.1574592   0.0000000), wk =   0.0165289
        k(   14) = (   0.0909091   0.2624320   0.0000000), wk =   0.0165289
        k(   15) = (   0.0909091   0.3674048   0.0000000), wk =   0.0165289
        k(   16) = (   0.0909091   0.4723775   0.0000000), wk =   0.0165289
        k(   17) = (   0.0909091   0.5773503   0.0000000), wk =   0.0165289
        k(   18) = (   0.0909091  -0.4723775   0.0000000), wk =   0.0165289
        k(   19) = (   0.0909091  -0.3674048   0.0000000), wk =   0.0165289
        k(   20) = (   0.0909091  -0.2624320   0.0000000), wk =   0.0165289
        k(   21) = (   0.0909091  -0.1574592   0.0000000), wk =   0.0165289
        k(   22) = (   0.0909091  -0.0524864   0.0000000), wk =   0.0165289
        k(   23) = (   0.1818182   0.1049728   0.0000000), wk =   0.0165289
        k(   24) = (   0.1818182   0.2099456   0.0000000), wk =   0.0165289
        k(   25) = (   0.1818182   0.3149184   0.0000000), wk =   0.0165289
        k(   26) = (   0.1818182   0.4198911   0.0000000), wk =   0.0165289
        k(   27) = (   0.1818182   0.5248639   0.0000000), wk =   0.0165289
        k(   28) = (   0.1818182   0.6298367   0.0000000), wk =   0.0165289
        k(   29) = (   0.1818182  -0.4198911   0.0000000), wk =   0.0165289
        k(   30) = (   0.1818182  -0.3149184   0.0000000), wk =   0.0165289
        k(   31) = (   0.1818182  -0.2099456   0.0000000), wk =   0.0165289
        k(   32) = (   0.1818182  -0.1049728   0.0000000), wk =   0.0165289
        k(   33) = (   0.1818182  -0.0000000   0.0000000), wk =   0.0165289
        k(   34) = (   0.2727273   0.1574592   0.0000000), wk =   0.0165289
        k(   35) = (   0.2727273   0.2624320   0.0000000), wk =   0.0165289
        k(   36) = (   0.2727273   0.3674048   0.0000000), wk =   0.0165289
        k(   37) = (   0.2727273   0.4723775   0.0000000), wk =   0.0165289
        k(   38) = (   0.2727273   0.5773503   0.0000000), wk =   0.0165289
        k(   39) = (   0.2727273   0.6823231   0.0000000), wk =   0.0165289
        k(   40) = (   0.2727273  -0.3674048   0.0000000), wk =   0.0165289
        k(   41) = (   0.2727273  -0.2624320   0.0000000), wk =   0.0165289
        k(   42) = (   0.2727273  -0.1574592   0.0000000), wk =   0.0165289
        k(   43) = (   0.2727273  -0.0524864   0.0000000), wk =   0.0165289
        k(   44) = (   0.2727273   0.0524864   0.0000000), wk =   0.0165289
        k(   45) = (   0.3636364   0.2099456   0.0000000), wk =   0.0165289
        k(   46) = (   0.3636364   0.3149184   0.0000000), wk =   0.0165289
        k(   47) = (   0.3636364   0.4198911   0.0000000), wk =   0.0165289
        k(   48) = (   0.3636364   0.5248639   0.0000000), wk =   0.0165289
        k(   49) = (   0.3636364   0.6298367   0.0000000), wk =   0.0165289
        k(   50) = (   0.3636364   0.7348095   0.0000000), wk =   0.0165289
        k(   51) = (   0.3636364  -0.3149184   0.0000000), wk =   0.0165289
        k(   52) = (   0.3636364  -0.2099456   0.0000000), wk =   0.0165289
        k(   53) = (   0.3636364  -0.1049728   0.0000000), wk =   0.0165289
        k(   54) = (   0.3636364   0.0000000   0.0000000), wk =   0.0165289
        k(   55) = (   0.3636364   0.1049728   0.0000000), wk =   0.0165289
        k(   56) = (   0.4545455   0.2624320   0.0000000), wk =   0.0165289
        k(   57) = (   0.4545455   0.3674048   0.0000000), wk =   0.0165289
        k(   58) = (   0.4545455   0.4723775   0.0000000), wk =   0.0165289
        k(   59) = (   0.4545455   0.5773503   0.0000000), wk =   0.0165289
        k(   60) = (   0.4545455   0.6823231   0.0000000), wk =   0.0165289
        k(   61) = (   0.4545455   0.7872959   0.0000000), wk =   0.0165289
        k(   62) = (   0.4545455  -0.2624320   0.0000000), wk =   0.0165289
        k(   63) = (   0.4545455  -0.1574592   0.0000000), wk =   0.0165289
        k(   64) = (   0.4545455  -0.0524864   0.0000000), wk =   0.0165289
        k(   65) = (   0.4545455   0.0524864   0.0000000), wk =   0.0165289
        k(   66) = (   0.4545455   0.1574592   0.0000000), wk =   0.0165289
        k(   67) = (  -0.4545455  -0.2624320   0.0000000), wk =   0.0165289
        k(   68) = (  -0.4545455  -0.1574592   0.0000000), wk =   0.0165289
        k(   69) = (  -0.4545455  -0.0524864   0.0000000), wk =   0.0165289
        k(   70) = (  -0.4545455   0.0524864   0.0000000), wk =   0.0165289
        k(   71) = (  -0.4545455   0.1574592   0.0000000), wk =   0.0165289
        k(   72) = (  -0.4545455   0.2624320   0.0000000), wk =   0.0165289
        k(   73) = (  -0.4545455  -0.7872959   0.0000000), wk =   0.0165289
        k(   74) = (  -0.4545455  -0.6823231   0.0000000), wk =   0.0165289
        k(   75) = (  -0.4545455  -0.5773503   0.0000000), wk =   0.0165289
        k(   76) = (  -0.4545455  -0.4723775   0.0000000), wk =   0.0165289
        k(   77) = (  -0.4545455  -0.3674048   0.0000000), wk =   0.0165289
        k(   78) = (  -0.3636364  -0.2099456   0.0000000), wk =   0.0165289
        k(   79) = (  -0.3636364  -0.1049728   0.0000000), wk =   0.0165289
        k(   80) = (  -0.3636364   0.0000000   0.0000000), wk =   0.0165289
        k(   81) = (  -0.3636364   0.1049728   0.0000000), wk =   0.0165289
        k(   82) = (  -0.3636364   0.2099456   0.0000000), wk =   0.0165289
        k(   83) = (  -0.3636364   0.3149184   0.0000000), wk =   0.0165289
        k(   84) = (  -0.3636364  -0.7348095   0.0000000), wk =   0.0165289
        k(   85) = (  -0.3636364  -0.6298367   0.0000000), wk =   0.0165289
        k(   86) = (  -0.3636364  -0.5248639   0.0000000), wk =   0.0165289
        k(   87) = (  -0.3636364  -0.4198911   0.0000000), wk =   0.0165289
        k(   88) = (  -0.3636364  -0.3149184   0.0000000), wk =   0.0165289
        k(   89) = (  -0.2727273  -0.1574592   0.0000000), wk =   0.0165289
        k(   90) = (  -0.2727273  -0.0524864   0.0000000), wk =   0.0165289
        k(   91) = (  -0.2727273   0.0524864   0.0000000), wk =   0.0165289
        k(   92) = (  -0.2727273   0.1574592   0.0000000), wk =   0.0165289
        k(   93) = (  -0.2727273   0.2624320   0.0000000), wk =   0.0165289
        k(   94) = (  -0.2727273   0.3674048   0.0000000), wk =   0.0165289
        k(   95) = (  -0.2727273  -0.6823231   0.0000000), wk =   0.0165289
        k(   96) = (  -0.2727273  -0.5773503   0.0000000), wk =   0.0165289
        k(   97) = (  -0.2727273  -0.4723775   0.0000000), wk =   0.0165289
        k(   98) = (  -0.2727273  -0.3674048   0.0000000), wk =   0.0165289
        k(   99) = (  -0.2727273  -0.2624320   0.0000000), wk =   0.0165289
        k(  100) = (  -0.1818182  -0.1049728   0.0000000), wk =   0.0165289
        k(  101) = (  -0.1818182   0.0000000   0.0000000), wk =   0.0165289
        k(  102) = (  -0.1818182   0.1049728   0.0000000), wk =   0.0165289
        k(  103) = (  -0.1818182   0.2099456   0.0000000), wk =   0.0165289
        k(  104) = (  -0.1818182   0.3149184   0.0000000), wk =   0.0165289
        k(  105) = (  -0.1818182   0.4198911   0.0000000), wk =   0.0165289
        k(  106) = (  -0.1818182  -0.6298367   0.0000000), wk =   0.0165289
        k(  107) = (  -0.1818182  -0.5248639   0.0000000), wk =   0.0165289
        k(  108) = (  -0.1818182  -0.4198911   0.0000000), wk =   0.0165289
        k(  109) = (  -0.1818182  -0.3149184   0.0000000), wk =   0.0165289
        k(  110) = (  -0.1818182  -0.2099456   0.0000000), wk =   0.0165289
        k(  111) = (  -0.0909091  -0.0524864   0.0000000), wk =   0.0165289
        k(  112) = (  -0.0909091   0.0524864   0.0000000), wk =   0.0165289
        k(  113) = (  -0.0909091   0.1574592   0.0000000), wk =   0.0165289
        k(  114) = (  -0.0909091   0.2624320   0.0000000), wk =   0.0165289
        k(  115) = (  -0.0909091   0.3674048   0.0000000), wk =   0.0165289
        k(  116) = (  -0.0909091   0.4723775   0.0000000), wk =   0.0165289
        k(  117) = (  -0.0909091  -0.5773503   0.0000000), wk =   0.0165289
        k(  118) = (  -0.0909091  -0.4723775   0.0000000), wk =   0.0165289
        k(  119) = (  -0.0909091  -0.3674048   0.0000000), wk =   0.0165289
        k(  120) = (  -0.0909091  -0.2624320   0.0000000), wk =   0.0165289
        k(  121) = (  -0.0909091  -0.1574592   0.0000000), wk =   0.0165289

                       cryst. coord.
        k(    1) = (   0.0000000   0.0000000   0.0000000), wk =   0.0165289
        k(    2) = (   0.0000000   0.0909091   0.0000000), wk =   0.0165289
        k(    3) = (   0.0000000   0.1818182   0.0000000), wk =   0.0165289
        k(    4) = (   0.0000000   0.2727273   0.0000000), wk =   0.0165289
        k(    5) = (   0.0000000   0.3636364   0.0000000), wk =   0.0165289
        k(    6) = (   0.0000000   0.4545455   0.0000000), wk =   0.0165289
        k(    7) = (   0.0000000  -0.4545455   0.0000000), wk =   0.0165289
        k(    8) = (   0.0000000  -0.3636364   0.0000000), wk =   0.0165289
        k(    9) = (   0.0000000  -0.2727273   0.0000000), wk =   0.0165289
        k(   10) = (   0.0000000  -0.1818182   0.0000000), wk =   0.0165289
        k(   11) = (   0.0000000  -0.0909091   0.0000000), wk =   0.0165289
        k(   12) = (   0.0909091  -0.0000000   0.0000000), wk =   0.0165289
        k(   13) = (   0.0909091   0.0909091   0.0000000), wk =   0.0165289
        k(   14) = (   0.0909091   0.1818182   0.0000000), wk =   0.0165289
        k(   15) = (   0.0909091   0.2727273   0.0000000), wk =   0.0165289
        k(   16) = (   0.0909091   0.3636364   0.0000000), wk =   0.0165289
        k(   17) = (   0.0909091   0.4545455   0.0000000), wk =   0.0165289
        k(   18) = (   0.0909091  -0.4545455   0.0000000), wk =   0.0165289
        k(   19) = (   0.0909091  -0.3636364   0.0000000), wk =   0.0165289
        k(   20) = (   0.0909091  -0.2727273   0.0000000), wk =   0.0165289
        k(   21) = (   0.0909091  -0.1818182   0.0000000), wk =   0.0165289
        k(   22) = (   0.0909091  -0.0909091   0.0000000), wk =   0.0165289
        k(   23) = (   0.1818182  -0.0000000   0.0000000), wk =   0.0165289
        k(   24) = (   0.1818182   0.0909091   0.0000000), wk =   0.0165289
        k(   25) = (   0.1818182   0.1818182   0.0000000), wk =   0.0165289
        k(   26) = (   0.1818182   0.2727273   0.0000000), wk =   0.0165289
        k(   27) = (   0.1818182   0.3636364   0.0000000), wk =   0.0165289
        k(   28) = (   0.1818182   0.4545455   0.0000000), wk =   0.0165289
        k(   29) = (   0.1818182  -0.4545455   0.0000000), wk =   0.0165289
        k(   30) = (   0.1818182  -0.3636364   0.0000000), wk =   0.0165289
        k(   31) = (   0.1818182  -0.2727273   0.0000000), wk =   0.0165289
        k(   32) = (   0.1818182  -0.1818182   0.0000000), wk =   0.0165289
        k(   33) = (   0.1818182  -0.0909091   0.0000000), wk =   0.0165289
        k(   34) = (   0.2727273  -0.0000000   0.0000000), wk =   0.0165289
        k(   35) = (   0.2727273   0.0909091   0.0000000), wk =   0.0165289
        k(   36) = (   0.2727273   0.1818182   0.0000000), wk =   0.0165289
        k(   37) = (   0.2727273   0.2727273   0.0000000), wk =   0.0165289
        k(   38) = (   0.2727273   0.3636364   0.0000000), wk =   0.0165289
        k(   39) = (   0.2727273   0.4545455   0.0000000), wk =   0.0165289
        k(   40) = (   0.2727273  -0.4545455   0.0000000), wk =   0.0165289
        k(   41) = (   0.2727273  -0.3636364   0.0000000), wk =   0.0165289
        k(   42) = (   0.2727273  -0.2727273   0.0000000), wk =   0.0165289
        k(   43) = (   0.2727273  -0.1818182   0.0000000), wk =   0.0165289
        k(   44) = (   0.2727273  -0.0909091   0.0000000), wk =   0.0165289
        k(   45) = (   0.3636364  -0.0000000   0.0000000), wk =   0.0165289
        k(   46) = (   0.3636364   0.0909091   0.0000000), wk =   0.0165289
        k(   47) = (   0.3636364   0.1818182   0.0000000), wk =   0.0165289
        k(   48) = (   0.3636364   0.2727273   0.0000000), wk =   0.0165289
        k(   49) = (   0.3636364   0.3636364   0.0000000), wk =   0.0165289
        k(   50) = (   0.3636364   0.4545455   0.0000000), wk =   0.0165289
        k(   51) = (   0.3636364  -0.4545455   0.0000000), wk =   0.0165289
        k(   52) = (   0.3636364  -0.3636364   0.0000000), wk =   0.0165289
        k(   53) = (   0.3636364  -0.2727273   0.0000000), wk =   0.0165289
        k(   54) = (   0.3636364  -0.1818182   0.0000000), wk =   0.0165289
        k(   55) = (   0.3636364  -0.0909091   0.0000000), wk =   0.0165289
        k(   56) = (   0.4545455   0.0000000   0.0000000), wk =   0.0165289
        k(   57) = (   0.4545455   0.0909091   0.0000000), wk =   0.0165289
        k(   58) = (   0.4545455   0.1818182   0.0000000), wk =   0.0165289
        k(   59) = (   0.4545455   0.2727273   0.0000000), wk =   0.0165289
        k(   60) = (   0.4545455   0.3636364   0.0000000), wk =   0.0165289
        k(   61) = (   0.4545455   0.4545455   0.0000000), wk =   0.0165289
        k(   62) = (   0.4545455  -0.4545455   0.0000000), wk =   0.0165289
        k(   63) = (   0.4545455  -0.3636364   0.0000000), wk =   0.0165289
        k(   64) = (   0.4545455  -0.2727273   0.0000000), wk =   0.0165289
        k(   65) = (   0.4545455  -0.1818182   0.0000000), wk =   0.0165289
        k(   66) = (   0.4545455  -0.0909091   0.0000000), wk =   0.0165289
        k(   67) = (  -0.4545455  -0.0000000   0.0000000), wk =   0.0165289
        k(   68) = (  -0.4545455   0.0909091   0.0000000), wk =   0.0165289
        k(   69) = (  -0.4545455   0.1818182   0.0000000), wk =   0.0165289
        k(   70) = (  -0.4545455   0.2727273   0.0000000), wk =   0.0165289
        k(   71) = (  -0.4545455   0.3636364   0.0000000), wk =   0.0165289
        k(   72) = (  -0.4545455   0.4545455   0.0000000), wk =   0.0165289
        k(   73) = (  -0.4545455  -0.4545455   0.0000000), wk =   0.0165289
        k(   74) = (  -0.4545455  -0.3636364   0.0000000), wk =   0.0165289
        k(   75) = (  -0.4545455  -0.2727273   0.0000000), wk =   0.0165289
        k(   76) = (  -0.4545455  -0.1818182   0.0000000), wk =   0.0165289
        k(   77) = (  -0.4545455  -0.0909091   0.0000000), wk =   0.0165289
        k(   78) = (  -0.3636364   0.0000000   0.0000000), wk =   0.0165289
        k(   79) = (  -0.3636364   0.0909091   0.0000000), wk =   0.0165289
        k(   80) = (  -0.3636364   0.1818182   0.0000000), wk =   0.0165289
        k(   81) = (  -0.3636364   0.2727273   0.0000000), wk =   0.0165289
        k(   82) = (  -0.3636364   0.3636364   0.0000000), wk =   0.0165289
        k(   83) = (  -0.3636364   0.4545455   0.0000000), wk =   0.0165289
        k(   84) = (  -0.3636364  -0.4545455   0.0000000), wk =   0.0165289
        k(   85) = (  -0.3636364  -0.3636364   0.0000000), wk =   0.0165289
        k(   86) = (  -0.3636364  -0.2727273   0.0000000), wk =   0.0165289
        k(   87) = (  -0.3636364  -0.1818182   0.0000000), wk =   0.0165289
        k(   88) = (  -0.3636364  -0.0909091   0.0000000), wk =   0.0165289
        k(   89) = (  -0.2727273   0.0000000   0.0000000), wk =   0.0165289
        k(   90) = (  -0.2727273   0.0909091   0.0000000), wk =   0.0165289
        k(   91) = (  -0.2727273   0.1818182   0.0000000), wk =   0.0165289
        k(   92) = (  -0.2727273   0.2727273   0.0000000), wk =   0.0165289
        k(   93) = (  -0.2727273   0.3636364   0.0000000), wk =   0.0165289
        k(   94) = (  -0.2727273   0.4545455   0.0000000), wk =   0.0165289
        k(   95) = (  -0.2727273  -0.4545455   0.0000000), wk =   0.0165289
        k(   96) = (  -0.2727273  -0.3636364   0.0000000), wk =   0.0165289
        k(   97) = (  -0.2727273  -0.2727273   0.0000000), wk =   0.0165289
        k(   98) = (  -0.2727273  -0.1818182   0.0000000), wk =   0.0165289
        k(   99) = (  -0.2727273  -0.0909091   0.0000000), wk =   0.0165289
        k(  100) = (  -0.1818182  -0.0000000   0.0000000), wk =   0.0165289
        k(  101) = (  -0.1818182   0.0909091   0.0000000), wk =   0.0165289
        k(  102) = (  -0.1818182   0.1818182   0.0000000), wk =   0.0165289
        k(  103) = (  -0.1818182   0.2727273   0.0000000), wk =   0.0165289
        k(  104) = (  -0.1818182   0.3636364   0.0000000), wk =   0.0165289
        k(  105) = (  -0.1818182   0.4545455   0.0000000), wk =   0.0165289
        k(  106) = (  -0.1818182  -0.4545455   0.0000000), wk =   0.0165289
        k(  107) = (  -0.1818182  -0.3636364   0.0000000), wk =   0.0165289
        k(  108) = (  -0.1818182  -0.2727273   0.0000000), wk =   0.0165289
        k(  109) = (  -0.1818182  -0.1818182   0.0000000), wk =   0.0165289
        k(  110) = (  -0.1818182  -0.0909091   0.0000000), wk =   0.0165289
        k(  111) = (  -0.0909091  -0.0000000   0.0000000), wk =   0.0165289
        k(  112) = (  -0.0909091   0.0909091   0.0000000), wk =   0.0165289
        k(  113) = (  -0.0909091   0.1818182   0.0000000), wk =   0.0165289
        k(  114) = (  -0.0909091   0.2727273   0.0000000), wk =   0.0165289
        k(  115) = (  -0.0909091   0.3636364   0.0000000), wk =   0.0165289
        k(  116) = (  -0.0909091   0.4545455   0.0000000), wk =   0.0165289
        k(  117) = (  -0.0909091  -0.4545455   0.0000000), wk =   0.0165289
        k(  118) = (  -0.0909091  -0.3636364   0.0000000), wk =   0.0165289
        k(  119) = (  -0.0909091  -0.2727273   0.0000000), wk =   0.0165289
        k(  120) = (  -0.0909091  -0.1818182   0.0000000), wk =   0.0165289
        k(  121) = (  -0.0909091  -0.0909091   0.0000000), wk =   0.0165289

     Dense  grid:   159597 G-vectors     FFT dimensions: (  36,  36, 320)

     Smooth grid:   113881 G-vectors     FFT dimensions: (  32,  32, 288)

     Dynamical RAM for                 wfc:       4.58 MB

     Dynamical RAM for     wfc (w. buffer):     558.21 MB

     Dynamical RAM for           str. fact:       7.31 MB

     Dynamical RAM for           local pot:       0.00 MB

     Dynamical RAM for          nlocal pot:      14.38 MB

     Dynamical RAM for                qrad:       4.82 MB

     Dynamical RAM for          rho,v,vnew:      16.80 MB

     Dynamical RAM for               rhoin:       5.60 MB

     Dynamical RAM for            rho*nmix:      38.96 MB

     Dynamical RAM for           G-vectors:      10.00 MB

     Dynamical RAM for          h,s,v(r/c):       0.08 MB

     Dynamical RAM for          <psi|beta>:       0.02 MB

     Dynamical RAM for                 psi:       9.15 MB

     Dynamical RAM for                hpsi:       9.15 MB

     Dynamical RAM for      wfcinit/wfcrot:       9.16 MB

     Estimated static dynamical RAM per process >     642.67 MB

     Estimated max dynamical RAM per process >     700.04 MB
 ----2D----2D----2D----2D----2D----2D----2D----2D----2D----2D----2D----2D
  The code is running with the 2D cutoff
  Please refer to:
  Sohier, T., Calandra, M., & Mauri, F. (2017), 
  Density functional perturbation theory for gated two-dimensional heterostructures:
  Theoretical developments and application to flexural phonons in graphene.
  Physical Review B, 96(7), 75448. https://doi.org/10.1103/PhysRevB.96.075448
 ----2D----2D----2D----2D----2D----2D----2D----2D----2D----2D----2D----2D

     Initial potential from superposition of free atoms

     starting charge      41.9980, renormalised to      42.0000

     negative rho (up, down):  1.699E-06 0.000E+00
     Starting wfcs are   34 randomized atomic wfcs

     total cpu time spent up to now is        7.2 secs

     Self-consistent Calculation
[tb_dev] Currently allocated     1.51E+00 Mbytes, locked:    0 /   5
[tb_pin] Currently allocated     0.00E+00 Mbytes, locked:    0 /   0

     iteration #  1     ecut=    80.00 Ry     beta= 0.40
     Davidson diagonalization with overlap

---- Real-time Memory Report at c_bands before calling an iterative solver
          1255 MiB given to the printing process from OS
             0 MiB allocation reported by mallinfo(arena+hblkhd)
         12941 MiB available memory on the node where the printing process lives
     GPU memory used/free/total (MiB): 1397 / 10516 / 11914
------------------
     ethr =  1.00E-02,  avg # of iterations =  2.0

     total cpu time spent up to now is       18.7 secs

     total energy              =    -262.71338489 Ry
     estimated scf accuracy    <       2.22657036 Ry
[tb_dev] Currently allocated     2.67E-05 Mbytes, locked:    0 /   1
[tb_pin] Currently allocated     0.00E+00 Mbytes, locked:    0 /   0

     iteration #  2     ecut=    80.00 Ry     beta= 0.40
     Davidson diagonalization with overlap

---- Real-time Memory Report at c_bands before calling an iterative solver
          1271 MiB given to the printing process from OS
             0 MiB allocation reported by mallinfo(arena+hblkhd)
         12922 MiB available memory on the node where the printing process lives
     GPU memory used/free/total (MiB): 1401 / 10512 / 11914
------------------
     ethr =  5.30E-03,  avg # of iterations =  5.6

     total cpu time spent up to now is       37.3 secs

     total energy              =    -263.17722335 Ry
     estimated scf accuracy    <       0.72743171 Ry
[tb_dev] Currently allocated     2.67E-05 Mbytes, locked:    0 /   1
[tb_pin] Currently allocated     0.00E+00 Mbytes, locked:    0 /   0

     iteration #  3     ecut=    80.00 Ry     beta= 0.40
     Davidson diagonalization with overlap

---- Real-time Memory Report at c_bands before calling an iterative solver
          1299 MiB given to the printing process from OS
             0 MiB allocation reported by mallinfo(arena+hblkhd)
         12890 MiB available memory on the node where the printing process lives
     GPU memory used/free/total (MiB): 1401 / 10512 / 11914
------------------
     ethr =  1.73E-03,  avg # of iterations =  4.8

     total cpu time spent up to now is       52.7 secs

     total energy              =    -263.33101319 Ry
     estimated scf accuracy    <       0.04441933 Ry
[tb_dev] Currently allocated     2.67E-05 Mbytes, locked:    0 /   1
[tb_pin] Currently allocated     0.00E+00 Mbytes, locked:    0 /   0

     iteration #  4     ecut=    80.00 Ry     beta= 0.40
     Davidson diagonalization with overlap

---- Real-time Memory Report at c_bands before calling an iterative solver
          1304 MiB given to the printing process from OS
             0 MiB allocation reported by mallinfo(arena+hblkhd)
         12885 MiB available memory on the node where the printing process lives
     GPU memory used/free/total (MiB): 1401 / 10512 / 11914
------------------
     ethr =  1.06E-04,  avg # of iterations =  4.7

     total cpu time spent up to now is       67.8 secs

     total energy              =    -263.33996862 Ry
     estimated scf accuracy    <       0.01183685 Ry
[tb_dev] Currently allocated     2.67E-05 Mbytes, locked:    0 /   1
[tb_pin] Currently allocated     0.00E+00 Mbytes, locked:    0 /   0

     iteration #  5     ecut=    80.00 Ry     beta= 0.40
     Davidson diagonalization with overlap

---- Real-time Memory Report at c_bands before calling an iterative solver
          1308 MiB given to the printing process from OS
             0 MiB allocation reported by mallinfo(arena+hblkhd)
         12881 MiB available memory on the node where the printing process lives
     GPU memory used/free/total (MiB): 1403 / 10510 / 11914
------------------
     ethr =  2.82E-05,  avg # of iterations =  6.5

     total cpu time spent up to now is       86.7 secs

     total energy              =    -263.34136110 Ry
     estimated scf accuracy    <       0.02018276 Ry
[tb_dev] Currently allocated     2.67E-05 Mbytes, locked:    0 /   1
[tb_pin] Currently allocated     0.00E+00 Mbytes, locked:    0 /   0

     iteration #  6     ecut=    80.00 Ry     beta= 0.40
     Davidson diagonalization with overlap

---- Real-time Memory Report at c_bands before calling an iterative solver
          1316 MiB given to the printing process from OS
             0 MiB allocation reported by mallinfo(arena+hblkhd)
         12878 MiB available memory on the node where the printing process lives
     GPU memory used/free/total (MiB): 1403 / 10510 / 11914
------------------
     ethr =  2.82E-05,  avg # of iterations =  4.5

     total cpu time spent up to now is      101.4 secs

     total energy              =    -263.34271983 Ry
     estimated scf accuracy    <       0.00243325 Ry
[tb_dev] Currently allocated     2.67E-05 Mbytes, locked:    0 /   1
[tb_pin] Currently allocated     0.00E+00 Mbytes, locked:    0 /   0

     iteration #  7     ecut=    80.00 Ry     beta= 0.40
     Davidson diagonalization with overlap

---- Real-time Memory Report at c_bands before calling an iterative solver
          1321 MiB given to the printing process from OS
             0 MiB allocation reported by mallinfo(arena+hblkhd)
         12875 MiB available memory on the node where the printing process lives
     GPU memory used/free/total (MiB): 1403 / 10510 / 11914
------------------
     ethr =  5.79E-06,  avg # of iterations =  8.5

     total cpu time spent up to now is      123.2 secs

     total energy              =    -263.34376588 Ry
     estimated scf accuracy    <       0.01608552 Ry
[tb_dev] Currently allocated     2.67E-05 Mbytes, locked:    0 /   1
[tb_pin] Currently allocated     0.00E+00 Mbytes, locked:    0 /   0

     iteration #  8     ecut=    80.00 Ry     beta= 0.40
     Davidson diagonalization with overlap

---- Real-time Memory Report at c_bands before calling an iterative solver
          1325 MiB given to the printing process from OS
             0 MiB allocation reported by mallinfo(arena+hblkhd)
         12868 MiB available memory on the node where the printing process lives
     GPU memory used/free/total (MiB): 1403 / 10510 / 11914
------------------
     ethr =  5.79E-06,  avg # of iterations =  4.1

     total cpu time spent up to now is      137.0 secs

     total energy              =    -263.34300102 Ry
     estimated scf accuracy    <       0.00579929 Ry
[tb_dev] Currently allocated     2.67E-05 Mbytes, locked:    0 /   1
[tb_pin] Currently allocated     0.00E+00 Mbytes, locked:    0 /   0

     iteration #  9     ecut=    80.00 Ry     beta= 0.40
     Davidson diagonalization with overlap

---- Real-time Memory Report at c_bands before calling an iterative solver
          1332 MiB given to the printing process from OS
             0 MiB allocation reported by mallinfo(arena+hblkhd)
         12863 MiB available memory on the node where the printing process lives
     GPU memory used/free/total (MiB): 1403 / 10510 / 11914
------------------
     ethr =  5.79E-06,  avg # of iterations =  5.6

     total cpu time spent up to now is      153.3 secs

     total energy              =    -263.34387288 Ry
     estimated scf accuracy    <       0.00001960 Ry
[tb_dev] Currently allocated     2.67E-05 Mbytes, locked:    0 /   1
[tb_pin] Currently allocated     0.00E+00 Mbytes, locked:    0 /   0

     iteration # 10     ecut=    80.00 Ry     beta= 0.40
     Davidson diagonalization with overlap

---- Real-time Memory Report at c_bands before calling an iterative solver
          1333 MiB given to the printing process from OS
             0 MiB allocation reported by mallinfo(arena+hblkhd)
         12857 MiB available memory on the node where the printing process lives
     GPU memory used/free/total (MiB): 1403 / 10510 / 11914
------------------
     ethr =  4.67E-08,  avg # of iterations =  9.9

     total cpu time spent up to now is      179.6 secs

     total energy              =    -263.34386591 Ry
     estimated scf accuracy    <       0.00058137 Ry
[tb_dev] Currently allocated     2.67E-05 Mbytes, locked:    0 /   1
[tb_pin] Currently allocated     0.00E+00 Mbytes, locked:    0 /   0

     iteration # 11     ecut=    80.00 Ry     beta= 0.40
     Davidson diagonalization with overlap

---- Real-time Memory Report at c_bands before calling an iterative solver
          1337 MiB given to the printing process from OS
             0 MiB allocation reported by mallinfo(arena+hblkhd)
         12851 MiB available memory on the node where the printing process lives
     GPU memory used/free/total (MiB): 1403 / 10510 / 11914
------------------
     ethr =  4.67E-08,  avg # of iterations =  8.6

     negative rho (up, down):  1.863E-07 0.000E+00

     total cpu time spent up to now is      203.6 secs

     total energy              =    -263.34389046 Ry
     estimated scf accuracy    <       0.00003755 Ry
[tb_dev] Currently allocated     2.67E-05 Mbytes, locked:    0 /   1
[tb_pin] Currently allocated     0.00E+00 Mbytes, locked:    0 /   0

     iteration # 12     ecut=    80.00 Ry     beta= 0.40
     Davidson diagonalization with overlap

---- Real-time Memory Report at c_bands before calling an iterative solver
          1341 MiB given to the printing process from OS
             0 MiB allocation reported by mallinfo(arena+hblkhd)
         12842 MiB available memory on the node where the printing process lives
     GPU memory used/free/total (MiB): 1403 / 10510 / 11914
------------------
     ethr =  4.67E-08,  avg # of iterations =  7.9

     total cpu time spent up to now is      223.5 secs

     total energy              =    -263.34390215 Ry
     estimated scf accuracy    <       0.00004270 Ry
[tb_dev] Currently allocated     2.67E-05 Mbytes, locked:    0 /   1
[tb_pin] Currently allocated     0.00E+00 Mbytes, locked:    0 /   0

     iteration # 13     ecut=    80.00 Ry     beta= 0.40
     Davidson diagonalization with overlap

---- Real-time Memory Report at c_bands before calling an iterative solver
          1341 MiB given to the printing process from OS
             0 MiB allocation reported by mallinfo(arena+hblkhd)
         12831 MiB available memory on the node where the printing process lives
     GPU memory used/free/total (MiB): 1403 / 10510 / 11914
------------------
     ethr =  4.67E-08,  avg # of iterations =  2.7

     total cpu time spent up to now is      234.5 secs

     total energy              =    -263.34390014 Ry
     estimated scf accuracy    <       0.00001575 Ry
[tb_dev] Currently allocated     2.67E-05 Mbytes, locked:    0 /   1
[tb_pin] Currently allocated     0.00E+00 Mbytes, locked:    0 /   0

     iteration # 14     ecut=    80.00 Ry     beta= 0.40
     Davidson diagonalization with overlap

---- Real-time Memory Report at c_bands before calling an iterative solver
          1341 MiB given to the printing process from OS
             0 MiB allocation reported by mallinfo(arena+hblkhd)
         12831 MiB available memory on the node where the printing process lives
     GPU memory used/free/total (MiB): 1403 / 10510 / 11914
------------------
     ethr =  3.75E-08,  avg # of iterations =  5.2

     total cpu time spent up to now is      249.4 secs

     total energy              =    -263.34390359 Ry
     estimated scf accuracy    <       0.00000150 Ry
[tb_dev] Currently allocated     2.67E-05 Mbytes, locked:    0 /   1
[tb_pin] Currently allocated     0.00E+00 Mbytes, locked:    0 /   0

     iteration # 15     ecut=    80.00 Ry     beta= 0.40
     Davidson diagonalization with overlap

---- Real-time Memory Report at c_bands before calling an iterative solver
          1342 MiB given to the printing process from OS
             0 MiB allocation reported by mallinfo(arena+hblkhd)
         12835 MiB available memory on the node where the printing process lives
     GPU memory used/free/total (MiB): 1403 / 10510 / 11914
------------------
     ethr =  3.56E-09,  avg # of iterations =  3.7

     total cpu time spent up to now is      262.5 secs

     total energy              =    -263.34390346 Ry
     estimated scf accuracy    <       0.00000132 Ry
[tb_dev] Currently allocated     2.67E-05 Mbytes, locked:    0 /   1
[tb_pin] Currently allocated     0.00E+00 Mbytes, locked:    0 /   0

     iteration # 16     ecut=    80.00 Ry     beta= 0.40
     Davidson diagonalization with overlap

---- Real-time Memory Report at c_bands before calling an iterative solver
          1342 MiB given to the printing process from OS
             0 MiB allocation reported by mallinfo(arena+hblkhd)
         12844 MiB available memory on the node where the printing process lives
     GPU memory used/free/total (MiB): 1403 / 10510 / 11914
------------------
     ethr =  3.13E-09,  avg # of iterations =  5.5

     total cpu time spent up to now is      277.6 secs

     total energy              =    -263.34390381 Ry
     estimated scf accuracy    <       0.00000022 Ry
[tb_dev] Currently allocated     2.67E-05 Mbytes, locked:    0 /   1
[tb_pin] Currently allocated     0.00E+00 Mbytes, locked:    0 /   0

     iteration # 17     ecut=    80.00 Ry     beta= 0.40
     Davidson diagonalization with overlap

---- Real-time Memory Report at c_bands before calling an iterative solver
          1342 MiB given to the printing process from OS
             0 MiB allocation reported by mallinfo(arena+hblkhd)
         12839 MiB available memory on the node where the printing process lives
     GPU memory used/free/total (MiB): 1403 / 10510 / 11914
------------------
     ethr =  5.30E-10,  avg # of iterations =  1.9

     total cpu time spent up to now is      287.8 secs

     total energy              =    -263.34390377 Ry
     estimated scf accuracy    <       0.00000015 Ry
[tb_dev] Currently allocated     2.67E-05 Mbytes, locked:    0 /   1
[tb_pin] Currently allocated     0.00E+00 Mbytes, locked:    0 /   0

     iteration # 18     ecut=    80.00 Ry     beta= 0.40
     Davidson diagonalization with overlap

---- Real-time Memory Report at c_bands before calling an iterative solver
          1342 MiB given to the printing process from OS
             0 MiB allocation reported by mallinfo(arena+hblkhd)
         12833 MiB available memory on the node where the printing process lives
     GPU memory used/free/total (MiB): 1403 / 10510 / 11914
------------------
     ethr =  3.50E-10,  avg # of iterations =  5.6

     total cpu time spent up to now is      303.7 secs

     total energy              =    -263.34390382 Ry
     estimated scf accuracy    <       0.00000004 Ry
[tb_dev] Currently allocated     2.67E-05 Mbytes, locked:    0 /   1
[tb_pin] Currently allocated     0.00E+00 Mbytes, locked:    0 /   0

     iteration # 19     ecut=    80.00 Ry     beta= 0.40
     Davidson diagonalization with overlap

---- Real-time Memory Report at c_bands before calling an iterative solver
          1342 MiB given to the printing process from OS
             0 MiB allocation reported by mallinfo(arena+hblkhd)
         12832 MiB available memory on the node where the printing process lives
     GPU memory used/free/total (MiB): 1403 / 10510 / 11914
------------------
     ethr =  8.44E-11,  avg # of iterations =  1.7

     total cpu time spent up to now is      313.5 secs

     total energy              =    -263.34390382 Ry
     estimated scf accuracy    <       0.00000002 Ry
[tb_dev] Currently allocated     2.67E-05 Mbytes, locked:    0 /   1
[tb_pin] Currently allocated     0.00E+00 Mbytes, locked:    0 /   0

     iteration # 20     ecut=    80.00 Ry     beta= 0.40
     Davidson diagonalization with overlap

---- Real-time Memory Report at c_bands before calling an iterative solver
          1342 MiB given to the printing process from OS
             0 MiB allocation reported by mallinfo(arena+hblkhd)
         12830 MiB available memory on the node where the printing process lives
     GPU memory used/free/total (MiB): 1403 / 10510 / 11914
------------------
     ethr =  5.79E-11,  avg # of iterations =  4.5

     total cpu time spent up to now is      326.9 secs

     total energy              =    -263.34390382 Ry
     estimated scf accuracy    <          8.9E-10 Ry
[tb_dev] Currently allocated     2.67E-05 Mbytes, locked:    0 /   1
[tb_pin] Currently allocated     0.00E+00 Mbytes, locked:    0 /   0

     iteration # 21     ecut=    80.00 Ry     beta= 0.40
     Davidson diagonalization with overlap

---- Real-time Memory Report at c_bands before calling an iterative solver
          1342 MiB given to the printing process from OS
             0 MiB allocation reported by mallinfo(arena+hblkhd)
         12832 MiB available memory on the node where the printing process lives
     GPU memory used/free/total (MiB): 1403 / 10510 / 11914
------------------
     ethr =  2.13E-12,  avg # of iterations =  7.2

     total cpu time spent up to now is      346.5 secs

     total energy              =    -263.34390382 Ry
     estimated scf accuracy    <          4.0E-10 Ry
[tb_dev] Currently allocated     2.67E-05 Mbytes, locked:    0 /   1
[tb_pin] Currently allocated     0.00E+00 Mbytes, locked:    0 /   0

     iteration # 22     ecut=    80.00 Ry     beta= 0.40
     Davidson diagonalization with overlap

---- Real-time Memory Report at c_bands before calling an iterative solver
          1342 MiB given to the printing process from OS
             0 MiB allocation reported by mallinfo(arena+hblkhd)
         12839 MiB available memory on the node where the printing process lives
     GPU memory used/free/total (MiB): 1403 / 10510 / 11914
------------------
     ethr =  9.52E-13,  avg # of iterations =  4.4

     total cpu time spent up to now is      360.3 secs

     total energy              =    -263.34390382 Ry
     estimated scf accuracy    <          8.5E-10 Ry
[tb_dev] Currently allocated     2.67E-05 Mbytes, locked:    0 /   1
[tb_pin] Currently allocated     0.00E+00 Mbytes, locked:    0 /   0

     iteration # 23     ecut=    80.00 Ry     beta= 0.40
     Davidson diagonalization with overlap

---- Real-time Memory Report at c_bands before calling an iterative solver
          1342 MiB given to the printing process from OS
             0 MiB allocation reported by mallinfo(arena+hblkhd)
         12833 MiB available memory on the node where the printing process lives
     GPU memory used/free/total (MiB): 1403 / 10510 / 11914
------------------
     ethr =  9.52E-13,  avg # of iterations =  4.4

     total cpu time spent up to now is      374.0 secs

     total energy              =    -263.34390382 Ry
     estimated scf accuracy    <          9.7E-10 Ry
[tb_dev] Currently allocated     2.67E-05 Mbytes, locked:    0 /   1
[tb_pin] Currently allocated     0.00E+00 Mbytes, locked:    0 /   0

     iteration # 24     ecut=    80.00 Ry     beta= 0.40
     Davidson diagonalization with overlap

---- Real-time Memory Report at c_bands before calling an iterative solver
          1344 MiB given to the printing process from OS
             0 MiB allocation reported by mallinfo(arena+hblkhd)
         12814 MiB available memory on the node where the printing process lives
     GPU memory used/free/total (MiB): 1403 / 10510 / 11914
------------------
     ethr =  9.52E-13,  avg # of iterations =  3.2

     total cpu time spent up to now is      386.4 secs

     total energy              =    -263.34390382 Ry
     estimated scf accuracy    <          1.2E-09 Ry
[tb_dev] Currently allocated     2.67E-05 Mbytes, locked:    0 /   1
[tb_pin] Currently allocated     0.00E+00 Mbytes, locked:    0 /   0

     iteration # 25     ecut=    80.00 Ry     beta= 0.40
     Davidson diagonalization with overlap

---- Real-time Memory Report at c_bands before calling an iterative solver
          1344 MiB given to the printing process from OS
             0 MiB allocation reported by mallinfo(arena+hblkhd)
         12815 MiB available memory on the node where the printing process lives
     GPU memory used/free/total (MiB): 1403 / 10510 / 11914
------------------
     ethr =  9.52E-13,  avg # of iterations =  5.7

     total cpu time spent up to now is      402.5 secs

     total energy              =    -263.34390382 Ry
     estimated scf accuracy    <          2.9E-09 Ry
[tb_dev] Currently allocated     2.67E-05 Mbytes, locked:    0 /   1
[tb_pin] Currently allocated     0.00E+00 Mbytes, locked:    0 /   0

     iteration # 26     ecut=    80.00 Ry     beta= 0.40
     Davidson diagonalization with overlap

---- Real-time Memory Report at c_bands before calling an iterative solver
          1344 MiB given to the printing process from OS
             0 MiB allocation reported by mallinfo(arena+hblkhd)
         12822 MiB available memory on the node where the printing process lives
     GPU memory used/free/total (MiB): 1403 / 10510 / 11914
------------------
     ethr =  9.52E-13,  avg # of iterations = 10.7

     total cpu time spent up to now is      429.4 secs

     total energy              =    -263.34390382 Ry
     estimated scf accuracy    <       0.00000003 Ry
[tb_dev] Currently allocated     2.67E-05 Mbytes, locked:    0 /   1
[tb_pin] Currently allocated     0.00E+00 Mbytes, locked:    0 /   0

     iteration # 27     ecut=    80.00 Ry     beta= 0.40
     Davidson diagonalization with overlap

---- Real-time Memory Report at c_bands before calling an iterative solver
          1344 MiB given to the printing process from OS
             0 MiB allocation reported by mallinfo(arena+hblkhd)
         12823 MiB available memory on the node where the printing process lives
     GPU memory used/free/total (MiB): 1403 / 10510 / 11914
------------------
     ethr =  9.52E-13,  avg # of iterations =  1.0

     total cpu time spent up to now is      437.8 secs

     total energy              =    -263.34390382 Ry
     estimated scf accuracy    <       0.00000003 Ry
[tb_dev] Currently allocated     2.67E-05 Mbytes, locked:    0 /   1
[tb_pin] Currently allocated     0.00E+00 Mbytes, locked:    0 /   0

     iteration # 28     ecut=    80.00 Ry     beta= 0.40
     Davidson diagonalization with overlap

---- Real-time Memory Report at c_bands before calling an iterative solver
          1344 MiB given to the printing process from OS
             0 MiB allocation reported by mallinfo(arena+hblkhd)
         12820 MiB available memory on the node where the printing process lives
     GPU memory used/free/total (MiB): 1403 / 10510 / 11914
------------------
     ethr =  9.52E-13,  avg # of iterations =  8.5

     total cpu time spent up to now is      461.0 secs

     total energy              =    -263.34390382 Ry
     estimated scf accuracy    <          6.8E-09 Ry
[tb_dev] Currently allocated     2.67E-05 Mbytes, locked:    0 /   1
[tb_pin] Currently allocated     0.00E+00 Mbytes, locked:    0 /   0

     iteration # 29     ecut=    80.00 Ry     beta= 0.40
     Davidson diagonalization with overlap

---- Real-time Memory Report at c_bands before calling an iterative solver
          1344 MiB given to the printing process from OS
             0 MiB allocation reported by mallinfo(arena+hblkhd)
         12831 MiB available memory on the node where the printing process lives
     GPU memory used/free/total (MiB): 1403 / 10510 / 11914
------------------
     ethr =  9.52E-13,  avg # of iterations =  5.5

     total cpu time spent up to now is      476.7 secs

     total energy              =    -263.34390382 Ry
     estimated scf accuracy    <          3.3E-09 Ry
[tb_dev] Currently allocated     2.67E-05 Mbytes, locked:    0 /   1
[tb_pin] Currently allocated     0.00E+00 Mbytes, locked:    0 /   0

     iteration # 30     ecut=    80.00 Ry     beta= 0.40
     Davidson diagonalization with overlap

---- Real-time Memory Report at c_bands before calling an iterative solver
          1344 MiB given to the printing process from OS
             0 MiB allocation reported by mallinfo(arena+hblkhd)
         12836 MiB available memory on the node where the printing process lives
     GPU memory used/free/total (MiB): 1403 / 10510 / 11914
------------------
     ethr =  9.52E-13,  avg # of iterations =  8.2

     total cpu time spent up to now is      498.7 secs

     total energy              =    -263.34390382 Ry
     estimated scf accuracy    <          1.9E-10 Ry
[tb_dev] Currently allocated     2.67E-05 Mbytes, locked:    0 /   1
[tb_pin] Currently allocated     0.00E+00 Mbytes, locked:    0 /   0

     iteration # 31     ecut=    80.00 Ry     beta= 0.40
     Davidson diagonalization with overlap

---- Real-time Memory Report at c_bands before calling an iterative solver
          1344 MiB given to the printing process from OS
             0 MiB allocation reported by mallinfo(arena+hblkhd)
         12832 MiB available memory on the node where the printing process lives
     GPU memory used/free/total (MiB): 1403 / 10510 / 11914
------------------
     ethr =  4.64E-13,  avg # of iterations =  1.3

     total cpu time spent up to now is      508.1 secs

     total energy              =    -263.34390382 Ry
     estimated scf accuracy    <          1.5E-10 Ry
[tb_dev] Currently allocated     2.67E-05 Mbytes, locked:    0 /   1
[tb_pin] Currently allocated     0.00E+00 Mbytes, locked:    0 /   0

     iteration # 32     ecut=    80.00 Ry     beta= 0.40
     Davidson diagonalization with overlap

---- Real-time Memory Report at c_bands before calling an iterative solver
          1346 MiB given to the printing process from OS
             0 MiB allocation reported by mallinfo(arena+hblkhd)
         12826 MiB available memory on the node where the printing process lives
     GPU memory used/free/total (MiB): 1403 / 10510 / 11914
------------------
     ethr =  3.52E-13,  avg # of iterations =  2.7

     total cpu time spent up to now is      520.1 secs

     End of self-consistent calculation

          k = 0.0000 0.0000 0.0000 ( 14281 PWs)   bands (ev):

   -77.9038 -49.0948 -49.0948 -49.0883 -24.8517 -24.7766 -22.0286 -20.6343
   -14.2622 -11.6687  -9.6930  -9.2810  -9.2808  -9.2268  -9.2267  -8.9114
    -8.9113  -7.7373  -7.6141  -7.6128  -5.5262

     occupation numbers 
     1.0000   1.0000   1.0000   1.0000   1.0000   1.0000   1.0000   1.0000
     1.0000   1.0000   1.0000   1.0000   1.0000   1.0000   1.0000   1.0000
     1.0000   1.0000   1.0000   1.0000   1.0000

          k = 0.0000 0.1050 0.0000 ( 14339 PWs)   bands (ev):

   -77.9005 -49.1201 -49.1005 -49.0837 -24.7035 -24.6307 -21.9117 -20.5695
   -14.1395 -11.6118 -10.0275  -9.9010  -9.4301  -9.4083  -9.3738  -9.1794
    -8.8221  -7.9679  -7.7661  -7.4761  -5.6300

     occupation numbers 
     1.0000   1.0000   1.0000   1.0000   1.0000   1.0000   1.0000   1.0000
     1.0000   1.0000   1.0000   1.0000   1.0000   1.0000   1.0000   1.0000
     1.0000   1.0000   1.0000   1.0000   1.0000

          k = 0.0000 0.2099 0.0000 ( 14373 PWs)   bands (ev):

   -77.8914 -49.1874 -49.1157 -49.0712 -24.2713 -24.2048 -21.5887 -20.3934
   -13.8339 -11.5902 -11.3248 -11.2549  -9.8199  -9.7477  -9.7355  -9.2238
    -8.5517  -8.3758  -8.1301  -7.5947  -5.9961

     occupation numbers 
     1.0000   1.0000   1.0000   1.0000   1.0000   1.0000   1.0000   1.0000
     1.0000   1.0000   1.0000   1.0000   1.0000   1.0000   1.0000   1.0000
     1.0000   1.0000   1.0000   1.0000   1.0000

          k = 0.0000 0.3149 0.0000 ( 14345 PWs)   bands (ev):

   -77.8796 -49.2749 -49.1357 -49.0548 -23.5983 -23.5415 -21.1484 -20.1654
   -13.7699 -13.0974 -12.5791 -11.2641 -10.5357 -10.1630 -10.1435  -9.0415
    -8.8544  -8.5500  -8.1573  -7.8018  -6.3973

     occupation numbers 
     1.0000   1.0000   1.0000   1.0000   1.0000   1.0000   1.0000   1.0000
     1.0000   1.0000   1.0000   1.0000   1.0000   1.0000   1.0000   1.0000
     1.0000   1.0000   1.0000   1.0000   1.0000

          k = 0.0000 0.4199 0.0000 ( 14289 PWs)   bands (ev):

   -77.8687 -49.3544 -49.1539 -49.0398 -22.7908 -22.7462 -20.7535 -19.9967
   -14.8241 -14.5702 -12.6150 -11.4100 -11.0222 -10.5088 -10.4767  -9.4834
    -8.8801  -8.6135  -7.8876  -7.7794  -6.5293

     occupation numbers 
     1.0000   1.0000   1.0000   1.0000   1.0000   1.0000   1.0000   1.0000
     1.0000   1.0000   1.0000   1.0000   1.0000   1.0000   1.0000   1.0000
     1.0000   1.0000   1.0000   1.0000   1.0000

          k = 0.0000 0.5249 0.0000 ( 14233 PWs)   bands (ev):

   -77.8622 -49.4013 -49.1647 -49.0308 -22.1222 -22.0894 -20.5889 -19.9857
   -15.6944 -15.4701 -12.4409 -11.7994 -11.1880 -10.6994 -10.6609  -9.6617
    -9.0619  -8.3434  -7.8996  -7.5404  -6.4862

     occupation numbers 
     1.0000   1.0000   1.0000   1.0000   1.0000   1.0000   1.0000   1.0000
     1.0000   1.0000   1.0000   1.0000   1.0000   1.0000   1.0000   1.0000
     1.0000   1.0000   1.0000   1.0000   1.0000

          k = 0.0000-0.5249 0.0000 ( 14233 PWs)   bands (ev):

   -77.8622 -49.4013 -49.1647 -49.0308 -22.1222 -22.0894 -20.5889 -19.9857
   -15.6944 -15.4701 -12.4409 -11.7994 -11.1880 -10.6994 -10.6609  -9.6617
    -9.0619  -8.3434  -7.8996  -7.5404  -6.4862

     occupation numbers 
     1.0000   1.0000   1.0000   1.0000   1.0000   1.0000   1.0000   1.0000
     1.0000   1.0000   1.0000   1.0000   1.0000   1.0000   1.0000   1.0000
     1.0000   1.0000   1.0000   1.0000   1.0000

          k = 0.0000-0.4199 0.0000 ( 14289 PWs)   bands (ev):

   -77.8687 -49.3544 -49.1539 -49.0398 -22.7908 -22.7462 -20.7535 -19.9967
   -14.8241 -14.5702 -12.6150 -11.4100 -11.0222 -10.5088 -10.4767  -9.4834
    -8.8801  -8.6135  -7.8876  -7.7794  -6.5293

     occupation numbers 
     1.0000   1.0000   1.0000   1.0000   1.0000   1.0000   1.0000   1.0000
     1.0000   1.0000   1.0000   1.0000   1.0000   1.0000   1.0000   1.0000
     1.0000   1.0000   1.0000   1.0000   1.0000

          k = 0.0000-0.3149 0.0000 ( 14345 PWs)   bands (ev):

   -77.8796 -49.2749 -49.1357 -49.0548 -23.5983 -23.5415 -21.1484 -20.1654
   -13.7699 -13.0974 -12.5791 -11.2641 -10.5357 -10.1630 -10.1435  -9.0415
    -8.8544  -8.5500  -8.1573  -7.8018  -6.3973

     occupation numbers 
     1.0000   1.0000   1.0000   1.0000   1.0000   1.0000   1.0000   1.0000
     1.0000   1.0000   1.0000   1.0000   1.0000   1.0000   1.0000   1.0000
     1.0000   1.0000   1.0000   1.0000   1.0000

          k = 0.0000-0.2099 0.0000 ( 14373 PWs)   bands (ev):

   -77.8914 -49.1874 -49.1157 -49.0712 -24.2713 -24.2048 -21.5887 -20.3934
   -13.8339 -11.5902 -11.3248 -11.2549  -9.8199  -9.7477  -9.7355  -9.2238
    -8.5517  -8.3758  -8.1301  -7.5947  -5.9961

     occupation numbers 
     1.0000   1.0000   1.0000   1.0000   1.0000   1.0000   1.0000   1.0000
     1.0000   1.0000   1.0000   1.0000   1.0000   1.0000   1.0000   1.0000
     1.0000   1.0000   1.0000   1.0000   1.0000

          k = 0.0000-0.1050 0.0000 ( 14339 PWs)   bands (ev):

   -77.9005 -49.1201 -49.1005 -49.0837 -24.7035 -24.6307 -21.9117 -20.5695
   -14.1395 -11.6118 -10.0275  -9.9010  -9.4301  -9.4083  -9.3738  -9.1794
    -8.8221  -7.9679  -7.7661  -7.4761  -5.6300

     occupation numbers 
     1.0000   1.0000   1.0000   1.0000   1.0000   1.0000   1.0000   1.0000
     1.0000   1.0000   1.0000   1.0000   1.0000   1.0000   1.0000   1.0000
     1.0000   1.0000   1.0000   1.0000   1.0000

          k = 0.0909 0.0525 0.0000 ( 14339 PWs)   bands (ev):

   -77.9005 -49.1201 -49.1005 -49.0837 -24.7035 -24.6307 -21.9117 -20.5695
   -14.1395 -11.6118 -10.0275  -9.9010  -9.4301  -9.4083  -9.3738  -9.1794
    -8.8221  -7.9679  -7.7661  -7.4761  -5.6300

     occupation numbers 
     1.0000   1.0000   1.0000   1.0000   1.0000   1.0000   1.0000   1.0000
     1.0000   1.0000   1.0000   1.0000   1.0000   1.0000   1.0000   1.0000
     1.0000   1.0000   1.0000   1.0000   1.0000

          k = 0.0909 0.1575 0.0000 ( 14341 PWs)   bands (ev):

   -77.8943 -49.1649 -49.1125 -49.0751 -24.4132 -24.3447 -21.6915 -20.4488
   -13.9224 -11.5283 -10.8754 -10.8529  -9.8759  -9.7277  -9.4655  -9.2840
    -8.6679  -8.1908  -8.1328  -7.4585  -5.8748

     occupation numbers 
     1.0000   1.0000   1.0000   1.0000   1.0000   1.0000   1.0000   1.0000
     1.0000   1.0000   1.0000   1.0000   1.0000   1.0000   1.0000   1.0000
     1.0000   1.0000   1.0000   1.0000   1.0000

          k = 0.0909 0.2624 0.0000 ( 14358 PWs)   bands (ev):

   -77.8838 -49.2384 -49.1339 -49.0607 -23.8589 -23.7983 -21.3077 -20.2441
   -13.6634 -12.3689 -12.1089 -11.2790 -10.5368 -10.2900  -9.9712  -9.0462
    -8.8776  -8.3918  -8.2624  -7.6505  -6.2751

     occupation numbers 
     1.0000   1.0000   1.0000   1.0000   1.0000   1.0000   1.0000   1.0000
     1.0000   1.0000   1.0000   1.0000   1.0000   1.0000   1.0000   1.0000
     1.0000   1.0000   1.0000   1.0000   1.0000

          k = 0.0909 0.3674 0.0000 ( 14286 PWs)   bands (ev):

   -77.8725 -49.3175 -49.1573 -49.0450 -23.1098 -23.0600 -20.8832 -20.0383
   -14.2047 -13.8571 -12.6305 -11.2961 -11.0096 -10.7834 -10.5126  -9.5380
    -8.7865  -8.4635  -8.1092  -7.8342  -6.5152

     occupation numbers 
     1.0000   1.0000   1.0000   1.0000   1.0000   1.0000   1.0000   1.0000
     1.0000   1.0000   1.0000   1.0000   1.0000   1.0000   1.0000   1.0000
     1.0000   1.0000   1.0000   1.0000   1.0000

          k = 0.0909 0.4724 0.0000 ( 14254 PWs)   bands (ev):

   -77.8638 -49.3774 -49.1751 -49.0330 -22.3351 -22.2978 -20.6038 -19.9508
   -15.2605 -15.0309 -12.4607 -11.6916 -11.2286 -10.9831 -10.9448  -9.7899
    -8.9302  -8.3944  -8.0177  -7.7548  -6.4662

     occupation numbers 
     1.0000   1.0000   1.0000   1.0000   1.0000   1.0000   1.0000   1.0000
     1.0000   1.0000   1.0000   1.0000   1.0000   1.0000   1.0000   1.0000
     1.0000   1.0000   1.0000   1.0000   1.0000

          k = 0.0909 0.5774 0.0000 ( 14208 PWs)   bands (ev):

   -77.8606 -49.3996 -49.1818 -49.0285 -21.9472 -21.9161 -20.5525 -19.9748
   -15.7107 -15.4866 -12.3478 -11.9008 -11.3129 -11.1734 -11.0323  -9.7563
    -9.1231  -8.2491  -7.9734  -7.7165  -6.3884

     occupation numbers 
     1.0000   1.0000   1.0000   1.0000   1.0000   1.0000   1.0000   1.0000
     1.0000   1.0000   1.0000   1.0000   1.0000   1.0000   1.0000   1.0000
     1.0000   1.0000   1.0000   1.0000   1.0000

          k = 0.0909-0.4724 0.0000 ( 14254 PWs)   bands (ev):

   -77.8638 -49.3774 -49.1751 -49.0330 -22.3351 -22.2978 -20.6038 -19.9508
   -15.2605 -15.0309 -12.4607 -11.6916 -11.2286 -10.9833 -10.9447  -9.7895
    -8.9305  -8.3944  -8.0179  -7.7548  -6.4660

     occupation numbers 
     1.0000   1.0000   1.0000   1.0000   1.0000   1.0000   1.0000   1.0000
     1.0000   1.0000   1.0000   1.0000   1.0000   1.0000   1.0000   1.0000
     1.0000   1.0000   1.0000   1.0000   1.0000

          k = 0.0909-0.3674 0.0000 ( 14286 PWs)   bands (ev):

   -77.8725 -49.3175 -49.1573 -49.0450 -23.1098 -23.0600 -20.8832 -20.0383
   -14.2047 -13.8571 -12.6305 -11.2961 -11.0096 -10.7834 -10.5127  -9.5379
    -8.7865  -8.4635  -8.1095  -7.8343  -6.5149

     occupation numbers 
     1.0000   1.0000   1.0000   1.0000   1.0000   1.0000   1.0000   1.0000
     1.0000   1.0000   1.0000   1.0000   1.0000   1.0000   1.0000   1.0000
     1.0000   1.0000   1.0000   1.0000   1.0000

          k = 0.0909-0.2624 0.0000 ( 14358 PWs)   bands (ev):

   -77.8838 -49.2384 -49.1339 -49.0607 -23.8589 -23.7983 -21.3077 -20.2441
   -13.6635 -12.3689 -12.1089 -11.2789 -10.5368 -10.2900  -9.9714  -9.0462
    -8.8779  -8.3918  -8.2620  -7.6509  -6.2749

     occupation numbers 
     1.0000   1.0000   1.0000   1.0000   1.0000   1.0000   1.0000   1.0000
     1.0000   1.0000   1.0000   1.0000   1.0000   1.0000   1.0000   1.0000
     1.0000   1.0000   1.0000   1.0000   1.0000

          k = 0.0909-0.1575 0.0000 ( 14341 PWs)   bands (ev):

   -77.8943 -49.1649 -49.1125 -49.0751 -24.4132 -24.3447 -21.6915 -20.4488
   -13.9224 -11.5282 -10.8758 -10.8525  -9.8759  -9.7276  -9.4656  -9.2841
    -8.6677  -8.1913  -8.1323  -7.4587  -5.8746

     occupation numbers 
     1.0000   1.0000   1.0000   1.0000   1.0000   1.0000   1.0000   1.0000
     1.0000   1.0000   1.0000   1.0000   1.0000   1.0000   1.0000   1.0000
     1.0000   1.0000   1.0000   1.0000   1.0000

          k = 0.0909-0.0525 0.0000 ( 14339 PWs)   bands (ev):

   -77.9005 -49.1201 -49.1005 -49.0837 -24.7035 -24.6307 -21.9117 -20.5695
   -14.1395 -11.6118 -10.0276  -9.9010  -9.4301  -9.4081  -9.3739  -9.1796
    -8.8219  -7.9673  -7.7669  -7.4759  -5.6299

     occupation numbers 
     1.0000   1.0000   1.0000   1.0000   1.0000   1.0000   1.0000   1.0000
     1.0000   1.0000   1.0000   1.0000   1.0000   1.0000   1.0000   1.0000
     1.0000   1.0000   1.0000   1.0000   1.0000

          k = 0.1818 0.1050 0.0000 ( 14373 PWs)   bands (ev):

   -77.8914 -49.1874 -49.1157 -49.0712 -24.2713 -24.2048 -21.5887 -20.3934
   -13.8339 -11.5902 -11.3248 -11.2549  -9.8199  -9.7477  -9.7355  -9.2238
    -8.5517  -8.3758  -8.1301  -7.5947  -5.9961

     occupation numbers 
     1.0000   1.0000   1.0000   1.0000   1.0000   1.0000   1.0000   1.0000
     1.0000   1.0000   1.0000   1.0000   1.0000   1.0000   1.0000   1.0000
     1.0000   1.0000   1.0000   1.0000   1.0000

          k = 0.1818 0.2099 0.0000 ( 14358 PWs)   bands (ev):

   -77.8838 -49.2384 -49.1339 -49.0607 -23.8589 -23.7983 -21.3077 -20.2441
   -13.6634 -12.3689 -12.1089 -11.2790 -10.5368 -10.2900  -9.9712  -9.0462
    -8.8776  -8.3918  -8.2624  -7.6505  -6.2752

     occupation numbers 
     1.0000   1.0000   1.0000   1.0000   1.0000   1.0000   1.0000   1.0000
     1.0000   1.0000   1.0000   1.0000   1.0000   1.0000   1.0000   1.0000
     1.0000   1.0000   1.0000   1.0000   1.0000

          k = 0.1818 0.3149 0.0000 ( 14279 PWs)   bands (ev):

   -77.8739 -49.2967 -49.1657 -49.0469 -23.2229 -23.1714 -20.9342 -20.0553
   -13.8807 -13.3915 -12.5107 -11.4669 -11.3246 -10.9992 -10.3767  -9.6603
    -8.8023  -8.4163  -8.0987  -7.8660  -6.5094

     occupation numbers 
     1.0000   1.0000   1.0000   1.0000   1.0000   1.0000   1.0000   1.0000
     1.0000   1.0000   1.0000   1.0000   1.0000   1.0000   1.0000   1.0000
     1.0000   1.0000   1.0000   1.0000   1.0000

          k = 0.1818 0.4199 0.0000 ( 14239 PWs)   bands (ev):

   -77.8647 -49.3458 -49.1991 -49.0343 -22.4742 -22.4338 -20.6144 -19.9208
   -14.6668 -14.3995 -12.4548 -12.1585 -11.9898 -10.9648 -10.7811 -10.1230
    -8.7418  -8.6188  -8.2160  -7.8198  -6.4660

     occupation numbers 
     1.0000   1.0000   1.0000   1.0000   1.0000   1.0000   1.0000   1.0000
     1.0000   1.0000   1.0000   1.0000   1.0000   1.0000   1.0000   1.0000
     1.0000   1.0000   1.0000   1.0000   1.0000

          k = 0.1818 0.5249 0.0000 ( 14219 PWs)   bands (ev):

   -77.8593 -49.3735 -49.2201 -49.0267 -21.8739 -21.8420 -20.4909 -19.9121
   -15.3069 -15.0782 -12.6764 -12.4966 -11.8464 -11.2948 -11.1274  -9.9429
    -9.1284  -8.7480  -8.1726  -7.6499  -6.2757

     occupation numbers 
     1.0000   1.0000   1.0000   1.0000   1.0000   1.0000   1.0000   1.0000
     1.0000   1.0000   1.0000   1.0000   1.0000   1.0000   1.0000   1.0000
     1.0000   1.0000   1.0000   1.0000   1.0000

          k = 0.1818 0.6298 0.0000 ( 14219 PWs)   bands (ev):

   -77.8593 -49.3735 -49.2201 -49.0267 -21.8739 -21.8420 -20.4909 -19.9120
   -15.3070 -15.0782 -12.6764 -12.4966 -11.8463 -11.2949 -11.1276  -9.9425
    -9.1286  -8.7481  -8.1727  -7.6499  -6.2756

     occupation numbers 
     1.0000   1.0000   1.0000   1.0000   1.0000   1.0000   1.0000   1.0000
     1.0000   1.0000   1.0000   1.0000   1.0000   1.0000   1.0000   1.0000
     1.0000   1.0000   1.0000   1.0000   1.0000

          k = 0.1818-0.4199 0.0000 ( 14239 PWs)   bands (ev):

   -77.8647 -49.3458 -49.1990 -49.0343 -22.4742 -22.4338 -20.6144 -19.9207
   -14.6669 -14.3995 -12.4548 -12.1584 -11.9899 -10.9650 -10.7812 -10.1226
    -8.7418  -8.6190  -8.2164  -7.8197  -6.4657

     occupation numbers 
     1.0000   1.0000   1.0000   1.0000   1.0000   1.0000   1.0000   1.0000
     1.0000   1.0000   1.0000   1.0000   1.0000   1.0000   1.0000   1.0000
     1.0000   1.0000   1.0000   1.0000   1.0000

          k = 0.1818-0.3149 0.0000 ( 14279 PWs)   bands (ev):

   -77.8739 -49.2967 -49.1657 -49.0469 -23.2229 -23.1714 -20.9343 -20.0552
   -13.8807 -13.3915 -12.5107 -11.4668 -11.3245 -10.9990 -10.3769  -9.6604
    -8.8023  -8.4163  -8.0986  -7.8664  -6.5091

     occupation numbers 
     1.0000   1.0000   1.0000   1.0000   1.0000   1.0000   1.0000   1.0000
     1.0000   1.0000   1.0000   1.0000   1.0000   1.0000   1.0000   1.0000
     1.0000   1.0000   1.0000   1.0000   1.0000

          k = 0.1818-0.2099 0.0000 ( 14358 PWs)   bands (ev):

   -77.8838 -49.2385 -49.1339 -49.0607 -23.8589 -23.7983 -21.3077 -20.2440
   -13.6635 -12.3689 -12.1089 -11.2788 -10.5368 -10.2900  -9.9714  -9.0462
    -8.8779  -8.3917  -8.2622  -7.6508  -6.2748

     occupation numbers 
     1.0000   1.0000   1.0000   1.0000   1.0000   1.0000   1.0000   1.0000
     1.0000   1.0000   1.0000   1.0000   1.0000   1.0000   1.0000   1.0000
     1.0000   1.0000   1.0000   1.0000   1.0000

          k = 0.1818-0.1050 0.0000 ( 14373 PWs)   bands (ev):

   -77.8914 -49.1875 -49.1157 -49.0712 -24.2713 -24.2048 -21.5887 -20.3933
   -13.8340 -11.5901 -11.3252 -11.2545  -9.8201  -9.7469  -9.7362  -9.2238
    -8.5515  -8.3753  -8.1308  -7.5948  -5.9959

     occupation numbers 
     1.0000   1.0000   1.0000   1.0000   1.0000   1.0000   1.0000   1.0000
     1.0000   1.0000   1.0000   1.0000   1.0000   1.0000   1.0000   1.0000
     1.0000   1.0000   1.0000   1.0000   1.0000

          k = 0.1818-0.0000 0.0000 ( 14341 PWs)   bands (ev):

   -77.8943 -49.1649 -49.1125 -49.0751 -24.4132 -24.3447 -21.6915 -20.4488
   -13.9224 -11.5282 -10.8758 -10.8525  -9.8759  -9.7276  -9.4656  -9.2841
    -8.6677  -8.1913  -8.1323  -7.4587  -5.8746

     occupation numbers 
     1.0000   1.0000   1.0000   1.0000   1.0000   1.0000   1.0000   1.0000
     1.0000   1.0000   1.0000   1.0000   1.0000   1.0000   1.0000   1.0000
     1.0000   1.0000   1.0000   1.0000   1.0000

          k = 0.2727 0.1575 0.0000 ( 14345 PWs)   bands (ev):

   -77.8796 -49.2749 -49.1357 -49.0548 -23.5983 -23.5415 -21.1484 -20.1654
   -13.7699 -13.0974 -12.5791 -11.2641 -10.5357 -10.1630 -10.1435  -9.0415
    -8.8544  -8.5500  -8.1573  -7.8018  -6.3973

     occupation numbers 
     1.0000   1.0000   1.0000   1.0000   1.0000   1.0000   1.0000   1.0000
     1.0000   1.0000   1.0000   1.0000   1.0000   1.0000   1.0000   1.0000
     1.0000   1.0000   1.0000   1.0000   1.0000

          k = 0.2727 0.2624 0.0000 ( 14286 PWs)   bands (ev):

   -77.8725 -49.3175 -49.1573 -49.0450 -23.1098 -23.0600 -20.8832 -20.0383
   -14.2047 -13.8571 -12.6305 -11.2961 -11.0096 -10.7834 -10.5126  -9.5380
    -8.7865  -8.4635  -8.1092  -7.8342  -6.5152

     occupation numbers 
     1.0000   1.0000   1.0000   1.0000   1.0000   1.0000   1.0000   1.0000
     1.0000   1.0000   1.0000   1.0000   1.0000   1.0000   1.0000   1.0000
     1.0000   1.0000   1.0000   1.0000   1.0000

          k = 0.2727 0.3674 0.0000 ( 14239 PWs)   bands (ev):

   -77.8647 -49.3458 -49.1991 -49.0343 -22.4743 -22.4338 -20.6144 -19.9208
   -14.6668 -14.3995 -12.4548 -12.1585 -11.9898 -10.9648 -10.7811 -10.1230
    -8.7418  -8.6188  -8.2160  -7.8198  -6.4660

     occupation numbers 
     1.0000   1.0000   1.0000   1.0000   1.0000   1.0000   1.0000   1.0000
     1.0000   1.0000   1.0000   1.0000   1.0000   1.0000   1.0000   1.0000
     1.0000   1.0000   1.0000   1.0000   1.0000

          k = 0.2727 0.4724 0.0000 ( 14202 PWs)   bands (ev):

   -77.8588 -49.3511 -49.2472 -49.0261 -21.8620 -21.8295 -20.4590 -19.8749
   -14.9047 -14.6482 -13.2775 -13.1406 -11.9126 -11.1665 -10.8781 -10.1193
    -9.4286  -8.8793  -8.1923  -7.6297  -6.2334

     occupation numbers 
     1.0000   1.0000   1.0000   1.0000   1.0000   1.0000   1.0000   1.0000
     1.0000   1.0000   1.0000   1.0000   1.0000   1.0000   1.0000   1.0000
     1.0000   1.0000   1.0000   1.0000   1.0000

          k = 0.2727 0.5774 0.0000 ( 14224 PWs)   bands (ev):

   -77.8566 -49.3450 -49.2732 -49.0230 -21.5830 -21.5492 -20.4340 -19.8831
   -14.9364 -14.6767 -13.7262 -13.6259 -11.5948 -11.3454 -10.9757  -9.9964
    -9.6894  -9.2052  -8.1171  -7.5294  -6.0765

     occupation numbers 
     1.0000   1.0000   1.0000   1.0000   1.0000   1.0000   1.0000   1.0000
     1.0000   1.0000   1.0000   1.0000   1.0000   1.0000   1.0000   1.0000
     1.0000   1.0000   1.0000   1.0000   1.0000

          k = 0.2727 0.6823 0.0000 ( 14202 PWs)   bands (ev):

   -77.8588 -49.3511 -49.2472 -49.0261 -21.8620 -21.8295 -20.4591 -19.8748
   -14.9048 -14.6482 -13.2774 -13.1408 -11.9126 -11.1667 -10.8783 -10.1188
    -9.4286  -8.8795  -8.1925  -7.6297  -6.2332

     occupation numbers 
     1.0000   1.0000   1.0000   1.0000   1.0000   1.0000   1.0000   1.0000
     1.0000   1.0000   1.0000   1.0000   1.0000   1.0000   1.0000   1.0000
     1.0000   1.0000   1.0000   1.0000   1.0000

          k = 0.2727-0.3674 0.0000 ( 14239 PWs)   bands (ev):

   -77.8647 -49.3458 -49.1990 -49.0343 -22.4742 -22.4338 -20.6145 -19.9207
   -14.6669 -14.3995 -12.4549 -12.1583 -11.9900 -10.9648 -10.7812 -10.1229
    -8.7417  -8.6190  -8.2165  -7.8197  -6.4656

     occupation numbers 
     1.0000   1.0000   1.0000   1.0000   1.0000   1.0000   1.0000   1.0000
     1.0000   1.0000   1.0000   1.0000   1.0000   1.0000   1.0000   1.0000
     1.0000   1.0000   1.0000   1.0000   1.0000

          k = 0.2727-0.2624 0.0000 ( 14286 PWs)   bands (ev):

   -77.8725 -49.3175 -49.1573 -49.0450 -23.1097 -23.0600 -20.8833 -20.0382
   -14.2048 -13.8570 -12.6306 -11.2959 -11.0097 -10.7832 -10.5128  -9.5382
    -8.7866  -8.4637  -8.1094  -7.8342  -6.5147

     occupation numbers 
     1.0000   1.0000   1.0000   1.0000   1.0000   1.0000   1.0000   1.0000
     1.0000   1.0000   1.0000   1.0000   1.0000   1.0000   1.0000   1.0000
     1.0000   1.0000   1.0000   1.0000   1.0000

          k = 0.2727-0.1575 0.0000 ( 14345 PWs)   bands (ev):

   -77.8796 -49.2749 -49.1356 -49.0548 -23.5983 -23.5415 -21.1485 -20.1654
   -13.7700 -13.0974 -12.5792 -11.2639 -10.5359 -10.1626 -10.1439  -9.0414
    -8.8545  -8.5505  -8.1573  -7.8017  -6.3969

     occupation numbers 
     1.0000   1.0000   1.0000   1.0000   1.0000   1.0000   1.0000   1.0000
     1.0000   1.0000   1.0000   1.0000   1.0000   1.0000   1.0000   1.0000
     1.0000   1.0000   1.0000   1.0000   1.0000

          k = 0.2727-0.0525 0.0000 ( 14358 PWs)   bands (ev):

   -77.8838 -49.2385 -49.1339 -49.0607 -23.8589 -23.7983 -21.3077 -20.2440
   -13.6635 -12.3689 -12.1089 -11.2788 -10.5368 -10.2900  -9.9714  -9.0462
    -8.8779  -8.3917  -8.2622  -7.6508  -6.2748

     occupation numbers 
     1.0000   1.0000   1.0000   1.0000   1.0000   1.0000   1.0000   1.0000
     1.0000   1.0000   1.0000   1.0000   1.0000   1.0000   1.0000   1.0000
     1.0000   1.0000   1.0000   1.0000   1.0000

          k = 0.2727 0.0525 0.0000 ( 14358 PWs)   bands (ev):

   -77.8838 -49.2384 -49.1339 -49.0607 -23.8589 -23.7983 -21.3077 -20.2441
   -13.6635 -12.3689 -12.1089 -11.2789 -10.5368 -10.2900  -9.9714  -9.0462
    -8.8779  -8.3918  -8.2620  -7.6509  -6.2749

     occupation numbers 
     1.0000   1.0000   1.0000   1.0000   1.0000   1.0000   1.0000   1.0000
     1.0000   1.0000   1.0000   1.0000   1.0000   1.0000   1.0000   1.0000
     1.0000   1.0000   1.0000   1.0000   1.0000

          k = 0.3636 0.2099 0.0000 ( 14289 PWs)   bands (ev):

   -77.8687 -49.3544 -49.1539 -49.0398 -22.7909 -22.7462 -20.7535 -19.9967
   -14.8241 -14.5702 -12.6150 -11.4100 -11.0222 -10.5088 -10.4767  -9.4834
    -8.8801  -8.6135  -7.8876  -7.7794  -6.5293

     occupation numbers 
     1.0000   1.0000   1.0000   1.0000   1.0000   1.0000   1.0000   1.0000
     1.0000   1.0000   1.0000   1.0000   1.0000   1.0000   1.0000   1.0000
     1.0000   1.0000   1.0000   1.0000   1.0000

          k = 0.3636 0.3149 0.0000 ( 14254 PWs)   bands (ev):

   -77.8638 -49.3774 -49.1751 -49.0330 -22.3351 -22.2978 -20.6038 -19.9508
   -15.2605 -15.0309 -12.4607 -11.6916 -11.2286 -10.9831 -10.9448  -9.7899
    -8.9302  -8.3943  -8.0177  -7.7548  -6.4662

     occupation numbers 
     1.0000   1.0000   1.0000   1.0000   1.0000   1.0000   1.0000   1.0000
     1.0000   1.0000   1.0000   1.0000   1.0000   1.0000   1.0000   1.0000
     1.0000   1.0000   1.0000   1.0000   1.0000

          k = 0.3636 0.4199 0.0000 ( 14219 PWs)   bands (ev):

   -77.8593 -49.3735 -49.2201 -49.0267 -21.8739 -21.8420 -20.4909 -19.9121
   -15.3070 -15.0782 -12.6764 -12.4966 -11.8464 -11.2948 -11.1274  -9.9429
    -9.1284  -8.7480  -8.1726  -7.6499  -6.2757

     occupation numbers 
     1.0000   1.0000   1.0000   1.0000   1.0000   1.0000   1.0000   1.0000
     1.0000   1.0000   1.0000   1.0000   1.0000   1.0000   1.0000   1.0000
     1.0000   1.0000   1.0000   1.0000   1.0000

          k = 0.3636 0.5249 0.0000 ( 14224 PWs)   bands (ev):

   -77.8566 -49.3450 -49.2732 -49.0230 -21.5830 -21.5492 -20.4340 -19.8831
   -14.9364 -14.6767 -13.7262 -13.6259 -11.5948 -11.3454 -10.9757  -9.9964
    -9.6894  -9.2052  -8.1171  -7.5294  -6.0765

     occupation numbers 
     1.0000   1.0000   1.0000   1.0000   1.0000   1.0000   1.0000   1.0000
     1.0000   1.0000   1.0000   1.0000   1.0000   1.0000   1.0000   1.0000
     1.0000   1.0000   1.0000   1.0000   1.0000

          k = 0.3636 0.6298 0.0000 ( 14224 PWs)   bands (ev):

   -77.8566 -49.3450 -49.2732 -49.0230 -21.5829 -21.5493 -20.4340 -19.8830
   -14.9365 -14.6766 -13.7261 -13.6260 -11.5949 -11.3455 -10.9758  -9.9963
    -9.6893  -9.2054  -8.1172  -7.5294  -6.0764

     occupation numbers 
     1.0000   1.0000   1.0000   1.0000   1.0000   1.0000   1.0000   1.0000
     1.0000   1.0000   1.0000   1.0000   1.0000   1.0000   1.0000   1.0000
     1.0000   1.0000   1.0000   1.0000   1.0000

          k = 0.3636 0.7348 0.0000 ( 14219 PWs)   bands (ev):

   -77.8593 -49.3735 -49.2201 -49.0267 -21.8738 -21.8421 -20.4910 -19.9120
   -15.3070 -15.0782 -12.6764 -12.4966 -11.8465 -11.2948 -11.1275  -9.9427
    -9.1285  -8.7481  -8.1728  -7.6498  -6.2755

     occupation numbers 
     1.0000   1.0000   1.0000   1.0000   1.0000   1.0000   1.0000   1.0000
     1.0000   1.0000   1.0000   1.0000   1.0000   1.0000   1.0000   1.0000
     1.0000   1.0000   1.0000   1.0000   1.0000

          k = 0.3636-0.3149 0.0000 ( 14254 PWs)   bands (ev):

   -77.8638 -49.3774 -49.1751 -49.0330 -22.3350 -22.2979 -20.6039 -19.9507
   -15.2606 -15.0308 -12.4609 -11.6916 -11.2286 -10.9833 -10.9445  -9.7899
    -8.9306  -8.3945  -8.0179  -7.7547  -6.4658

     occupation numbers 
     1.0000   1.0000   1.0000   1.0000   1.0000   1.0000   1.0000   1.0000
     1.0000   1.0000   1.0000   1.0000   1.0000   1.0000   1.0000   1.0000
     1.0000   1.0000   1.0000   1.0000   1.0000

          k = 0.3636-0.2099 0.0000 ( 14289 PWs)   bands (ev):

   -77.8687 -49.3544 -49.1539 -49.0398 -22.7908 -22.7463 -20.7536 -19.9966
   -14.8241 -14.5702 -12.6152 -11.4099 -11.0221 -10.5086 -10.4769  -9.4835
    -8.8806  -8.6136  -7.8875  -7.7794  -6.5289

     occupation numbers 
     1.0000   1.0000   1.0000   1.0000   1.0000   1.0000   1.0000   1.0000
     1.0000   1.0000   1.0000   1.0000   1.0000   1.0000   1.0000   1.0000
     1.0000   1.0000   1.0000   1.0000   1.0000

          k = 0.3636-0.1050 0.0000 ( 14286 PWs)   bands (ev):

   -77.8725 -49.3175 -49.1573 -49.0450 -23.1097 -23.0600 -20.8833 -20.0382
   -14.2048 -13.8570 -12.6306 -11.2959 -11.0097 -10.7832 -10.5128  -9.5382
    -8.7866  -8.4637  -8.1094  -7.8341  -6.5147

     occupation numbers 
     1.0000   1.0000   1.0000   1.0000   1.0000   1.0000   1.0000   1.0000
     1.0000   1.0000   1.0000   1.0000   1.0000   1.0000   1.0000   1.0000
     1.0000   1.0000   1.0000   1.0000   1.0000

          k = 0.3636 0.0000 0.0000 ( 14279 PWs)   bands (ev):

   -77.8739 -49.2967 -49.1657 -49.0469 -23.2229 -23.1714 -20.9343 -20.0552
   -13.8807 -13.3915 -12.5107 -11.4668 -11.3245 -10.9990 -10.3769  -9.6604
    -8.8023  -8.4163  -8.0986  -7.8664  -6.5091

     occupation numbers 
     1.0000   1.0000   1.0000   1.0000   1.0000   1.0000   1.0000   1.0000
     1.0000   1.0000   1.0000   1.0000   1.0000   1.0000   1.0000   1.0000
     1.0000   1.0000   1.0000   1.0000   1.0000

          k = 0.3636 0.1050 0.0000 ( 14286 PWs)   bands (ev):

   -77.8725 -49.3175 -49.1573 -49.0450 -23.1098 -23.0600 -20.8832 -20.0383
   -14.2047 -13.8571 -12.6305 -11.2961 -11.0096 -10.7834 -10.5127  -9.5379
    -8.7865  -8.4634  -8.1095  -7.8343  -6.5149

     occupation numbers 
     1.0000   1.0000   1.0000   1.0000   1.0000   1.0000   1.0000   1.0000
     1.0000   1.0000   1.0000   1.0000   1.0000   1.0000   1.0000   1.0000
     1.0000   1.0000   1.0000   1.0000   1.0000

          k = 0.4545 0.2624 0.0000 ( 14233 PWs)   bands (ev):

   -77.8622 -49.4013 -49.1647 -49.0308 -22.1223 -22.0894 -20.5889 -19.9857
   -15.6944 -15.4701 -12.4409 -11.7994 -11.1880 -10.6994 -10.6609  -9.6617
    -9.0619  -8.3434  -7.8996  -7.5404  -6.4862

     occupation numbers 
     1.0000   1.0000   1.0000   1.0000   1.0000   1.0000   1.0000   1.0000
     1.0000   1.0000   1.0000   1.0000   1.0000   1.0000   1.0000   1.0000
     1.0000   1.0000   1.0000   1.0000   1.0000

          k = 0.4545 0.3674 0.0000 ( 14208 PWs)   bands (ev):

   -77.8606 -49.3996 -49.1818 -49.0285 -21.9472 -21.9161 -20.5525 -19.9748
   -15.7107 -15.4866 -12.3478 -11.9008 -11.3129 -11.1734 -11.0323  -9.7563
    -9.1231  -8.2491  -7.9734  -7.7165  -6.3884

     occupation numbers 
     1.0000   1.0000   1.0000   1.0000   1.0000   1.0000   1.0000   1.0000
     1.0000   1.0000   1.0000   1.0000   1.0000   1.0000   1.0000   1.0000
     1.0000   1.0000   1.0000   1.0000   1.0000

          k = 0.4545 0.4724 0.0000 ( 14219 PWs)   bands (ev):

   -77.8593 -49.3735 -49.2201 -49.0267 -21.8739 -21.8420 -20.4909 -19.9120
   -15.3070 -15.0782 -12.6764 -12.4966 -11.8463 -11.2949 -11.1276  -9.9425
    -9.1286  -8.7481  -8.1726  -7.6499  -6.2756

     occupation numbers 
     1.0000   1.0000   1.0000   1.0000   1.0000   1.0000   1.0000   1.0000
     1.0000   1.0000   1.0000   1.0000   1.0000   1.0000   1.0000   1.0000
     1.0000   1.0000   1.0000   1.0000   1.0000

          k = 0.4545 0.5774 0.0000 ( 14202 PWs)   bands (ev):

   -77.8588 -49.3511 -49.2472 -49.0261 -21.8620 -21.8295 -20.4591 -19.8748
   -14.9048 -14.6482 -13.2774 -13.1408 -11.9126 -11.1667 -10.8783 -10.1189
    -9.4286  -8.8795  -8.1925  -7.6297  -6.2332

     occupation numbers 
     1.0000   1.0000   1.0000   1.0000   1.0000   1.0000   1.0000   1.0000
     1.0000   1.0000   1.0000   1.0000   1.0000   1.0000   1.0000   1.0000
     1.0000   1.0000   1.0000   1.0000   1.0000

          k = 0.4545 0.6823 0.0000 ( 14219 PWs)   bands (ev):

   -77.8593 -49.3735 -49.2201 -49.0267 -21.8738 -21.8421 -20.4910 -19.9120
   -15.3070 -15.0782 -12.6764 -12.4966 -11.8466 -11.2948 -11.1275  -9.9427
    -9.1285  -8.7481  -8.1728  -7.6498  -6.2755

     occupation numbers 
     1.0000   1.0000   1.0000   1.0000   1.0000   1.0000   1.0000   1.0000
     1.0000   1.0000   1.0000   1.0000   1.0000   1.0000   1.0000   1.0000
     1.0000   1.0000   1.0000   1.0000   1.0000

          k = 0.4545 0.7873 0.0000 ( 14208 PWs)   bands (ev):

   -77.8606 -49.3996 -49.1818 -49.0285 -21.9471 -21.9161 -20.5526 -19.9747
   -15.7108 -15.4865 -12.3481 -11.9007 -11.3127 -11.1739 -11.0319  -9.7563
    -9.1233  -8.2492  -7.9735  -7.7164  -6.3882

     occupation numbers 
     1.0000   1.0000   1.0000   1.0000   1.0000   1.0000   1.0000   1.0000
     1.0000   1.0000   1.0000   1.0000   1.0000   1.0000   1.0000   1.0000
     1.0000   1.0000   1.0000   1.0000   1.0000

          k = 0.4545-0.2624 0.0000 ( 14233 PWs)   bands (ev):

   -77.8622 -49.4013 -49.1647 -49.0308 -22.1222 -22.0895 -20.5890 -19.9856
   -15.6944 -15.4700 -12.4412 -11.7994 -11.1878 -10.6992 -10.6611  -9.6617
    -9.0623  -8.3435  -7.8996  -7.5406  -6.4858

     occupation numbers 
     1.0000   1.0000   1.0000   1.0000   1.0000   1.0000   1.0000   1.0000
     1.0000   1.0000   1.0000   1.0000   1.0000   1.0000   1.0000   1.0000
     1.0000   1.0000   1.0000   1.0000   1.0000

          k = 0.4545-0.1575 0.0000 ( 14254 PWs)   bands (ev):

   -77.8638 -49.3774 -49.1751 -49.0330 -22.3350 -22.2979 -20.6039 -19.9507
   -15.2606 -15.0308 -12.4609 -11.6916 -11.2286 -10.9833 -10.9445  -9.7899
    -8.9306  -8.3945  -8.0179  -7.7547  -6.4658

     occupation numbers 
     1.0000   1.0000   1.0000   1.0000   1.0000   1.0000   1.0000   1.0000
     1.0000   1.0000   1.0000   1.0000   1.0000   1.0000   1.0000   1.0000
     1.0000   1.0000   1.0000   1.0000   1.0000

          k = 0.4545-0.0525 0.0000 ( 14239 PWs)   bands (ev):

   -77.8647 -49.3458 -49.1990 -49.0343 -22.4742 -22.4338 -20.6145 -19.9207
   -14.6669 -14.3995 -12.4549 -12.1583 -11.9900 -10.9648 -10.7812 -10.1229
    -8.7417  -8.6190  -8.2165  -7.8197  -6.4656

     occupation numbers 
     1.0000   1.0000   1.0000   1.0000   1.0000   1.0000   1.0000   1.0000
     1.0000   1.0000   1.0000   1.0000   1.0000   1.0000   1.0000   1.0000
     1.0000   1.0000   1.0000   1.0000   1.0000

          k = 0.4545 0.0525 0.0000 ( 14239 PWs)   bands (ev):

   -77.8647 -49.3458 -49.1990 -49.0343 -22.4742 -22.4338 -20.6144 -19.9207
   -14.6669 -14.3995 -12.4548 -12.1584 -11.9899 -10.9649 -10.7812 -10.1226
    -8.7418  -8.6190  -8.2164  -7.8197  -6.4657

     occupation numbers 
     1.0000   1.0000   1.0000   1.0000   1.0000   1.0000   1.0000   1.0000
     1.0000   1.0000   1.0000   1.0000   1.0000   1.0000   1.0000   1.0000
     1.0000   1.0000   1.0000   1.0000   1.0000

          k = 0.4545 0.1575 0.0000 ( 14254 PWs)   bands (ev):

   -77.8638 -49.3774 -49.1751 -49.0330 -22.3351 -22.2978 -20.6038 -19.9508
   -15.2605 -15.0309 -12.4607 -11.6916 -11.2286 -10.9833 -10.9447  -9.7895
    -8.9305  -8.3944  -8.0179  -7.7548  -6.4660

     occupation numbers 
     1.0000   1.0000   1.0000   1.0000   1.0000   1.0000   1.0000   1.0000
     1.0000   1.0000   1.0000   1.0000   1.0000   1.0000   1.0000   1.0000
     1.0000   1.0000   1.0000   1.0000   1.0000

          k =-0.4545-0.2624 0.0000 ( 14233 PWs)   bands (ev):

   -77.8622 -49.4013 -49.1647 -49.0308 -22.1223 -22.0894 -20.5889 -19.9857
   -15.6944 -15.4701 -12.4409 -11.7994 -11.1880 -10.6994 -10.6609  -9.6617
    -9.0619  -8.3434  -7.8996  -7.5404  -6.4862

     occupation numbers 
     1.0000   1.0000   1.0000   1.0000   1.0000   1.0000   1.0000   1.0000
     1.0000   1.0000   1.0000   1.0000   1.0000   1.0000   1.0000   1.0000
     1.0000   1.0000   1.0000   1.0000   1.0000

          k =-0.4545-0.1575 0.0000 ( 14254 PWs)   bands (ev):

   -77.8638 -49.3774 -49.1751 -49.0330 -22.3351 -22.2978 -20.6038 -19.9508
   -15.2605 -15.0309 -12.4607 -11.6916 -11.2286 -10.9833 -10.9447  -9.7895
    -8.9305  -8.3944  -8.0179  -7.7548  -6.4660

     occupation numbers 
     1.0000   1.0000   1.0000   1.0000   1.0000   1.0000   1.0000   1.0000
     1.0000   1.0000   1.0000   1.0000   1.0000   1.0000   1.0000   1.0000
     1.0000   1.0000   1.0000   1.0000   1.0000

          k =-0.4545-0.0525 0.0000 ( 14239 PWs)   bands (ev):

   -77.8647 -49.3458 -49.1990 -49.0343 -22.4742 -22.4338 -20.6144 -19.9207
   -14.6669 -14.3995 -12.4548 -12.1584 -11.9899 -10.9649 -10.7812 -10.1226
    -8.7418  -8.6190  -8.2164  -7.8197  -6.4657

     occupation numbers 
     1.0000   1.0000   1.0000   1.0000   1.0000   1.0000   1.0000   1.0000
     1.0000   1.0000   1.0000   1.0000   1.0000   1.0000   1.0000   1.0000
     1.0000   1.0000   1.0000   1.0000   1.0000

          k =-0.4545 0.0525 0.0000 ( 14239 PWs)   bands (ev):

   -77.8647 -49.3458 -49.1990 -49.0343 -22.4742 -22.4338 -20.6145 -19.9207
   -14.6669 -14.3995 -12.4549 -12.1583 -11.9900 -10.9648 -10.7812 -10.1229
    -8.7417  -8.6190  -8.2165  -7.8197  -6.4656

     occupation numbers 
     1.0000   1.0000   1.0000   1.0000   1.0000   1.0000   1.0000   1.0000
     1.0000   1.0000   1.0000   1.0000   1.0000   1.0000   1.0000   1.0000
     1.0000   1.0000   1.0000   1.0000   1.0000

          k =-0.4545 0.1575 0.0000 ( 14254 PWs)   bands (ev):

   -77.8638 -49.3774 -49.1751 -49.0330 -22.3350 -22.2979 -20.6039 -19.9507
   -15.2606 -15.0308 -12.4609 -11.6916 -11.2286 -10.9833 -10.9445  -9.7899
    -8.9306  -8.3945  -8.0179  -7.7547  -6.4658

     occupation numbers 
     1.0000   1.0000   1.0000   1.0000   1.0000   1.0000   1.0000   1.0000
     1.0000   1.0000   1.0000   1.0000   1.0000   1.0000   1.0000   1.0000
     1.0000   1.0000   1.0000   1.0000   1.0000

          k =-0.4545 0.2624 0.0000 ( 14233 PWs)   bands (ev):

   -77.8622 -49.4013 -49.1647 -49.0308 -22.1222 -22.0895 -20.5890 -19.9856
   -15.6944 -15.4700 -12.4412 -11.7994 -11.1878 -10.6992 -10.6611  -9.6617
    -9.0623  -8.3435  -7.8996  -7.5406  -6.4858

     occupation numbers 
     1.0000   1.0000   1.0000   1.0000   1.0000   1.0000   1.0000   1.0000
     1.0000   1.0000   1.0000   1.0000   1.0000   1.0000   1.0000   1.0000
     1.0000   1.0000   1.0000   1.0000   1.0000

          k =-0.4545-0.7873 0.0000 ( 14208 PWs)   bands (ev):

   -77.8606 -49.3996 -49.1818 -49.0285 -21.9471 -21.9161 -20.5526 -19.9747
   -15.7108 -15.4865 -12.3481 -11.9007 -11.3127 -11.1739 -11.0319  -9.7563
    -9.1233  -8.2492  -7.9735  -7.7164  -6.3882

     occupation numbers 
     1.0000   1.0000   1.0000   1.0000   1.0000   1.0000   1.0000   1.0000
     1.0000   1.0000   1.0000   1.0000   1.0000   1.0000   1.0000   1.0000
     1.0000   1.0000   1.0000   1.0000   1.0000

          k =-0.4545-0.6823 0.0000 ( 14219 PWs)   bands (ev):

   -77.8593 -49.3735 -49.2201 -49.0267 -21.8738 -21.8421 -20.4910 -19.9120
   -15.3070 -15.0782 -12.6764 -12.4966 -11.8466 -11.2948 -11.1275  -9.9427
    -9.1285  -8.7481  -8.1728  -7.6498  -6.2755

     occupation numbers 
     1.0000   1.0000   1.0000   1.0000   1.0000   1.0000   1.0000   1.0000
     1.0000   1.0000   1.0000   1.0000   1.0000   1.0000   1.0000   1.0000
     1.0000   1.0000   1.0000   1.0000   1.0000

          k =-0.4545-0.5774 0.0000 ( 14202 PWs)   bands (ev):

   -77.8588 -49.3511 -49.2472 -49.0261 -21.8620 -21.8295 -20.4591 -19.8748
   -14.9048 -14.6482 -13.2774 -13.1408 -11.9126 -11.1667 -10.8783 -10.1189
    -9.4286  -8.8795  -8.1925  -7.6297  -6.2332

     occupation numbers 
     1.0000   1.0000   1.0000   1.0000   1.0000   1.0000   1.0000   1.0000
     1.0000   1.0000   1.0000   1.0000   1.0000   1.0000   1.0000   1.0000
     1.0000   1.0000   1.0000   1.0000   1.0000

          k =-0.4545-0.4724 0.0000 ( 14219 PWs)   bands (ev):

   -77.8593 -49.3735 -49.2201 -49.0267 -21.8739 -21.8420 -20.4909 -19.9120
   -15.3070 -15.0782 -12.6764 -12.4966 -11.8463 -11.2949 -11.1276  -9.9425
    -9.1286  -8.7481  -8.1726  -7.6499  -6.2756

     occupation numbers 
     1.0000   1.0000   1.0000   1.0000   1.0000   1.0000   1.0000   1.0000
     1.0000   1.0000   1.0000   1.0000   1.0000   1.0000   1.0000   1.0000
     1.0000   1.0000   1.0000   1.0000   1.0000

          k =-0.4545-0.3674 0.0000 ( 14208 PWs)   bands (ev):

   -77.8606 -49.3996 -49.1818 -49.0285 -21.9472 -21.9161 -20.5525 -19.9748
   -15.7107 -15.4866 -12.3478 -11.9008 -11.3129 -11.1734 -11.0323  -9.7563
    -9.1231  -8.2491  -7.9734  -7.7165  -6.3884

     occupation numbers 
     1.0000   1.0000   1.0000   1.0000   1.0000   1.0000   1.0000   1.0000
     1.0000   1.0000   1.0000   1.0000   1.0000   1.0000   1.0000   1.0000
     1.0000   1.0000   1.0000   1.0000   1.0000

          k =-0.3636-0.2099 0.0000 ( 14289 PWs)   bands (ev):

   -77.8687 -49.3544 -49.1539 -49.0398 -22.7909 -22.7462 -20.7535 -19.9967
   -14.8241 -14.5702 -12.6150 -11.4100 -11.0222 -10.5088 -10.4767  -9.4834
    -8.8801  -8.6135  -7.8876  -7.7794  -6.5293

     occupation numbers 
     1.0000   1.0000   1.0000   1.0000   1.0000   1.0000   1.0000   1.0000
     1.0000   1.0000   1.0000   1.0000   1.0000   1.0000   1.0000   1.0000
     1.0000   1.0000   1.0000   1.0000   1.0000

          k =-0.3636-0.1050 0.0000 ( 14286 PWs)   bands (ev):

   -77.8725 -49.3175 -49.1573 -49.0450 -23.1098 -23.0600 -20.8832 -20.0383
   -14.2047 -13.8571 -12.6305 -11.2961 -11.0096 -10.7834 -10.5127  -9.5379
    -8.7865  -8.4634  -8.1095  -7.8343  -6.5149

     occupation numbers 
     1.0000   1.0000   1.0000   1.0000   1.0000   1.0000   1.0000   1.0000
     1.0000   1.0000   1.0000   1.0000   1.0000   1.0000   1.0000   1.0000
     1.0000   1.0000   1.0000   1.0000   1.0000

          k =-0.3636 0.0000 0.0000 ( 14279 PWs)   bands (ev):

   -77.8739 -49.2967 -49.1657 -49.0469 -23.2229 -23.1714 -20.9343 -20.0552
   -13.8807 -13.3915 -12.5107 -11.4668 -11.3245 -10.9990 -10.3769  -9.6604
    -8.8023  -8.4163  -8.0986  -7.8664  -6.5091

     occupation numbers 
     1.0000   1.0000   1.0000   1.0000   1.0000   1.0000   1.0000   1.0000
     1.0000   1.0000   1.0000   1.0000   1.0000   1.0000   1.0000   1.0000
     1.0000   1.0000   1.0000   1.0000   1.0000

          k =-0.3636 0.1050 0.0000 ( 14286 PWs)   bands (ev):

   -77.8725 -49.3175 -49.1573 -49.0450 -23.1097 -23.0600 -20.8833 -20.0382
   -14.2048 -13.8570 -12.6306 -11.2959 -11.0097 -10.7832 -10.5128  -9.5382
    -8.7866  -8.4637  -8.1094  -7.8341  -6.5147

     occupation numbers 
     1.0000   1.0000   1.0000   1.0000   1.0000   1.0000   1.0000   1.0000
     1.0000   1.0000   1.0000   1.0000   1.0000   1.0000   1.0000   1.0000
     1.0000   1.0000   1.0000   1.0000   1.0000

          k =-0.3636 0.2099 0.0000 ( 14289 PWs)   bands (ev):

   -77.8687 -49.3544 -49.1539 -49.0398 -22.7908 -22.7463 -20.7536 -19.9966
   -14.8241 -14.5702 -12.6152 -11.4099 -11.0221 -10.5086 -10.4769  -9.4835
    -8.8806  -8.6136  -7.8875  -7.7794  -6.5289

     occupation numbers 
     1.0000   1.0000   1.0000   1.0000   1.0000   1.0000   1.0000   1.0000
     1.0000   1.0000   1.0000   1.0000   1.0000   1.0000   1.0000   1.0000
     1.0000   1.0000   1.0000   1.0000   1.0000

          k =-0.3636 0.3149 0.0000 ( 14254 PWs)   bands (ev):

   -77.8638 -49.3774 -49.1751 -49.0330 -22.3350 -22.2979 -20.6039 -19.9507
   -15.2606 -15.0308 -12.4609 -11.6916 -11.2286 -10.9833 -10.9445  -9.7899
    -8.9306  -8.3945  -8.0179  -7.7547  -6.4658

     occupation numbers 
     1.0000   1.0000   1.0000   1.0000   1.0000   1.0000   1.0000   1.0000
     1.0000   1.0000   1.0000   1.0000   1.0000   1.0000   1.0000   1.0000
     1.0000   1.0000   1.0000   1.0000   1.0000

          k =-0.3636-0.7348 0.0000 ( 14219 PWs)   bands (ev):

   -77.8593 -49.3735 -49.2201 -49.0267 -21.8738 -21.8421 -20.4910 -19.9120
   -15.3070 -15.0782 -12.6764 -12.4966 -11.8465 -11.2948 -11.1275  -9.9427
    -9.1285  -8.7481  -8.1728  -7.6498  -6.2755

     occupation numbers 
     1.0000   1.0000   1.0000   1.0000   1.0000   1.0000   1.0000   1.0000
     1.0000   1.0000   1.0000   1.0000   1.0000   1.0000   1.0000   1.0000
     1.0000   1.0000   1.0000   1.0000   1.0000

          k =-0.3636-0.6298 0.0000 ( 14224 PWs)   bands (ev):

   -77.8566 -49.3450 -49.2732 -49.0230 -21.5829 -21.5493 -20.4340 -19.8830
   -14.9365 -14.6766 -13.7261 -13.6260 -11.5949 -11.3455 -10.9758  -9.9963
    -9.6893  -9.2054  -8.1172  -7.5294  -6.0764

     occupation numbers 
     1.0000   1.0000   1.0000   1.0000   1.0000   1.0000   1.0000   1.0000
     1.0000   1.0000   1.0000   1.0000   1.0000   1.0000   1.0000   1.0000
     1.0000   1.0000   1.0000   1.0000   1.0000

          k =-0.3636-0.5249 0.0000 ( 14224 PWs)   bands (ev):

   -77.8566 -49.3450 -49.2732 -49.0230 -21.5830 -21.5492 -20.4340 -19.8831
   -14.9364 -14.6767 -13.7262 -13.6259 -11.5948 -11.3454 -10.9757  -9.9964
    -9.6894  -9.2052  -8.1171  -7.5294  -6.0765

     occupation numbers 
     1.0000   1.0000   1.0000   1.0000   1.0000   1.0000   1.0000   1.0000
     1.0000   1.0000   1.0000   1.0000   1.0000   1.0000   1.0000   1.0000
     1.0000   1.0000   1.0000   1.0000   1.0000

          k =-0.3636-0.4199 0.0000 ( 14219 PWs)   bands (ev):

   -77.8593 -49.3735 -49.2201 -49.0267 -21.8739 -21.8420 -20.4909 -19.9121
   -15.3070 -15.0782 -12.6764 -12.4966 -11.8464 -11.2948 -11.1274  -9.9429
    -9.1284  -8.7480  -8.1726  -7.6499  -6.2757

     occupation numbers 
     1.0000   1.0000   1.0000   1.0000   1.0000   1.0000   1.0000   1.0000
     1.0000   1.0000   1.0000   1.0000   1.0000   1.0000   1.0000   1.0000
     1.0000   1.0000   1.0000   1.0000   1.0000

          k =-0.3636-0.3149 0.0000 ( 14254 PWs)   bands (ev):

   -77.8638 -49.3774 -49.1751 -49.0330 -22.3351 -22.2978 -20.6038 -19.9508
   -15.2605 -15.0309 -12.4607 -11.6916 -11.2286 -10.9831 -10.9448  -9.7899
    -8.9302  -8.3943  -8.0177  -7.7548  -6.4662

     occupation numbers 
     1.0000   1.0000   1.0000   1.0000   1.0000   1.0000   1.0000   1.0000
     1.0000   1.0000   1.0000   1.0000   1.0000   1.0000   1.0000   1.0000
     1.0000   1.0000   1.0000   1.0000   1.0000

          k =-0.2727-0.1575 0.0000 ( 14345 PWs)   bands (ev):

   -77.8796 -49.2749 -49.1357 -49.0548 -23.5983 -23.5415 -21.1484 -20.1654
   -13.7699 -13.0974 -12.5791 -11.2641 -10.5357 -10.1630 -10.1435  -9.0415
    -8.8544  -8.5500  -8.1573  -7.8018  -6.3973

     occupation numbers 
     1.0000   1.0000   1.0000   1.0000   1.0000   1.0000   1.0000   1.0000
     1.0000   1.0000   1.0000   1.0000   1.0000   1.0000   1.0000   1.0000
     1.0000   1.0000   1.0000   1.0000   1.0000

          k =-0.2727-0.0525 0.0000 ( 14358 PWs)   bands (ev):

   -77.8838 -49.2384 -49.1339 -49.0607 -23.8589 -23.7983 -21.3077 -20.2441
   -13.6635 -12.3689 -12.1089 -11.2789 -10.5368 -10.2900  -9.9714  -9.0462
    -8.8779  -8.3918  -8.2620  -7.6509  -6.2749

     occupation numbers 
     1.0000   1.0000   1.0000   1.0000   1.0000   1.0000   1.0000   1.0000
     1.0000   1.0000   1.0000   1.0000   1.0000   1.0000   1.0000   1.0000
     1.0000   1.0000   1.0000   1.0000   1.0000

          k =-0.2727 0.0525 0.0000 ( 14358 PWs)   bands (ev):

   -77.8838 -49.2385 -49.1339 -49.0607 -23.8589 -23.7983 -21.3077 -20.2440
   -13.6635 -12.3689 -12.1089 -11.2788 -10.5368 -10.2900  -9.9714  -9.0462
    -8.8779  -8.3917  -8.2622  -7.6508  -6.2748

     occupation numbers 
     1.0000   1.0000   1.0000   1.0000   1.0000   1.0000   1.0000   1.0000
     1.0000   1.0000   1.0000   1.0000   1.0000   1.0000   1.0000   1.0000
     1.0000   1.0000   1.0000   1.0000   1.0000

          k =-0.2727 0.1575 0.0000 ( 14345 PWs)   bands (ev):

   -77.8796 -49.2749 -49.1356 -49.0548 -23.5983 -23.5415 -21.1485 -20.1654
   -13.7700 -13.0974 -12.5792 -11.2639 -10.5359 -10.1626 -10.1439  -9.0414
    -8.8545  -8.5505  -8.1573  -7.8017  -6.3969

     occupation numbers 
     1.0000   1.0000   1.0000   1.0000   1.0000   1.0000   1.0000   1.0000
     1.0000   1.0000   1.0000   1.0000   1.0000   1.0000   1.0000   1.0000
     1.0000   1.0000   1.0000   1.0000   1.0000

          k =-0.2727 0.2624 0.0000 ( 14286 PWs)   bands (ev):

   -77.8725 -49.3175 -49.1573 -49.0450 -23.1097 -23.0600 -20.8833 -20.0382
   -14.2048 -13.8570 -12.6306 -11.2959 -11.0097 -10.7832 -10.5128  -9.5382
    -8.7866  -8.4637  -8.1094  -7.8342  -6.5147

     occupation numbers 
     1.0000   1.0000   1.0000   1.0000   1.0000   1.0000   1.0000   1.0000
     1.0000   1.0000   1.0000   1.0000   1.0000   1.0000   1.0000   1.0000
     1.0000   1.0000   1.0000   1.0000   1.0000

          k =-0.2727 0.3674 0.0000 ( 14239 PWs)   bands (ev):

   -77.8647 -49.3458 -49.1990 -49.0343 -22.4742 -22.4338 -20.6145 -19.9207
   -14.6669 -14.3995 -12.4549 -12.1583 -11.9900 -10.9648 -10.7812 -10.1229
    -8.7417  -8.6190  -8.2165  -7.8197  -6.4656

     occupation numbers 
     1.0000   1.0000   1.0000   1.0000   1.0000   1.0000   1.0000   1.0000
     1.0000   1.0000   1.0000   1.0000   1.0000   1.0000   1.0000   1.0000
     1.0000   1.0000   1.0000   1.0000   1.0000

          k =-0.2727-0.6823 0.0000 ( 14202 PWs)   bands (ev):

   -77.8588 -49.3511 -49.2472 -49.0261 -21.8620 -21.8295 -20.4591 -19.8748
   -14.9048 -14.6482 -13.2774 -13.1408 -11.9126 -11.1667 -10.8783 -10.1188
    -9.4286  -8.8795  -8.1925  -7.6297  -6.2332

     occupation numbers 
     1.0000   1.0000   1.0000   1.0000   1.0000   1.0000   1.0000   1.0000
     1.0000   1.0000   1.0000   1.0000   1.0000   1.0000   1.0000   1.0000
     1.0000   1.0000   1.0000   1.0000   1.0000

          k =-0.2727-0.5774 0.0000 ( 14224 PWs)   bands (ev):

   -77.8566 -49.3450 -49.2732 -49.0230 -21.5830 -21.5492 -20.4340 -19.8831
   -14.9364 -14.6767 -13.7262 -13.6259 -11.5948 -11.3454 -10.9757  -9.9964
    -9.6894  -9.2052  -8.1171  -7.5294  -6.0765

     occupation numbers 
     1.0000   1.0000   1.0000   1.0000   1.0000   1.0000   1.0000   1.0000
     1.0000   1.0000   1.0000   1.0000   1.0000   1.0000   1.0000   1.0000
     1.0000   1.0000   1.0000   1.0000   1.0000

          k =-0.2727-0.4724 0.0000 ( 14202 PWs)   bands (ev):

   -77.8588 -49.3511 -49.2472 -49.0261 -21.8620 -21.8295 -20.4590 -19.8749
   -14.9047 -14.6482 -13.2775 -13.1406 -11.9126 -11.1665 -10.8781 -10.1193
    -9.4286  -8.8793  -8.1923  -7.6297  -6.2334

     occupation numbers 
     1.0000   1.0000   1.0000   1.0000   1.0000   1.0000   1.0000   1.0000
     1.0000   1.0000   1.0000   1.0000   1.0000   1.0000   1.0000   1.0000
     1.0000   1.0000   1.0000   1.0000   1.0000

          k =-0.2727-0.3674 0.0000 ( 14239 PWs)   bands (ev):

   -77.8647 -49.3458 -49.1991 -49.0343 -22.4743 -22.4338 -20.6144 -19.9208
   -14.6668 -14.3995 -12.4548 -12.1585 -11.9898 -10.9648 -10.7811 -10.1230
    -8.7418  -8.6188  -8.2160  -7.8198  -6.4660

     occupation numbers 
     1.0000   1.0000   1.0000   1.0000   1.0000   1.0000   1.0000   1.0000
     1.0000   1.0000   1.0000   1.0000   1.0000   1.0000   1.0000   1.0000
     1.0000   1.0000   1.0000   1.0000   1.0000

          k =-0.2727-0.2624 0.0000 ( 14286 PWs)   bands (ev):

   -77.8725 -49.3175 -49.1573 -49.0450 -23.1098 -23.0600 -20.8832 -20.0383
   -14.2047 -13.8571 -12.6305 -11.2961 -11.0096 -10.7834 -10.5126  -9.5380
    -8.7865  -8.4635  -8.1092  -7.8342  -6.5152

     occupation numbers 
     1.0000   1.0000   1.0000   1.0000   1.0000   1.0000   1.0000   1.0000
     1.0000   1.0000   1.0000   1.0000   1.0000   1.0000   1.0000   1.0000
     1.0000   1.0000   1.0000   1.0000   1.0000

          k =-0.1818-0.1050 0.0000 ( 14373 PWs)   bands (ev):

   -77.8914 -49.1874 -49.1157 -49.0712 -24.2713 -24.2048 -21.5887 -20.3934
   -13.8339 -11.5902 -11.3248 -11.2549  -9.8199  -9.7477  -9.7355  -9.2238
    -8.5517  -8.3758  -8.1301  -7.5947  -5.9961

     occupation numbers 
     1.0000   1.0000   1.0000   1.0000   1.0000   1.0000   1.0000   1.0000
     1.0000   1.0000   1.0000   1.0000   1.0000   1.0000   1.0000   1.0000
     1.0000   1.0000   1.0000   1.0000   1.0000

          k =-0.1818 0.0000 0.0000 ( 14341 PWs)   bands (ev):

   -77.8943 -49.1649 -49.1125 -49.0751 -24.4132 -24.3447 -21.6915 -20.4488
   -13.9224 -11.5282 -10.8758 -10.8525  -9.8759  -9.7276  -9.4656  -9.2841
    -8.6677  -8.1913  -8.1323  -7.4587  -5.8746

     occupation numbers 
     1.0000   1.0000   1.0000   1.0000   1.0000   1.0000   1.0000   1.0000
     1.0000   1.0000   1.0000   1.0000   1.0000   1.0000   1.0000   1.0000
     1.0000   1.0000   1.0000   1.0000   1.0000

          k =-0.1818 0.1050 0.0000 ( 14373 PWs)   bands (ev):

   -77.8914 -49.1875 -49.1157 -49.0712 -24.2713 -24.2048 -21.5887 -20.3933
   -13.8340 -11.5901 -11.3252 -11.2545  -9.8201  -9.7469  -9.7362  -9.2238
    -8.5515  -8.3753  -8.1308  -7.5948  -5.9959

     occupation numbers 
     1.0000   1.0000   1.0000   1.0000   1.0000   1.0000   1.0000   1.0000
     1.0000   1.0000   1.0000   1.0000   1.0000   1.0000   1.0000   1.0000
     1.0000   1.0000   1.0000   1.0000   1.0000

          k =-0.1818 0.2099 0.0000 ( 14358 PWs)   bands (ev):

   -77.8838 -49.2385 -49.1339 -49.0607 -23.8589 -23.7983 -21.3077 -20.2440
   -13.6635 -12.3689 -12.1089 -11.2788 -10.5368 -10.2900  -9.9714  -9.0462
    -8.8779  -8.3917  -8.2622  -7.6508  -6.2748

     occupation numbers 
     1.0000   1.0000   1.0000   1.0000   1.0000   1.0000   1.0000   1.0000
     1.0000   1.0000   1.0000   1.0000   1.0000   1.0000   1.0000   1.0000
     1.0000   1.0000   1.0000   1.0000   1.0000

          k =-0.1818 0.3149 0.0000 ( 14279 PWs)   bands (ev):

   -77.8739 -49.2967 -49.1657 -49.0469 -23.2229 -23.1714 -20.9343 -20.0552
   -13.8807 -13.3915 -12.5107 -11.4668 -11.3245 -10.9990 -10.3769  -9.6604
    -8.8023  -8.4163  -8.0986  -7.8664  -6.5091

     occupation numbers 
     1.0000   1.0000   1.0000   1.0000   1.0000   1.0000   1.0000   1.0000
     1.0000   1.0000   1.0000   1.0000   1.0000   1.0000   1.0000   1.0000
     1.0000   1.0000   1.0000   1.0000   1.0000

          k =-0.1818 0.4199 0.0000 ( 14239 PWs)   bands (ev):

   -77.8647 -49.3458 -49.1990 -49.0343 -22.4742 -22.4338 -20.6144 -19.9207
   -14.6669 -14.3995 -12.4548 -12.1584 -11.9899 -10.9650 -10.7812 -10.1226
    -8.7418  -8.6190  -8.2164  -7.8197  -6.4657

     occupation numbers 
     1.0000   1.0000   1.0000   1.0000   1.0000   1.0000   1.0000   1.0000
     1.0000   1.0000   1.0000   1.0000   1.0000   1.0000   1.0000   1.0000
     1.0000   1.0000   1.0000   1.0000   1.0000

          k =-0.1818-0.6298 0.0000 ( 14219 PWs)   bands (ev):

   -77.8593 -49.3735 -49.2201 -49.0267 -21.8739 -21.8420 -20.4909 -19.9120
   -15.3070 -15.0782 -12.6764 -12.4966 -11.8463 -11.2949 -11.1276  -9.9425
    -9.1286  -8.7481  -8.1727  -7.6499  -6.2756

     occupation numbers 
     1.0000   1.0000   1.0000   1.0000   1.0000   1.0000   1.0000   1.0000
     1.0000   1.0000   1.0000   1.0000   1.0000   1.0000   1.0000   1.0000
     1.0000   1.0000   1.0000   1.0000   1.0000

          k =-0.1818-0.5249 0.0000 ( 14219 PWs)   bands (ev):

   -77.8593 -49.3735 -49.2201 -49.0267 -21.8739 -21.8420 -20.4909 -19.9121
   -15.3069 -15.0782 -12.6764 -12.4966 -11.8464 -11.2948 -11.1274  -9.9429
    -9.1284  -8.7480  -8.1726  -7.6499  -6.2757

     occupation numbers 
     1.0000   1.0000   1.0000   1.0000   1.0000   1.0000   1.0000   1.0000
     1.0000   1.0000   1.0000   1.0000   1.0000   1.0000   1.0000   1.0000
     1.0000   1.0000   1.0000   1.0000   1.0000

          k =-0.1818-0.4199 0.0000 ( 14239 PWs)   bands (ev):

   -77.8647 -49.3458 -49.1991 -49.0343 -22.4742 -22.4338 -20.6144 -19.9208
   -14.6668 -14.3995 -12.4548 -12.1585 -11.9898 -10.9648 -10.7811 -10.1230
    -8.7418  -8.6188  -8.2160  -7.8198  -6.4660

     occupation numbers 
     1.0000   1.0000   1.0000   1.0000   1.0000   1.0000   1.0000   1.0000
     1.0000   1.0000   1.0000   1.0000   1.0000   1.0000   1.0000   1.0000
     1.0000   1.0000   1.0000   1.0000   1.0000

          k =-0.1818-0.3149 0.0000 ( 14279 PWs)   bands (ev):

   -77.8739 -49.2967 -49.1657 -49.0469 -23.2229 -23.1714 -20.9342 -20.0553
   -13.8807 -13.3915 -12.5107 -11.4669 -11.3246 -10.9992 -10.3767  -9.6603
    -8.8023  -8.4163  -8.0987  -7.8660  -6.5094

     occupation numbers 
     1.0000   1.0000   1.0000   1.0000   1.0000   1.0000   1.0000   1.0000
     1.0000   1.0000   1.0000   1.0000   1.0000   1.0000   1.0000   1.0000
     1.0000   1.0000   1.0000   1.0000   1.0000

          k =-0.1818-0.2099 0.0000 ( 14358 PWs)   bands (ev):

   -77.8838 -49.2384 -49.1339 -49.0607 -23.8589 -23.7983 -21.3077 -20.2441
   -13.6634 -12.3689 -12.1089 -11.2790 -10.5368 -10.2900  -9.9712  -9.0462
    -8.8776  -8.3918  -8.2624  -7.6505  -6.2752

     occupation numbers 
     1.0000   1.0000   1.0000   1.0000   1.0000   1.0000   1.0000   1.0000
     1.0000   1.0000   1.0000   1.0000   1.0000   1.0000   1.0000   1.0000
     1.0000   1.0000   1.0000   1.0000   1.0000

          k =-0.0909-0.0525 0.0000 ( 14339 PWs)   bands (ev):

   -77.9005 -49.1201 -49.1005 -49.0837 -24.7035 -24.6307 -21.9117 -20.5695
   -14.1395 -11.6118 -10.0275  -9.9010  -9.4301  -9.4083  -9.3738  -9.1794
    -8.8221  -7.9679  -7.7661  -7.4761  -5.6300

     occupation numbers 
     1.0000   1.0000   1.0000   1.0000   1.0000   1.0000   1.0000   1.0000
     1.0000   1.0000   1.0000   1.0000   1.0000   1.0000   1.0000   1.0000
     1.0000   1.0000   1.0000   1.0000   1.0000

          k =-0.0909 0.0525 0.0000 ( 14339 PWs)   bands (ev):

   -77.9005 -49.1201 -49.1005 -49.0837 -24.7035 -24.6307 -21.9117 -20.5695
   -14.1395 -11.6118 -10.0276  -9.9010  -9.4301  -9.4081  -9.3739  -9.1796
    -8.8219  -7.9673  -7.7669  -7.4759  -5.6299

     occupation numbers 
     1.0000   1.0000   1.0000   1.0000   1.0000   1.0000   1.0000   1.0000
     1.0000   1.0000   1.0000   1.0000   1.0000   1.0000   1.0000   1.0000
     1.0000   1.0000   1.0000   1.0000   1.0000

          k =-0.0909 0.1575 0.0000 ( 14341 PWs)   bands (ev):

   -77.8943 -49.1649 -49.1125 -49.0751 -24.4132 -24.3447 -21.6915 -20.4488
   -13.9224 -11.5282 -10.8758 -10.8525  -9.8759  -9.7276  -9.4656  -9.2841
    -8.6677  -8.1913  -8.1323  -7.4587  -5.8746

     occupation numbers 
     1.0000   1.0000   1.0000   1.0000   1.0000   1.0000   1.0000   1.0000
     1.0000   1.0000   1.0000   1.0000   1.0000   1.0000   1.0000   1.0000
     1.0000   1.0000   1.0000   1.0000   1.0000

          k =-0.0909 0.2624 0.0000 ( 14358 PWs)   bands (ev):

   -77.8838 -49.2384 -49.1339 -49.0607 -23.8589 -23.7983 -21.3077 -20.2441
   -13.6635 -12.3689 -12.1089 -11.2789 -10.5368 -10.2900  -9.9714  -9.0462
    -8.8779  -8.3918  -8.2620  -7.6509  -6.2749

     occupation numbers 
     1.0000   1.0000   1.0000   1.0000   1.0000   1.0000   1.0000   1.0000
     1.0000   1.0000   1.0000   1.0000   1.0000   1.0000   1.0000   1.0000
     1.0000   1.0000   1.0000   1.0000   1.0000

          k =-0.0909 0.3674 0.0000 ( 14286 PWs)   bands (ev):

   -77.8725 -49.3175 -49.1573 -49.0450 -23.1098 -23.0600 -20.8832 -20.0383
   -14.2047 -13.8571 -12.6305 -11.2961 -11.0096 -10.7834 -10.5127  -9.5379
    -8.7865  -8.4635  -8.1095  -7.8343  -6.5149

     occupation numbers 
     1.0000   1.0000   1.0000   1.0000   1.0000   1.0000   1.0000   1.0000
     1.0000   1.0000   1.0000   1.0000   1.0000   1.0000   1.0000   1.0000
     1.0000   1.0000   1.0000   1.0000   1.0000

          k =-0.0909 0.4724 0.0000 ( 14254 PWs)   bands (ev):

   -77.8638 -49.3774 -49.1751 -49.0330 -22.3351 -22.2978 -20.6038 -19.9508
   -15.2605 -15.0309 -12.4607 -11.6916 -11.2286 -10.9833 -10.9447  -9.7895
    -8.9305  -8.3944  -8.0179  -7.7548  -6.4660

     occupation numbers 
     1.0000   1.0000   1.0000   1.0000   1.0000   1.0000   1.0000   1.0000
     1.0000   1.0000   1.0000   1.0000   1.0000   1.0000   1.0000   1.0000
     1.0000   1.0000   1.0000   1.0000   1.0000

          k =-0.0909-0.5774 0.0000 ( 14208 PWs)   bands (ev):

   -77.8606 -49.3996 -49.1818 -49.0285 -21.9472 -21.9161 -20.5525 -19.9748
   -15.7107 -15.4866 -12.3478 -11.9008 -11.3129 -11.1734 -11.0323  -9.7563
    -9.1231  -8.2491  -7.9734  -7.7165  -6.3884

     occupation numbers 
     1.0000   1.0000   1.0000   1.0000   1.0000   1.0000   1.0000   1.0000
     1.0000   1.0000   1.0000   1.0000   1.0000   1.0000   1.0000   1.0000
     1.0000   1.0000   1.0000   1.0000   1.0000

          k =-0.0909-0.4724 0.0000 ( 14254 PWs)   bands (ev):

   -77.8638 -49.3774 -49.1751 -49.0330 -22.3351 -22.2978 -20.6038 -19.9508
   -15.2605 -15.0309 -12.4607 -11.6916 -11.2286 -10.9831 -10.9448  -9.7899
    -8.9302  -8.3944  -8.0177  -7.7548  -6.4662

     occupation numbers 
     1.0000   1.0000   1.0000   1.0000   1.0000   1.0000   1.0000   1.0000
     1.0000   1.0000   1.0000   1.0000   1.0000   1.0000   1.0000   1.0000
     1.0000   1.0000   1.0000   1.0000   1.0000

          k =-0.0909-0.3674 0.0000 ( 14286 PWs)   bands (ev):

   -77.8725 -49.3175 -49.1573 -49.0450 -23.1098 -23.0600 -20.8832 -20.0383
   -14.2047 -13.8571 -12.6305 -11.2961 -11.0096 -10.7834 -10.5126  -9.5380
    -8.7865  -8.4635  -8.1092  -7.8342  -6.5152

     occupation numbers 
     1.0000   1.0000   1.0000   1.0000   1.0000   1.0000   1.0000   1.0000
     1.0000   1.0000   1.0000   1.0000   1.0000   1.0000   1.0000   1.0000
     1.0000   1.0000   1.0000   1.0000   1.0000

          k =-0.0909-0.2624 0.0000 ( 14358 PWs)   bands (ev):

   -77.8838 -49.2384 -49.1339 -49.0607 -23.8589 -23.7983 -21.3077 -20.2441
   -13.6634 -12.3689 -12.1089 -11.2790 -10.5368 -10.2900  -9.9712  -9.0462
    -8.8776  -8.3918  -8.2624  -7.6505  -6.2751

     occupation numbers 
     1.0000   1.0000   1.0000   1.0000   1.0000   1.0000   1.0000   1.0000
     1.0000   1.0000   1.0000   1.0000   1.0000   1.0000   1.0000   1.0000
     1.0000   1.0000   1.0000   1.0000   1.0000

          k =-0.0909-0.1575 0.0000 ( 14341 PWs)   bands (ev):

   -77.8943 -49.1649 -49.1125 -49.0751 -24.4132 -24.3447 -21.6915 -20.4488
   -13.9224 -11.5283 -10.8754 -10.8529  -9.8759  -9.7277  -9.4655  -9.2840
    -8.6679  -8.1908  -8.1328  -7.4585  -5.8748

     occupation numbers 
     1.0000   1.0000   1.0000   1.0000   1.0000   1.0000   1.0000   1.0000
     1.0000   1.0000   1.0000   1.0000   1.0000   1.0000   1.0000   1.0000
     1.0000   1.0000   1.0000   1.0000   1.0000

     highest occupied level (ev):    -5.5262

!    total energy              =    -263.34390382 Ry
     estimated scf accuracy    <          6.8E-11 Ry

     The total energy is the sum of the following terms:
     one-electron contribution =   -6775.15592581 Ry
     hartree contribution      =    3384.01725256 Ry
     xc contribution           =     -44.85450256 Ry
     ewald contribution        =    3172.64927200 Ry

     convergence has been achieved in  32 iterations

     Writing all to output data dir ./tmp/crsi2n4.save/ :
     XML data file, charge density, pseudopotentials, collected wavefunctions
 
     init_run     :      6.88s CPU      7.08s WALL (       1 calls)
     electrons    :    512.15s CPU    512.96s WALL (       1 calls)

     Called by init_run:
     wfcinit      :      5.60s CPU      5.76s WALL (       1 calls)
     wfcinit:atom :      0.08s CPU      0.08s WALL (     121 calls)
     wfcinit:wfcr :      5.31s CPU      5.35s WALL (     121 calls)
     potinit      :      0.94s CPU      0.97s WALL (       1 calls)
     hinit0       :      0.17s CPU      0.18s WALL (       1 calls)

     Called by electrons:
     c_bands      :    474.42s CPU    475.15s WALL (      32 calls)
     sum_band     :     36.19s CPU     36.22s WALL (      32 calls)
     v_of_rho     :      0.49s CPU      0.52s WALL (      33 calls)
     v_h          :      0.12s CPU      0.12s WALL (      33 calls)
     v_xc         :      0.37s CPU      0.39s WALL (      33 calls)
     mix_rho      :      0.66s CPU      0.69s WALL (      32 calls)

     Called by c_bands:
     init_us_2    :      5.66s CPU      5.68s WALL (    7865 calls)
     cegterg      :    456.49s CPU    457.16s WALL (    3872 calls)

     Called by sum_band:
     sum_band:wei :      0.00s CPU      0.00s WALL (      32 calls)
     sum_band:loo :     36.07s CPU     36.09s WALL (      32 calls)
     sum_band:buf :      4.46s CPU      4.47s WALL (    3872 calls)
     sum_band:ini :      2.84s CPU      2.85s WALL (    3872 calls)

     Called by *egterg:
     cdiaghg      :     54.39s CPU     54.58s WALL (   24012 calls)
                                       54.49s GPU  (   24012 calls)
     cegterg:over :     91.28s CPU     91.32s WALL (   20140 calls)
     cegterg:upda :     23.38s CPU     23.40s WALL (   20140 calls)
     cegterg:last :     21.62s CPU     21.64s WALL (   10181 calls)
     h_psi        :    255.55s CPU    256.23s WALL (   24133 calls)
                                      256.04s GPU  (   24133 calls)
     g_psi        :      0.07s CPU      2.15s WALL (   20140 calls)
                                        2.07s GPU  (   20140 calls)

     Called by h_psi:
     h_psi:calbec :      0.65s CPU     44.79s WALL (   24133 calls)
                                       44.70s GPU  (   24133 calls)
     vloc_psi     :    171.95s CPU    172.57s WALL (   24133 calls)
                                      172.49s GPU  (   24133 calls)
     add_vuspsi   :      4.61s CPU     37.60s WALL (   24133 calls)
                                       37.50s GPU  (   24133 calls)

     General routines
     calbec       :      0.61s CPU      0.64s WALL (   24133 calls)
     fft          :      0.55s CPU      0.73s WALL (     393 calls)
                                        0.18s GPU  (     360 calls)
     ffts         :      0.54s CPU      0.55s WALL (      65 calls)
                                        0.01s GPU  (      32 calls)
     fftw         :      0.72s CPU    173.85s WALL (   73008 calls)
                                      173.58s GPU  (   73008 calls)
     interpolate  :      1.15s CPU      1.15s WALL (      33 calls)
 
     Parallel routines
 
     PWSCF        :   8m39.31s CPU   8m40.56s WALL

 
   This run was terminated on:  21:32:54  28Apr2026            

=------------------------------------------------------------------------------=
   JOB DONE.
=------------------------------------------------------------------------------=
