
     Program PWSCF v.7.4.1 starts on 13Mar2026 at  4:37:23 

     This program is part of the open-source Quantum ESPRESSO suite
     for quantum simulation of materials; please cite
         "P. Giannozzi et al., J. Phys.:Condens. Matter 21 395502 (2009);
         "P. Giannozzi et al., J. Phys.:Condens. Matter 29 465901 (2017);
         "P. Giannozzi et al., J. Chem. Phys. 152 154105 (2020);
          URL http://www.quantum-espresso.org", 
     in publications or presentations arising from this work. More details at
     http://www.quantum-espresso.org/quote

     Parallel version (MPI), running on     1 processors

     MPI processes distributed on     1 nodes
     8774 MiB available memory on the printing compute node when the environment starts
 
     Reading input from nscf.in

     Current dimensions of program PWSCF are:
     Max number of different atomic species (ntypx) = 10
     Max number of k-points (npk) =  40000
     Max angular momentum in pseudopotentials (lmaxx) =  4

     Atomic positions and unit cell read from directory:
     ./tmp/crsi2n4.save/
 
     Message from routine setup:
     no reason to have ecutrho>4*ecutwfc
 
     Subspace diagonalization in iterative solution of the eigenvalue problem:
     a serial algorithm will be used

 
     G-vector sticks info
     --------------------
     sticks:   dense  smooth     PW     G-vecs:    dense   smooth      PW
     Sum         871     703    199               145911   104473   16423
 
     Using Slab Decomposition
 


     bravais-lattice index     =            4
     lattice parameter (alat)  =       5.6431  a.u.
     unit-cell volume          =    1082.2310 (a.u.)^3
     number of atoms/cell      =            7
     number of atomic types    =            3
     number of electrons       =        42.00
     number of Kohn-Sham states=           21
     kinetic-energy cutoff     =      80.0000  Ry
     charge density cutoff     =     400.0000  Ry
     Exchange-correlation= PBE
                           (   1   4   3   4   0   0   0)

     GPU acceleration is ACTIVE.  1 visible GPUs per MPI rank
     GPU-aware MPI enabled


     GPU used by master process:

        Device Number: 0
        Device name: NVIDIA RTX A2000 12GB
        Compute capability : 86
        Ratio of single to double precision performance  : 64
        Memory Clock Rate (KHz): 6001000
        Memory Bus Width (bits): 192
        Peak Memory Bandwidth (GB/s): 288.05

     celldm(1)=   5.643100  celldm(2)=   0.000000  celldm(3)=   6.954022
     celldm(4)=   0.000000  celldm(5)=   0.000000  celldm(6)=   0.000000

     crystal axes: (cart. coord. in units of alat)
               a(1) = (   1.000000   0.000000   0.000000 )  
               a(2) = (  -0.500000   0.866025   0.000000 )  
               a(3) = (   0.000000   0.000000   6.954022 )  

     reciprocal axes: (cart. coord. in units 2 pi/alat)
               b(1) = (  1.000000  0.577350 -0.000000 )  
               b(2) = (  0.000000  1.154701  0.000000 )  
               b(3) = (  0.000000 -0.000000  0.143802 )  


     PseudoPot. # 1 for Cr read from file:
     /home/rao/Desktop/pseudo/ONCVPSP/sg15/Cr_ONCV_PBE_sr.upf
     MD5 check sum: 8c25700f94aee329d8014e8d8708abb4
     Pseudo is Norm-conserving, Zval = 14.0
     Generated using ONCVPSP code by D. R. Hamann
     Using radial grid of 1490 points,  6 beta functions with: 
                l(1) =   0
                l(2) =   0
                l(3) =   1
                l(4) =   1
                l(5) =   2
                l(6) =   2

     PseudoPot. # 2 for Si read from file:
     /home/rao/Desktop/pseudo/ONCVPSP/sg15/Si_ONCV_PBE_sr.upf
     MD5 check sum: 8553c464762ac42b85b1eed164b4d029
     Pseudo is Norm-conserving, Zval =  4.0
     Generated using ONCVPSP code by D. R. Hamann
     Using radial grid of 1510 points,  4 beta functions with: 
                l(1) =   0
                l(2) =   0
                l(3) =   1
                l(4) =   1

     PseudoPot. # 3 for N  read from file:
     /home/rao/Desktop/pseudo/ONCVPSP/sg15/N_ONCV_PBE_sr.upf
     MD5 check sum: 584dff68b02d160f04ff099e3496afa1
     Pseudo is Norm-conserving, Zval =  5.0
     Generated using ONCVPSP code by D. R. Hamann
     Using radial grid of 1058 points,  4 beta functions with: 
                l(1) =   0
                l(2) =   0
                l(3) =   1
                l(4) =   1

     atomic species   valence    mass     pseudopotential
     Cr               14.00    51.99600     Cr( 1.00)
     Si                4.00    28.08600     Si( 1.00)
     N                 5.00    14.00700     N ( 1.00)

     No symmetry found


                                    s                        frac. trans.

      isym =  1     identity                                     

 cryst.   s( 1) = (     1          0          0      )
                  (     0          1          0      )
                  (     0          0          1      )

 cart.    s( 1) = (  1.0000000  0.0000000  0.0000000 )
                  (  0.0000000  1.0000000  0.0000000 )
                  (  0.0000000  0.0000000  1.0000000 )


     point group C_1 (1)    
     there are  1 classes
     the character table:

       E    
A      1.00

     the symmetry operations in each class and the name of the first element:

     E        1
          identity                                               

   Cartesian axes

     site n.     atom                  positions (alat units)
         1        Cr     tau(   1) = (   0.7855412   0.1238071   2.9741314  )
         2        N      tau(   2) = (   0.2854514   0.4125359   2.5970044  )
         3        N      tau(   3) = (   0.2855503   0.4124751   3.3574876  )
         4        N      tau(   4) = (   0.7857434   0.1236859   4.1141787  )
         5        N      tau(   5) = (  -0.2139897   0.7008906   1.8491189  )
         6        Si     tau(   6) = (   0.2859161   0.4122699   2.0096514  )
         7        Si     tau(   7) = (   0.2857543   0.4123546   3.9491163  )

   Crystallographic axes

     site n.     atom                  positions (cryst. coord.)
         1        Cr     tau(   1) = (  0.8570213  0.1429601  0.4276851  )
         2        N      tau(   2) = (  0.5236291  0.4763554  0.3734536  )
         3        N      tau(   3) = (  0.5236929  0.4762852  0.4828123  )
         4        N      tau(   4) = (  0.8571535  0.1428202  0.5916258  )
         5        N      tau(   5) = (  0.1906697  0.8093187  0.2659064  )
         6        Si     tau(   6) = (  0.5239403  0.4760483  0.2889912  )
         7        Si     tau(   7) = (  0.5238273  0.4761460  0.5678895  )

     number of k points=   100
                       cart. coord. in units 2pi/alat
        k(    1) = (   0.0000000   0.0000000   0.0000000), wk =   0.0102041
        k(    2) = (   0.0000000   0.0824786   0.0000000), wk =   0.0204082
        k(    3) = (   0.0000000   0.1649572   0.0000000), wk =   0.0204082
        k(    4) = (   0.0000000   0.2474358   0.0000000), wk =   0.0204082
        k(    5) = (   0.0000000   0.3299144   0.0000000), wk =   0.0204082
        k(    6) = (   0.0000000   0.4123930   0.0000000), wk =   0.0204082
        k(    7) = (   0.0000000   0.4948717   0.0000000), wk =   0.0204082
        k(    8) = (   0.0000000  -0.5773503   0.0000000), wk =   0.0102041
        k(    9) = (   0.0714286   0.1237179   0.0000000), wk =   0.0204082
        k(   10) = (   0.0714286   0.2061965   0.0000000), wk =   0.0204082
        k(   11) = (   0.0714286   0.2886751   0.0000000), wk =   0.0204082
        k(   12) = (   0.0714286   0.3711537   0.0000000), wk =   0.0204082
        k(   13) = (   0.0714286   0.4536324   0.0000000), wk =   0.0204082
        k(   14) = (   0.0714286   0.5361110   0.0000000), wk =   0.0204082
        k(   15) = (   0.1428571   0.2474358   0.0000000), wk =   0.0204082
        k(   16) = (   0.1428571   0.3299144   0.0000000), wk =   0.0204082
        k(   17) = (   0.1428571   0.4123930   0.0000000), wk =   0.0204082
        k(   18) = (   0.1428571   0.4948717   0.0000000), wk =   0.0204082
        k(   19) = (   0.1428571   0.5773503   0.0000000), wk =   0.0204082
        k(   20) = (   0.2142857   0.3711537   0.0000000), wk =   0.0204082
        k(   21) = (   0.2142857   0.4536324   0.0000000), wk =   0.0204082
        k(   22) = (   0.2142857   0.5361110   0.0000000), wk =   0.0204082
        k(   23) = (   0.2857143   0.4948717   0.0000000), wk =   0.0204082
        k(   24) = (   0.2857143   0.5773503   0.0000000), wk =   0.0204082
        k(   25) = (  -0.0714286   0.0412393   0.0000000), wk =   0.0204082
        k(   26) = (   0.0714286   0.0412393   0.0000000), wk =   0.0204082
        k(   27) = (  -0.1428571   0.0824786   0.0000000), wk =   0.0204082
        k(   28) = (   0.1428571   0.0824786   0.0000000), wk =   0.0204082
        k(   29) = (  -0.2142857   0.1237179   0.0000000), wk =   0.0204082
        k(   30) = (   0.2142857   0.1237179   0.0000000), wk =   0.0204082
        k(   31) = (  -0.2857143   0.1649572   0.0000000), wk =   0.0204082
        k(   32) = (   0.2857143   0.1649572   0.0000000), wk =   0.0204082
        k(   33) = (  -0.3571429   0.2061965   0.0000000), wk =   0.0204082
        k(   34) = (   0.3571429   0.2061965   0.0000000), wk =   0.0204082
        k(   35) = (  -0.4285714   0.2474358   0.0000000), wk =   0.0204082
        k(   36) = (   0.4285714   0.2474358   0.0000000), wk =   0.0204082
        k(   37) = (   0.5000000  -0.2886751   0.0000000), wk =   0.0102041
        k(   38) = (  -0.5000000  -0.2886751   0.0000000), wk =   0.0102041
        k(   39) = (  -0.0714286   0.1237179   0.0000000), wk =   0.0204082
        k(   40) = (   0.1428571   0.0000000   0.0000000), wk =   0.0204082
        k(   41) = (  -0.0714286   0.2061965   0.0000000), wk =   0.0204082
        k(   42) = (  -0.1428571   0.1649572   0.0000000), wk =   0.0204082
        k(   43) = (   0.2142857   0.0412393   0.0000000), wk =   0.0204082
        k(   44) = (  -0.1428571  -0.1649572   0.0000000), wk =   0.0204082
        k(   45) = (   0.2142857  -0.0412393   0.0000000), wk =   0.0204082
        k(   46) = (  -0.0714286   0.2886751   0.0000000), wk =   0.0204082
        k(   47) = (  -0.2142857   0.2061965   0.0000000), wk =   0.0204082
        k(   48) = (   0.2857143   0.0824786   0.0000000), wk =   0.0204082
        k(   49) = (  -0.2142857  -0.2061965   0.0000000), wk =   0.0204082
        k(   50) = (   0.2857143  -0.0824786   0.0000000), wk =   0.0204082
        k(   51) = (  -0.0714286   0.3711537   0.0000000), wk =   0.0204082
        k(   52) = (  -0.2857143   0.2474358   0.0000000), wk =   0.0204082
        k(   53) = (   0.3571429   0.1237179   0.0000000), wk =   0.0204082
        k(   54) = (  -0.2857143  -0.2474358   0.0000000), wk =   0.0204082
        k(   55) = (   0.3571429  -0.1237179   0.0000000), wk =   0.0204082
        k(   56) = (  -0.0714286   0.4536324   0.0000000), wk =   0.0204082
        k(   57) = (  -0.3571429   0.2886751   0.0000000), wk =   0.0204082
        k(   58) = (   0.4285714   0.1649572   0.0000000), wk =   0.0204082
        k(   59) = (  -0.3571429  -0.2886751   0.0000000), wk =   0.0204082
        k(   60) = (   0.4285714  -0.1649572   0.0000000), wk =   0.0204082
        k(   61) = (  -0.0714286   0.5361110   0.0000000), wk =   0.0204082
        k(   62) = (  -0.4285714   0.3299144   0.0000000), wk =   0.0204082
        k(   63) = (   0.5000000   0.2061965   0.0000000), wk =   0.0204082
        k(   64) = (  -0.4285714  -0.3299144   0.0000000), wk =   0.0204082
        k(   65) = (   0.5000000  -0.2061965   0.0000000), wk =   0.0204082
        k(   66) = (  -0.1428571   0.2474358   0.0000000), wk =   0.0204082
        k(   67) = (   0.2857143   0.0000000   0.0000000), wk =   0.0204082
        k(   68) = (  -0.1428571   0.3299144   0.0000000), wk =   0.0204082
        k(   69) = (  -0.2142857   0.2886751   0.0000000), wk =   0.0204082
        k(   70) = (   0.3571429   0.0412393   0.0000000), wk =   0.0204082
        k(   71) = (  -0.2142857  -0.2886751   0.0000000), wk =   0.0204082
        k(   72) = (   0.3571429  -0.0412393   0.0000000), wk =   0.0204082
        k(   73) = (  -0.1428571   0.4123930   0.0000000), wk =   0.0204082
        k(   74) = (  -0.2857143   0.3299144   0.0000000), wk =   0.0204082
        k(   75) = (   0.4285714   0.0824786   0.0000000), wk =   0.0204082
        k(   76) = (  -0.2857143  -0.3299144   0.0000000), wk =   0.0204082
        k(   77) = (   0.4285714  -0.0824786   0.0000000), wk =   0.0204082
        k(   78) = (  -0.1428571   0.4948717   0.0000000), wk =   0.0204082
        k(   79) = (  -0.3571429   0.3711537   0.0000000), wk =   0.0204082
        k(   80) = (   0.5000000   0.1237179   0.0000000), wk =   0.0204082
        k(   81) = (  -0.3571429  -0.3711537   0.0000000), wk =   0.0204082
        k(   82) = (   0.5000000  -0.1237179   0.0000000), wk =   0.0204082
        k(   83) = (  -0.4285714   0.4123930   0.0000000), wk =   0.0204082
        k(   84) = (   0.5714286   0.1649572   0.0000000), wk =   0.0204082
        k(   85) = (  -0.2142857   0.3711537   0.0000000), wk =   0.0204082
        k(   86) = (   0.4285714  -0.0000000   0.0000000), wk =   0.0204082
        k(   87) = (  -0.2142857   0.4536324   0.0000000), wk =   0.0204082
        k(   88) = (  -0.2857143   0.4123930   0.0000000), wk =   0.0204082
        k(   89) = (   0.5000000   0.0412393   0.0000000), wk =   0.0204082
        k(   90) = (  -0.2857143  -0.4123930   0.0000000), wk =   0.0204082
        k(   91) = (   0.5000000  -0.0412393   0.0000000), wk =   0.0204082
        k(   92) = (  -0.2142857   0.5361110   0.0000000), wk =   0.0204082
        k(   93) = (  -0.3571429   0.4536324   0.0000000), wk =   0.0204082
        k(   94) = (   0.5714286   0.0824786   0.0000000), wk =   0.0204082
        k(   95) = (  -0.3571429  -0.4536324   0.0000000), wk =   0.0204082
        k(   96) = (   0.5714286  -0.0824786   0.0000000), wk =   0.0204082
        k(   97) = (  -0.2857143   0.4948717   0.0000000), wk =   0.0204082
        k(   98) = (   0.5714286   0.0000000   0.0000000), wk =   0.0204082
        k(   99) = (  -0.3571429   0.5361110   0.0000000), wk =   0.0204082
        k(  100) = (   0.6428571   0.0412393   0.0000000), wk =   0.0204082

                       cryst. coord.
        k(    1) = (   0.0000000   0.0000000   0.0000000), wk =   0.0102041
        k(    2) = (   0.0000000   0.0714286   0.0000000), wk =   0.0204082
        k(    3) = (   0.0000000   0.1428571   0.0000000), wk =   0.0204082
        k(    4) = (   0.0000000   0.2142857   0.0000000), wk =   0.0204082
        k(    5) = (   0.0000000   0.2857143   0.0000000), wk =   0.0204082
        k(    6) = (   0.0000000   0.3571429   0.0000000), wk =   0.0204082
        k(    7) = (   0.0000000   0.4285714   0.0000000), wk =   0.0204082
        k(    8) = (   0.0000000  -0.5000000   0.0000000), wk =   0.0102041
        k(    9) = (   0.0714286   0.0714286   0.0000000), wk =   0.0204082
        k(   10) = (   0.0714286   0.1428571   0.0000000), wk =   0.0204082
        k(   11) = (   0.0714286   0.2142857   0.0000000), wk =   0.0204082
        k(   12) = (   0.0714286   0.2857143   0.0000000), wk =   0.0204082
        k(   13) = (   0.0714286   0.3571429   0.0000000), wk =   0.0204082
        k(   14) = (   0.0714286   0.4285714   0.0000000), wk =   0.0204082
        k(   15) = (   0.1428571   0.1428571   0.0000000), wk =   0.0204082
        k(   16) = (   0.1428571   0.2142857   0.0000000), wk =   0.0204082
        k(   17) = (   0.1428571   0.2857143   0.0000000), wk =   0.0204082
        k(   18) = (   0.1428571   0.3571429   0.0000000), wk =   0.0204082
        k(   19) = (   0.1428571   0.4285714   0.0000000), wk =   0.0204082
        k(   20) = (   0.2142857   0.2142857   0.0000000), wk =   0.0204082
        k(   21) = (   0.2142857   0.2857143   0.0000000), wk =   0.0204082
        k(   22) = (   0.2142857   0.3571429   0.0000000), wk =   0.0204082
        k(   23) = (   0.2857143   0.2857143   0.0000000), wk =   0.0204082
        k(   24) = (   0.2857143   0.3571429   0.0000000), wk =   0.0204082
        k(   25) = (  -0.0714286   0.0714286   0.0000000), wk =   0.0204082
        k(   26) = (   0.0714286   0.0000000   0.0000000), wk =   0.0204082
        k(   27) = (  -0.1428571   0.1428571   0.0000000), wk =   0.0204082
        k(   28) = (   0.1428571   0.0000000   0.0000000), wk =   0.0204082
        k(   29) = (  -0.2142857   0.2142857   0.0000000), wk =   0.0204082
        k(   30) = (   0.2142857  -0.0000000   0.0000000), wk =   0.0204082
        k(   31) = (  -0.2857143   0.2857143   0.0000000), wk =   0.0204082
        k(   32) = (   0.2857143   0.0000000   0.0000000), wk =   0.0204082
        k(   33) = (  -0.3571429   0.3571429   0.0000000), wk =   0.0204082
        k(   34) = (   0.3571429   0.0000000   0.0000000), wk =   0.0204082
        k(   35) = (  -0.4285714   0.4285714   0.0000000), wk =   0.0204082
        k(   36) = (   0.4285714  -0.0000000   0.0000000), wk =   0.0204082
        k(   37) = (   0.5000000  -0.5000000   0.0000000), wk =   0.0102041
        k(   38) = (  -0.5000000  -0.0000000   0.0000000), wk =   0.0102041
        k(   39) = (  -0.0714286   0.1428571   0.0000000), wk =   0.0204082
        k(   40) = (   0.1428571  -0.0714286   0.0000000), wk =   0.0204082
        k(   41) = (  -0.0714286   0.2142857   0.0000000), wk =   0.0204082
        k(   42) = (  -0.1428571   0.2142857   0.0000000), wk =   0.0204082
        k(   43) = (   0.2142857  -0.0714286   0.0000000), wk =   0.0204082
        k(   44) = (  -0.1428571  -0.0714286   0.0000000), wk =   0.0204082
        k(   45) = (   0.2142857  -0.1428571   0.0000000), wk =   0.0204082
        k(   46) = (  -0.0714286   0.2857143   0.0000000), wk =   0.0204082
        k(   47) = (  -0.2142857   0.2857143   0.0000000), wk =   0.0204082
        k(   48) = (   0.2857143  -0.0714286   0.0000000), wk =   0.0204082
        k(   49) = (  -0.2142857  -0.0714286   0.0000000), wk =   0.0204082
        k(   50) = (   0.2857143  -0.2142857   0.0000000), wk =   0.0204082
        k(   51) = (  -0.0714286   0.3571429   0.0000000), wk =   0.0204082
        k(   52) = (  -0.2857143   0.3571429   0.0000000), wk =   0.0204082
        k(   53) = (   0.3571429  -0.0714286   0.0000000), wk =   0.0204082
        k(   54) = (  -0.2857143  -0.0714286   0.0000000), wk =   0.0204082
        k(   55) = (   0.3571429  -0.2857143   0.0000000), wk =   0.0204082
        k(   56) = (  -0.0714286   0.4285714   0.0000000), wk =   0.0204082
        k(   57) = (  -0.3571429   0.4285714   0.0000000), wk =   0.0204082
        k(   58) = (   0.4285714  -0.0714286   0.0000000), wk =   0.0204082
        k(   59) = (  -0.3571429  -0.0714286   0.0000000), wk =   0.0204082
        k(   60) = (   0.4285714  -0.3571429   0.0000000), wk =   0.0204082
        k(   61) = (  -0.0714286   0.5000000   0.0000000), wk =   0.0204082
        k(   62) = (  -0.4285714   0.5000000   0.0000000), wk =   0.0204082
        k(   63) = (   0.5000000  -0.0714286   0.0000000), wk =   0.0204082
        k(   64) = (  -0.4285714  -0.0714286   0.0000000), wk =   0.0204082
        k(   65) = (   0.5000000  -0.4285714   0.0000000), wk =   0.0204082
        k(   66) = (  -0.1428571   0.2857143   0.0000000), wk =   0.0204082
        k(   67) = (   0.2857143  -0.1428571   0.0000000), wk =   0.0204082
        k(   68) = (  -0.1428571   0.3571429   0.0000000), wk =   0.0204082
        k(   69) = (  -0.2142857   0.3571429   0.0000000), wk =   0.0204082
        k(   70) = (   0.3571429  -0.1428571   0.0000000), wk =   0.0204082
        k(   71) = (  -0.2142857  -0.1428571   0.0000000), wk =   0.0204082
        k(   72) = (   0.3571429  -0.2142857   0.0000000), wk =   0.0204082
        k(   73) = (  -0.1428571   0.4285714   0.0000000), wk =   0.0204082
        k(   74) = (  -0.2857143   0.4285714   0.0000000), wk =   0.0204082
        k(   75) = (   0.4285714  -0.1428571   0.0000000), wk =   0.0204082
        k(   76) = (  -0.2857143  -0.1428571   0.0000000), wk =   0.0204082
        k(   77) = (   0.4285714  -0.2857143   0.0000000), wk =   0.0204082
        k(   78) = (  -0.1428571   0.5000000   0.0000000), wk =   0.0204082
        k(   79) = (  -0.3571429   0.5000000   0.0000000), wk =   0.0204082
        k(   80) = (   0.5000000  -0.1428571   0.0000000), wk =   0.0204082
        k(   81) = (  -0.3571429  -0.1428571   0.0000000), wk =   0.0204082
        k(   82) = (   0.5000000  -0.3571429   0.0000000), wk =   0.0204082
        k(   83) = (  -0.4285714   0.5714286   0.0000000), wk =   0.0204082
        k(   84) = (   0.5714286  -0.1428571   0.0000000), wk =   0.0204082
        k(   85) = (  -0.2142857   0.4285714   0.0000000), wk =   0.0204082
        k(   86) = (   0.4285714  -0.2142857   0.0000000), wk =   0.0204082
        k(   87) = (  -0.2142857   0.5000000   0.0000000), wk =   0.0204082
        k(   88) = (  -0.2857143   0.5000000   0.0000000), wk =   0.0204082
        k(   89) = (   0.5000000  -0.2142857   0.0000000), wk =   0.0204082
        k(   90) = (  -0.2857143  -0.2142857   0.0000000), wk =   0.0204082
        k(   91) = (   0.5000000  -0.2857143   0.0000000), wk =   0.0204082
        k(   92) = (  -0.2142857   0.5714286   0.0000000), wk =   0.0204082
        k(   93) = (  -0.3571429   0.5714286   0.0000000), wk =   0.0204082
        k(   94) = (   0.5714286  -0.2142857   0.0000000), wk =   0.0204082
        k(   95) = (  -0.3571429  -0.2142857   0.0000000), wk =   0.0204082
        k(   96) = (   0.5714286  -0.3571429   0.0000000), wk =   0.0204082
        k(   97) = (  -0.2857143   0.5714286   0.0000000), wk =   0.0204082
        k(   98) = (   0.5714286  -0.2857143   0.0000000), wk =   0.0204082
        k(   99) = (  -0.3571429   0.6428571   0.0000000), wk =   0.0204082
        k(  100) = (   0.6428571  -0.2857143   0.0000000), wk =   0.0204082

     Dense  grid:   145911 G-vectors     FFT dimensions: (  36,  36, 250)

     Smooth grid:   104473 G-vectors     FFT dimensions: (  36,  36, 225)

     Dynamical RAM for                 wfc:       4.19 MB

     Dynamical RAM for     wfc (w. buffer):       4.19 MB

     Dynamical RAM for           str. fact:       6.68 MB

     Dynamical RAM for           local pot:       0.00 MB

     Dynamical RAM for          nlocal pot:      13.17 MB

     Dynamical RAM for                qrad:       4.82 MB

     Dynamical RAM for          rho,v,vnew:      14.10 MB

     Dynamical RAM for           G-vectors:       9.15 MB

     Dynamical RAM for          h,s,v(r/c):       0.08 MB

     Dynamical RAM for          <psi|beta>:       0.02 MB

     Dynamical RAM for                 psi:       8.38 MB

     Dynamical RAM for                hpsi:       8.38 MB

     Dynamical RAM for      wfcinit/wfcrot:       8.39 MB

     Estimated static dynamical RAM per process >      73.36 MB

     Estimated max dynamical RAM per process >      90.23 MB
 ----2D----2D----2D----2D----2D----2D----2D----2D----2D----2D----2D----2D
  The code is running with the 2D cutoff
  Please refer to:
  Sohier, T., Calandra, M., & Mauri, F. (2017), 
  Density functional perturbation theory for gated two-dimensional heterostructures:
  Theoretical developments and application to flexural phonons in graphene.
  Physical Review B, 96(7), 75448. https://doi.org/10.1103/PhysRevB.96.075448
 ----2D----2D----2D----2D----2D----2D----2D----2D----2D----2D----2D----2D

     The potential is recalculated from file :
     ./tmp/crsi2n4.save/charge-density

     Starting wfcs are   34 randomized atomic wfcs

     Band Structure Calculation
     Davidson diagonalization with overlap

     Computing kpt #:     1  of   100
     total cpu time spent up to now is        3.1 secs

     Computing kpt #:     2  of   100
     total cpu time spent up to now is        5.5 secs

     Computing kpt #:     3  of   100
     total cpu time spent up to now is        8.0 secs

     Computing kpt #:     4  of   100
     total cpu time spent up to now is       10.1 secs

     Computing kpt #:     5  of   100
     total cpu time spent up to now is       12.4 secs

     Computing kpt #:     6  of   100
     total cpu time spent up to now is       14.9 secs

     Computing kpt #:     7  of   100
     total cpu time spent up to now is       17.4 secs

     Computing kpt #:     8  of   100
     total cpu time spent up to now is       20.0 secs

     Computing kpt #:     9  of   100
     total cpu time spent up to now is       22.3 secs

     Computing kpt #:    10  of   100
     total cpu time spent up to now is       24.7 secs

     Computing kpt #:    11  of   100
     total cpu time spent up to now is       27.1 secs

     Computing kpt #:    12  of   100
     total cpu time spent up to now is       29.7 secs

     Computing kpt #:    13  of   100
     total cpu time spent up to now is       32.5 secs

     Computing kpt #:    14  of   100
     total cpu time spent up to now is       35.2 secs

     Computing kpt #:    15  of   100
     total cpu time spent up to now is       37.6 secs

     Computing kpt #:    16  of   100
     total cpu time spent up to now is       40.2 secs

     Computing kpt #:    17  of   100
     total cpu time spent up to now is       43.0 secs

     Computing kpt #:    18  of   100
     c_bands:  1 eigenvalues not converged
     total cpu time spent up to now is       45.8 secs

     Computing kpt #:    19  of   100
     total cpu time spent up to now is       48.4 secs

     Computing kpt #:    20  of   100
     total cpu time spent up to now is       51.0 secs

     Computing kpt #:    21  of   100
     total cpu time spent up to now is       53.5 secs

     Computing kpt #:    22  of   100
     total cpu time spent up to now is       55.9 secs

     Computing kpt #:    23  of   100
     total cpu time spent up to now is       58.3 secs

     Computing kpt #:    24  of   100
     total cpu time spent up to now is       60.6 secs

     Computing kpt #:    25  of   100
     total cpu time spent up to now is       63.0 secs

     Computing kpt #:    26  of   100
     total cpu time spent up to now is       65.5 secs

     Computing kpt #:    27  of   100
     total cpu time spent up to now is       68.2 secs

     Computing kpt #:    28  of   100
     total cpu time spent up to now is       70.7 secs

     Computing kpt #:    29  of   100
     total cpu time spent up to now is       73.0 secs

     Computing kpt #:    30  of   100
     total cpu time spent up to now is       75.3 secs

     Computing kpt #:    31  of   100
     total cpu time spent up to now is       77.7 secs

     Computing kpt #:    32  of   100
     total cpu time spent up to now is       80.2 secs

     Computing kpt #:    33  of   100
     total cpu time spent up to now is       82.7 secs

     Computing kpt #:    34  of   100
     total cpu time spent up to now is       85.4 secs

     Computing kpt #:    35  of   100
     total cpu time spent up to now is       88.1 secs

     Computing kpt #:    36  of   100
     total cpu time spent up to now is       90.8 secs

     Computing kpt #:    37  of   100
     total cpu time spent up to now is       93.6 secs

     Computing kpt #:    38  of   100
     total cpu time spent up to now is       96.3 secs

     Computing kpt #:    39  of   100
     total cpu time spent up to now is       98.8 secs

     Computing kpt #:    40  of   100
     total cpu time spent up to now is      101.3 secs

     Computing kpt #:    41  of   100
     total cpu time spent up to now is      103.8 secs

     Computing kpt #:    42  of   100
     total cpu time spent up to now is      106.3 secs

     Computing kpt #:    43  of   100
     total cpu time spent up to now is      108.8 secs

     Computing kpt #:    44  of   100
     total cpu time spent up to now is      111.2 secs

     Computing kpt #:    45  of   100
     total cpu time spent up to now is      113.8 secs

     Computing kpt #:    46  of   100
     total cpu time spent up to now is      116.2 secs

     Computing kpt #:    47  of   100
     total cpu time spent up to now is      118.7 secs

     Computing kpt #:    48  of   100
     total cpu time spent up to now is      121.2 secs

     Computing kpt #:    49  of   100
     total cpu time spent up to now is      123.7 secs

     Computing kpt #:    50  of   100
     total cpu time spent up to now is      126.2 secs

     Computing kpt #:    51  of   100
     total cpu time spent up to now is      129.0 secs

     Computing kpt #:    52  of   100
     total cpu time spent up to now is      131.8 secs

     Computing kpt #:    53  of   100
     total cpu time spent up to now is      134.4 secs

     Computing kpt #:    54  of   100
     total cpu time spent up to now is      137.1 secs

     Computing kpt #:    55  of   100
     total cpu time spent up to now is      139.9 secs

     Computing kpt #:    56  of   100
     total cpu time spent up to now is      142.7 secs

     Computing kpt #:    57  of   100
     total cpu time spent up to now is      145.6 secs

     Computing kpt #:    58  of   100
     total cpu time spent up to now is      148.4 secs

     Computing kpt #:    59  of   100
     total cpu time spent up to now is      151.2 secs

     Computing kpt #:    60  of   100
     total cpu time spent up to now is      154.1 secs

     Computing kpt #:    61  of   100
     total cpu time spent up to now is      156.9 secs

     Computing kpt #:    62  of   100
     total cpu time spent up to now is      159.7 secs

     Computing kpt #:    63  of   100
     total cpu time spent up to now is      162.6 secs

     Computing kpt #:    64  of   100
     total cpu time spent up to now is      165.5 secs

     Computing kpt #:    65  of   100
     total cpu time spent up to now is      168.3 secs

     Computing kpt #:    66  of   100
     total cpu time spent up to now is      170.8 secs

     Computing kpt #:    67  of   100
     total cpu time spent up to now is      173.4 secs

     Computing kpt #:    68  of   100
     total cpu time spent up to now is      176.2 secs

     Computing kpt #:    69  of   100
     total cpu time spent up to now is      178.8 secs

     Computing kpt #:    70  of   100
     total cpu time spent up to now is      181.5 secs

     Computing kpt #:    71  of   100
     total cpu time spent up to now is      184.2 secs

     Computing kpt #:    72  of   100
     total cpu time spent up to now is      187.0 secs

     Computing kpt #:    73  of   100
     total cpu time spent up to now is      189.8 secs

     Computing kpt #:    74  of   100
     total cpu time spent up to now is      192.6 secs

     Computing kpt #:    75  of   100
     total cpu time spent up to now is      195.5 secs

     Computing kpt #:    76  of   100
     total cpu time spent up to now is      198.3 secs

     Computing kpt #:    77  of   100
     total cpu time spent up to now is      201.0 secs

     Computing kpt #:    78  of   100
     total cpu time spent up to now is      204.0 secs

     Computing kpt #:    79  of   100
     total cpu time spent up to now is      206.7 secs

     Computing kpt #:    80  of   100
     total cpu time spent up to now is      209.4 secs

     Computing kpt #:    81  of   100
     total cpu time spent up to now is      212.3 secs

     Computing kpt #:    82  of   100
     total cpu time spent up to now is      215.1 secs

     Computing kpt #:    83  of   100
     total cpu time spent up to now is      217.7 secs

     Computing kpt #:    84  of   100
     total cpu time spent up to now is      220.5 secs

     Computing kpt #:    85  of   100
     total cpu time spent up to now is      223.3 secs

     Computing kpt #:    86  of   100
     total cpu time spent up to now is      225.8 secs

     Computing kpt #:    87  of   100
     total cpu time spent up to now is      228.3 secs

     Computing kpt #:    88  of   100
     total cpu time spent up to now is      230.8 secs

     Computing kpt #:    89  of   100
     total cpu time spent up to now is      233.3 secs

     Computing kpt #:    90  of   100
     total cpu time spent up to now is      235.9 secs

     Computing kpt #:    91  of   100
     total cpu time spent up to now is      238.2 secs

     Computing kpt #:    92  of   100
     total cpu time spent up to now is      240.7 secs

     Computing kpt #:    93  of   100
     total cpu time spent up to now is      243.3 secs

     Computing kpt #:    94  of   100
     total cpu time spent up to now is      245.8 secs

     Computing kpt #:    95  of   100
     total cpu time spent up to now is      248.4 secs

     Computing kpt #:    96  of   100
     total cpu time spent up to now is      250.7 secs

     Computing kpt #:    97  of   100
     total cpu time spent up to now is      253.0 secs

     Computing kpt #:    98  of   100
     total cpu time spent up to now is      255.5 secs

     Computing kpt #:    99  of   100
     total cpu time spent up to now is      257.9 secs

     Computing kpt #:   100  of   100
     total cpu time spent up to now is      260.4 secs

     ethr =  2.38E-13,  avg # of iterations =104.5

     total cpu time spent up to now is      260.4 secs

     End of band structure calculation

          k = 0.0000 0.0000 0.0000 ( 12939 PWs)   bands (ev):

   -77.7476 -48.9978 -48.9978 -48.8327 -23.5049 -23.3856 -21.0347 -19.6463
   -13.2220 -10.4542  -9.1703  -9.1695  -9.0878  -9.0854  -8.6559  -8.6308
    -8.6308  -7.3671  -7.3660  -6.9475  -5.1495

     occupation numbers 
     1.0000   1.0000   1.0000   1.0000   1.0000   1.0000   1.0000   1.0000
     1.0000   1.0000   1.0000   1.0000   1.0000   1.0000   1.0000   1.0000
     1.0000   1.0000   1.0000   1.0000   1.0000

          k = 0.0000 0.0825 0.0000 ( 12956 PWs)   bands (ev):

   -77.7467 -49.0057 -48.9996 -48.8313 -23.4284 -23.3099 -20.9822 -19.6203
   -13.1703 -10.4351  -9.5659  -9.4827  -9.2446  -9.1681  -8.7866  -8.5870
    -8.5396  -7.4560  -7.4393  -6.8634  -5.2031

     occupation numbers 
     1.0000   1.0000   1.0000   1.0000   1.0000   1.0000   1.0000   1.0000
     1.0000   1.0000   1.0000   1.0000   1.0000   1.0000   1.0000   1.0000
     1.0000   1.0000   1.0000   1.0000   1.0000

          k = 0.0000 0.1650 0.0000 ( 13016 PWs)   bands (ev):

   -77.7442 -49.0280 -49.0048 -48.8275 -23.2029 -23.0870 -20.8338 -19.5482
   -13.0420 -10.5820 -10.4000 -10.2359  -9.4495  -9.3833  -9.1614  -8.4515
    -8.3727  -7.6479  -7.6309  -6.8543  -5.4098

     occupation numbers 
     1.0000   1.0000   1.0000   1.0000   1.0000   1.0000   1.0000   1.0000
     1.0000   1.0000   1.0000   1.0000   1.0000   1.0000   1.0000   1.0000
     1.0000   1.0000   1.0000   1.0000   1.0000

          k = 0.0000 0.2474 0.0000 ( 13030 PWs)   bands (ev):

   -77.7406 -49.0601 -49.0122 -48.8219 -22.8423 -22.7303 -20.6178 -19.4494
   -12.9656 -11.6468 -11.3262 -10.2380  -9.7281  -9.6665  -9.6181  -8.2388
    -8.2084  -7.9384  -7.8799  -6.9652  -5.7026

     occupation numbers 
     1.0000   1.0000   1.0000   1.0000   1.0000   1.0000   1.0000   1.0000
     1.0000   1.0000   1.0000   1.0000   1.0000   1.0000   1.0000   1.0000
     1.0000   1.0000   1.0000   1.0000   1.0000

          k = 0.0000 0.3299 0.0000 ( 13068 PWs)   bands (ev):

   -77.7366 -49.0955 -49.0205 -48.8158 -22.3743 -22.2672 -20.3836 -19.3575
   -13.3347 -12.7678 -11.7955 -10.2978 -10.0128  -9.9704  -9.9499  -8.3350
    -8.1443  -7.9980  -7.9662  -7.0638  -5.9249

     occupation numbers 
     1.0000   1.0000   1.0000   1.0000   1.0000   1.0000   1.0000   1.0000
     1.0000   1.0000   1.0000   1.0000   1.0000   1.0000   1.0000   1.0000
     1.0000   1.0000   1.0000   1.0000   1.0000

          k = 0.0000 0.4124 0.0000 ( 13066 PWs)   bands (ev):

   -77.7329 -49.1272 -49.0279 -48.8103 -21.8525 -21.7513 -20.2002 -19.3171
   -14.1013 -13.7323 -11.7530 -10.6348 -10.2497 -10.1835 -10.0618  -8.6001
    -8.3460  -7.8341  -7.7162  -7.1097  -6.0025

     occupation numbers 
     1.0000   1.0000   1.0000   1.0000   1.0000   1.0000   1.0000   1.0000
     1.0000   1.0000   1.0000   1.0000   1.0000   1.0000   1.0000   1.0000
     1.0000   1.0000   1.0000   1.0000   1.0000

          k = 0.0000 0.4949 0.0000 ( 13084 PWs)   bands (ev):

   -77.7304 -49.1491 -49.0330 -48.8064 -21.3836 -21.2902 -20.1306 -19.3531
   -14.7274 -14.3938 -11.6243 -10.9458 -10.4041 -10.3352 -10.1418  -8.7147
    -8.4806  -7.6719  -7.5235  -7.1193  -5.9855

     occupation numbers 
     1.0000   1.0000   1.0000   1.0000   1.0000   1.0000   1.0000   1.0000
     1.0000   1.0000   1.0000   1.0000   1.0000   1.0000   1.0000   1.0000
     1.0000   1.0000   1.0000   1.0000   1.0000

          k = 0.0000-0.5774 0.0000 ( 13122 PWs)   bands (ev):

   -77.7295 -49.1569 -49.0348 -48.8051 -21.1730 -21.0843 -20.1396 -19.3954
   -14.9623 -14.6307 -11.5555 -11.0817 -10.4575 -10.3876 -10.1845  -8.7368
    -8.5273  -7.5949  -7.4505  -7.1184  -5.9665

     occupation numbers 
     1.0000   1.0000   1.0000   1.0000   1.0000   1.0000   1.0000   1.0000
     1.0000   1.0000   1.0000   1.0000   1.0000   1.0000   1.0000   1.0000
     1.0000   1.0000   1.0000   1.0000   1.0000

          k = 0.0714 0.1237 0.0000 ( 12998 PWs)   bands (ev):

   -77.7450 -49.0206 -49.0034 -48.8287 -23.2773 -23.1606 -20.8817 -19.5712
   -13.0794 -10.4448 -10.1439 -10.0612  -9.4354  -9.3749  -8.9874  -8.5173
    -8.4146  -7.6290  -7.5315  -6.8300  -5.3380

     occupation numbers 
     1.0000   1.0000   1.0000   1.0000   1.0000   1.0000   1.0000   1.0000
     1.0000   1.0000   1.0000   1.0000   1.0000   1.0000   1.0000   1.0000
     1.0000   1.0000   1.0000   1.0000   1.0000

          k = 0.0714 0.2062 0.0000 ( 13029 PWs)   bands (ev):

   -77.7419 -49.0469 -49.0105 -48.8240 -22.9840 -22.8705 -20.6991 -19.4853
   -12.9640 -11.1798 -10.9570 -10.2508  -9.8150  -9.6898  -9.3135  -8.3602
    -8.2562  -7.9661  -7.6350  -6.9050  -5.5956

     occupation numbers 
     1.0000   1.0000   1.0000   1.0000   1.0000   1.0000   1.0000   1.0000
     1.0000   1.0000   1.0000   1.0000   1.0000   1.0000   1.0000   1.0000
     1.0000   1.0000   1.0000   1.0000   1.0000

          k = 0.0714 0.2887 0.0000 ( 13055 PWs)   bands (ev):

   -77.7381 -49.0797 -49.0193 -48.8182 -22.5684 -22.4592 -20.4728 -19.3885
   -13.0756 -12.2509 -11.6413 -10.2999 -10.1367 -10.0083  -9.6911  -8.3913
    -8.1506  -8.0687  -7.7751  -7.0330  -5.8553

     occupation numbers 
     1.0000   1.0000   1.0000   1.0000   1.0000   1.0000   1.0000   1.0000
     1.0000   1.0000   1.0000   1.0000   1.0000   1.0000   1.0000   1.0000
     1.0000   1.0000   1.0000   1.0000   1.0000

          k = 0.0714 0.3712 0.0000 ( 13099 PWs)   bands (ev):

   -77.7343 -49.1122 -49.0282 -48.8124 -22.0691 -21.9652 -20.2620 -19.3205
   -13.7012 -13.2673 -11.7724 -10.6356 -10.3799 -10.1377  -9.9786  -8.7149
    -8.0825  -7.9345  -7.8100  -7.1009  -5.9986

     occupation numbers 
     1.0000   1.0000   1.0000   1.0000   1.0000   1.0000   1.0000   1.0000
     1.0000   1.0000   1.0000   1.0000   1.0000   1.0000   1.0000   1.0000
     1.0000   1.0000   1.0000   1.0000   1.0000

          k = 0.0714 0.4536 0.0000 ( 13101 PWs)   bands (ev):

   -77.7312 -49.1382 -49.0353 -48.8077 -21.5609 -21.4639 -20.1373 -19.3213
   -14.4167 -14.0705 -11.6687 -10.9265 -10.5856 -10.3959 -10.0674  -8.8580
    -8.2772  -7.7824  -7.6482  -7.0971  -6.0120

     occupation numbers 
     1.0000   1.0000   1.0000   1.0000   1.0000   1.0000   1.0000   1.0000
     1.0000   1.0000   1.0000   1.0000   1.0000   1.0000   1.0000   1.0000
     1.0000   1.0000   1.0000   1.0000   1.0000

          k = 0.0714 0.5361 0.0000 ( 13102 PWs)   bands (ev):

   -77.7295 -49.1526 -49.0392 -48.8051 -21.1939 -21.1044 -20.1255 -19.3767
   -14.8523 -14.5185 -11.5719 -11.1079 -10.6657 -10.5878 -10.1444  -8.8459
    -8.4398  -7.6865  -7.5157  -7.0769  -5.9772

     occupation numbers 
     1.0000   1.0000   1.0000   1.0000   1.0000   1.0000   1.0000   1.0000
     1.0000   1.0000   1.0000   1.0000   1.0000   1.0000   1.0000   1.0000
     1.0000   1.0000   1.0000   1.0000   1.0000

          k = 0.1429 0.2474 0.0000 ( 13054 PWs)   bands (ev):

   -77.7387 -49.0726 -49.0204 -48.8190 -22.6348 -22.5249 -20.5053 -19.4004
   -12.9959 -11.9856 -11.4868 -10.3957 -10.2899 -10.0641  -9.5582  -8.4459
    -8.2336  -8.0865  -7.5986  -7.0250  -5.8247

     occupation numbers 
     1.0000   1.0000   1.0000   1.0000   1.0000   1.0000   1.0000   1.0000
     1.0000   1.0000   1.0000   1.0000   1.0000   1.0000   1.0000   1.0000
     1.0000   1.0000   1.0000   1.0000   1.0000

          k = 0.1429 0.3299 0.0000 ( 13096 PWs)   bands (ev):

   -77.7351 -49.1002 -49.0321 -48.8135 -22.1838 -22.0785 -20.2997 -19.3246
   -13.3954 -12.8518 -11.6934 -10.9181 -10.7391 -10.0428  -9.8586  -8.8645
    -8.1308  -7.9769  -7.5858  -7.1532  -6.0000

     occupation numbers 
     1.0000   1.0000   1.0000   1.0000   1.0000   1.0000   1.0000   1.0000
     1.0000   1.0000   1.0000   1.0000   1.0000   1.0000   1.0000   1.0000
     1.0000   1.0000   1.0000   1.0000   1.0000

          k = 0.1429 0.4124 0.0000 ( 13108 PWs)   bands (ev):

   -77.7318 -49.1246 -49.0430 -48.8085 -21.6843 -21.5849 -20.1456 -19.2971
   -14.0318 -13.6455 -11.6824 -11.2886 -11.0743 -10.2249  -9.9937  -9.0975
    -8.1002  -8.0055  -7.6023  -7.1252  -6.0494

     occupation numbers 
     1.0000   1.0000   1.0000   1.0000   1.0000   1.0000   1.0000   1.0000
     1.0000   1.0000   1.0000   1.0000   1.0000   1.0000   1.0000   1.0000
     1.0000   1.0000   1.0000   1.0000   1.0000

          k = 0.1429 0.4949 0.0000 ( 13102 PWs)   bands (ev):

   -77.7295 -49.1413 -49.0506 -48.8051 -21.2388 -21.1472 -20.0970 -19.3366
   -14.5592 -14.2122 -11.7351 -11.4978 -11.1036 -10.5357 -10.1060  -9.0530
    -8.2974  -8.0341  -7.5123  -7.0330  -6.0031

     occupation numbers 
     1.0000   1.0000   1.0000   1.0000   1.0000   1.0000   1.0000   1.0000
     1.0000   1.0000   1.0000   1.0000   1.0000   1.0000   1.0000   1.0000
     1.0000   1.0000   1.0000   1.0000   1.0000

          k = 0.1429 0.5774 0.0000 ( 13088 PWs)   bands (ev):

   -77.7287 -49.1473 -49.0533 -48.8038 -21.0397 -20.9521 -20.1136 -19.3771
   -14.7610 -14.4189 -11.7812 -11.5693 -10.9890 -10.7399 -10.1706  -8.9506
    -8.4583  -8.0303  -7.4531  -6.9935  -5.9662

     occupation numbers 
     1.0000   1.0000   1.0000   1.0000   1.0000   1.0000   1.0000   1.0000
     1.0000   1.0000   1.0000   1.0000   1.0000   1.0000   1.0000   1.0000
     1.0000   1.0000   1.0000   1.0000   1.0000

          k = 0.2143 0.3712 0.0000 ( 13100 PWs)   bands (ev):

   -77.7320 -49.1176 -49.0478 -48.8088 -21.7282 -21.6280 -20.1494 -19.2884
   -13.8306 -13.4020 -11.6988 -11.4559 -11.4248 -10.0560  -9.9785  -9.2191
    -8.2614  -7.9249  -7.4893  -7.2025  -6.0663

     occupation numbers 
     1.0000   1.0000   1.0000   1.0000   1.0000   1.0000   1.0000   1.0000
     1.0000   1.0000   1.0000   1.0000   1.0000   1.0000   1.0000   1.0000
     1.0000   1.0000   1.0000   1.0000   1.0000

          k = 0.2143 0.4536 0.0000 ( 13103 PWs)   bands (ev):

   -77.7295 -49.1297 -49.0624 -48.8051 -21.2727 -21.1795 -20.0768 -19.3064
   -14.2422 -13.8584 -12.1383 -11.9767 -11.2808 -10.2640 -10.0726  -9.2505
    -8.4944  -8.0429  -7.4941  -7.0480  -6.0205

     occupation numbers 
     1.0000   1.0000   1.0000   1.0000   1.0000   1.0000   1.0000   1.0000
     1.0000   1.0000   1.0000   1.0000   1.0000   1.0000   1.0000   1.0000
     1.0000   1.0000   1.0000   1.0000   1.0000

          k = 0.2143 0.5361 0.0000 ( 13118 PWs)   bands (ev):

   -77.7282 -49.1356 -49.0712 -48.8030 -20.9496 -20.8623 -20.0931 -19.3591
   -14.5010 -14.1317 -12.3902 -12.2533 -11.0443 -10.4960 -10.2055  -9.0633
    -8.7062  -8.2450  -7.4271  -6.9311  -5.9408

     occupation numbers 
     1.0000   1.0000   1.0000   1.0000   1.0000   1.0000   1.0000   1.0000
     1.0000   1.0000   1.0000   1.0000   1.0000   1.0000   1.0000   1.0000
     1.0000   1.0000   1.0000   1.0000   1.0000

          k = 0.2857 0.4949 0.0000 ( 13108 PWs)   bands (ev):

   -77.7280 -49.1273 -49.0816 -48.8027 -20.9219 -20.8345 -20.0821 -19.3480
   -14.3145 -13.9038 -12.7446 -12.6253 -11.0495 -10.3324 -10.1387  -9.2818
    -8.8213  -8.2535  -7.4261  -6.9137  -5.9253

     occupation numbers 
     1.0000   1.0000   1.0000   1.0000   1.0000   1.0000   1.0000   1.0000
     1.0000   1.0000   1.0000   1.0000   1.0000   1.0000   1.0000   1.0000
     1.0000   1.0000   1.0000   1.0000   1.0000

          k = 0.2857 0.5774 0.0000 ( 13098 PWs)   bands (ev):

   -77.7274 -49.1235 -49.0915 -48.8018 -20.7728 -20.6817 -20.1138 -19.3766
   -14.3132 -13.8758 -12.9900 -12.9083 -10.9112 -10.4034 -10.1008  -9.4471
    -8.7531  -8.4496  -7.3892  -6.8539  -5.8673

     occupation numbers 
     1.0000   1.0000   1.0000   1.0000   1.0000   1.0000   1.0000   1.0000
     1.0000   1.0000   1.0000   1.0000   1.0000   1.0000   1.0000   1.0000
     1.0000   1.0000   1.0000   1.0000   1.0000

          k =-0.0714 0.0412 0.0000 ( 12956 PWs)   bands (ev):

   -77.7467 -49.0058 -48.9996 -48.8313 -23.4284 -23.3099 -20.9822 -19.6203
   -13.1704 -10.4351  -9.5664  -9.4844  -9.2441  -9.1663  -8.7867  -8.5869
    -8.5396  -7.4550  -7.4400  -6.8637  -5.2031

     occupation numbers 
     1.0000   1.0000   1.0000   1.0000   1.0000   1.0000   1.0000   1.0000
     1.0000   1.0000   1.0000   1.0000   1.0000   1.0000   1.0000   1.0000
     1.0000   1.0000   1.0000   1.0000   1.0000

          k = 0.0714 0.0412 0.0000 ( 12956 PWs)   bands (ev):

   -77.7467 -49.0057 -48.9996 -48.8313 -23.4284 -23.3099 -20.9822 -19.6203
   -13.1703 -10.4351  -9.5659  -9.4827  -9.2446  -9.1681  -8.7866  -8.5870
    -8.5396  -7.4560  -7.4393  -6.8634  -5.2031

     occupation numbers 
     1.0000   1.0000   1.0000   1.0000   1.0000   1.0000   1.0000   1.0000
     1.0000   1.0000   1.0000   1.0000   1.0000   1.0000   1.0000   1.0000
     1.0000   1.0000   1.0000   1.0000   1.0000

          k =-0.1429 0.0825 0.0000 ( 13016 PWs)   bands (ev):

   -77.7442 -49.0280 -49.0048 -48.8275 -23.2029 -23.0870 -20.8338 -19.5483
   -13.0420 -10.5822 -10.4008 -10.2367  -9.4491  -9.3815  -9.1615  -8.4515
    -8.3727  -7.6467  -7.6315  -6.8551  -5.4098

     occupation numbers 
     1.0000   1.0000   1.0000   1.0000   1.0000   1.0000   1.0000   1.0000
     1.0000   1.0000   1.0000   1.0000   1.0000   1.0000   1.0000   1.0000
     1.0000   1.0000   1.0000   1.0000   1.0000

          k = 0.1429 0.0825 0.0000 ( 13016 PWs)   bands (ev):

   -77.7442 -49.0280 -49.0048 -48.8275 -23.2029 -23.0870 -20.8338 -19.5482
   -13.0420 -10.5820 -10.4000 -10.2359  -9.4495  -9.3833  -9.1614  -8.4515
    -8.3727  -7.6479  -7.6309  -6.8543  -5.4098

     occupation numbers 
     1.0000   1.0000   1.0000   1.0000   1.0000   1.0000   1.0000   1.0000
     1.0000   1.0000   1.0000   1.0000   1.0000   1.0000   1.0000   1.0000
     1.0000   1.0000   1.0000   1.0000   1.0000

          k =-0.2143 0.1237 0.0000 ( 13030 PWs)   bands (ev):

   -77.7406 -49.0601 -49.0122 -48.8219 -22.8423 -22.7302 -20.6178 -19.4495
   -12.9659 -11.6473 -11.3268 -10.2382  -9.7278  -9.6648  -9.6180  -8.2388
    -8.2083  -7.9372  -7.8803  -6.9664  -5.7026

     occupation numbers 
     1.0000   1.0000   1.0000   1.0000   1.0000   1.0000   1.0000   1.0000
     1.0000   1.0000   1.0000   1.0000   1.0000   1.0000   1.0000   1.0000
     1.0000   1.0000   1.0000   1.0000   1.0000

          k = 0.2143 0.1237 0.0000 ( 13030 PWs)   bands (ev):

   -77.7406 -49.0601 -49.0122 -48.8219 -22.8423 -22.7303 -20.6178 -19.4494
   -12.9656 -11.6468 -11.3262 -10.2380  -9.7281  -9.6665  -9.6181  -8.2388
    -8.2084  -7.9384  -7.8799  -6.9652  -5.7026

     occupation numbers 
     1.0000   1.0000   1.0000   1.0000   1.0000   1.0000   1.0000   1.0000
     1.0000   1.0000   1.0000   1.0000   1.0000   1.0000   1.0000   1.0000
     1.0000   1.0000   1.0000   1.0000   1.0000

          k =-0.2857 0.1650 0.0000 ( 13068 PWs)   bands (ev):

   -77.7366 -49.0955 -49.0204 -48.8158 -22.3743 -22.2669 -20.3837 -19.3576
   -13.3354 -12.7682 -11.7956 -10.2984 -10.0124  -9.9698  -9.9484  -8.3339
    -8.1450  -7.9979  -7.9660  -7.0652  -5.9249

     occupation numbers 
     1.0000   1.0000   1.0000   1.0000   1.0000   1.0000   1.0000   1.0000
     1.0000   1.0000   1.0000   1.0000   1.0000   1.0000   1.0000   1.0000
     1.0000   1.0000   1.0000   1.0000   1.0000

          k = 0.2857 0.1650 0.0000 ( 13068 PWs)   bands (ev):

   -77.7366 -49.0955 -49.0205 -48.8158 -22.3743 -22.2672 -20.3836 -19.3575
   -13.3347 -12.7678 -11.7955 -10.2979 -10.0128  -9.9704  -9.9499  -8.3350
    -8.1443  -7.9980  -7.9662  -7.0638  -5.9249

     occupation numbers 
     1.0000   1.0000   1.0000   1.0000   1.0000   1.0000   1.0000   1.0000
     1.0000   1.0000   1.0000   1.0000   1.0000   1.0000   1.0000   1.0000
     1.0000   1.0000   1.0000   1.0000   1.0000

          k =-0.3571 0.2062 0.0000 ( 13066 PWs)   bands (ev):

   -77.7329 -49.1272 -49.0279 -48.8103 -21.8525 -21.7508 -20.2005 -19.3174
   -14.1020 -13.7325 -11.7532 -10.6350 -10.2493 -10.1821 -10.0613  -8.5991
    -8.3464  -7.8340  -7.7162  -7.1113  -6.0025

     occupation numbers 
     1.0000   1.0000   1.0000   1.0000   1.0000   1.0000   1.0000   1.0000
     1.0000   1.0000   1.0000   1.0000   1.0000   1.0000   1.0000   1.0000
     1.0000   1.0000   1.0000   1.0000   1.0000

          k = 0.3571 0.2062 0.0000 ( 13066 PWs)   bands (ev):

   -77.7329 -49.1272 -49.0279 -48.8103 -21.8525 -21.7513 -20.2002 -19.3171
   -14.1013 -13.7323 -11.7530 -10.6348 -10.2497 -10.1835 -10.0618  -8.6001
    -8.3460  -7.8341  -7.7162  -7.1097  -6.0025

     occupation numbers 
     1.0000   1.0000   1.0000   1.0000   1.0000   1.0000   1.0000   1.0000
     1.0000   1.0000   1.0000   1.0000   1.0000   1.0000   1.0000   1.0000
     1.0000   1.0000   1.0000   1.0000   1.0000

          k =-0.4286 0.2474 0.0000 ( 13084 PWs)   bands (ev):

   -77.7304 -49.1491 -49.0330 -48.8064 -21.3836 -21.2893 -20.1312 -19.3535
   -14.7281 -14.3939 -11.6248 -10.9455 -10.4038 -10.3339 -10.1414  -8.7137
    -8.4810  -7.6716  -7.5236  -7.1212  -5.9855

     occupation numbers 
     1.0000   1.0000   1.0000   1.0000   1.0000   1.0000   1.0000   1.0000
     1.0000   1.0000   1.0000   1.0000   1.0000   1.0000   1.0000   1.0000
     1.0000   1.0000   1.0000   1.0000   1.0000

          k = 0.4286 0.2474 0.0000 ( 13084 PWs)   bands (ev):

   -77.7304 -49.1491 -49.0330 -48.8064 -21.3836 -21.2902 -20.1306 -19.3531
   -14.7274 -14.3938 -11.6243 -10.9458 -10.4041 -10.3352 -10.1418  -8.7147
    -8.4806  -7.6719  -7.5235  -7.1193  -5.9855

     occupation numbers 
     1.0000   1.0000   1.0000   1.0000   1.0000   1.0000   1.0000   1.0000
     1.0000   1.0000   1.0000   1.0000   1.0000   1.0000   1.0000   1.0000
     1.0000   1.0000   1.0000   1.0000   1.0000

          k = 0.5000-0.2887 0.0000 ( 13122 PWs)   bands (ev):

   -77.7295 -49.1569 -49.0348 -48.8051 -21.1731 -21.0830 -20.1404 -19.3960
   -14.9629 -14.6307 -11.5565 -11.0810 -10.4572 -10.3863 -10.1842  -8.7358
    -8.5276  -7.5944  -7.4506  -7.1206  -5.9664

     occupation numbers 
     1.0000   1.0000   1.0000   1.0000   1.0000   1.0000   1.0000   1.0000
     1.0000   1.0000   1.0000   1.0000   1.0000   1.0000   1.0000   1.0000
     1.0000   1.0000   1.0000   1.0000   1.0000

          k =-0.5000-0.2887 0.0000 ( 13122 PWs)   bands (ev):

   -77.7295 -49.1569 -49.0348 -48.8051 -21.1730 -21.0843 -20.1396 -19.3954
   -14.9623 -14.6307 -11.5556 -11.0817 -10.4575 -10.3876 -10.1845  -8.7368
    -8.5273  -7.5949  -7.4505  -7.1184  -5.9665

     occupation numbers 
     1.0000   1.0000   1.0000   1.0000   1.0000   1.0000   1.0000   1.0000
     1.0000   1.0000   1.0000   1.0000   1.0000   1.0000   1.0000   1.0000
     1.0000   1.0000   1.0000   1.0000   1.0000

          k =-0.0714 0.1237 0.0000 ( 12998 PWs)   bands (ev):

   -77.7450 -49.0206 -49.0034 -48.8287 -23.2773 -23.1606 -20.8817 -19.5712
   -13.0795 -10.4448 -10.1443 -10.0628  -9.4351  -9.3729  -8.9874  -8.5175
    -8.4144  -7.6291  -7.5307  -6.8308  -5.3379

     occupation numbers 
     1.0000   1.0000   1.0000   1.0000   1.0000   1.0000   1.0000   1.0000
     1.0000   1.0000   1.0000   1.0000   1.0000   1.0000   1.0000   1.0000
     1.0000   1.0000   1.0000   1.0000   1.0000

          k = 0.1429 0.0000 0.0000 ( 12998 PWs)   bands (ev):

   -77.7450 -49.0206 -49.0034 -48.8287 -23.2773 -23.1606 -20.8817 -19.5712
   -13.0795 -10.4448 -10.1443 -10.0628  -9.4351  -9.3729  -8.9874  -8.5175
    -8.4144  -7.6291  -7.5307  -6.8308  -5.3380

     occupation numbers 
     1.0000   1.0000   1.0000   1.0000   1.0000   1.0000   1.0000   1.0000
     1.0000   1.0000   1.0000   1.0000   1.0000   1.0000   1.0000   1.0000
     1.0000   1.0000   1.0000   1.0000   1.0000

          k =-0.0714 0.2062 0.0000 ( 13029 PWs)   bands (ev):

   -77.7419 -49.0469 -49.0105 -48.8240 -22.9840 -22.8705 -20.6991 -19.4853
   -12.9641 -11.1802 -10.9576 -10.2508  -9.8147  -9.6888  -9.3135  -8.3604
    -8.2559  -7.9658  -7.6345  -6.9060  -5.5956

     occupation numbers 
     1.0000   1.0000   1.0000   1.0000   1.0000   1.0000   1.0000   1.0000
     1.0000   1.0000   1.0000   1.0000   1.0000   1.0000   1.0000   1.0000
     1.0000   1.0000   1.0000   1.0000   1.0000

          k =-0.1429 0.1650 0.0000 ( 13029 PWs)   bands (ev):

   -77.7419 -49.0469 -49.0105 -48.8240 -22.9840 -22.8704 -20.6991 -19.4853
   -12.9642 -11.1804 -10.9580 -10.2509  -9.8144  -9.6882  -9.3133  -8.3604
    -8.2559  -7.9657  -7.6343  -6.9064  -5.5956

     occupation numbers 
     1.0000   1.0000   1.0000   1.0000   1.0000   1.0000   1.0000   1.0000
     1.0000   1.0000   1.0000   1.0000   1.0000   1.0000   1.0000   1.0000
     1.0000   1.0000   1.0000   1.0000   1.0000

          k = 0.2143 0.0412 0.0000 ( 13029 PWs)   bands (ev):

   -77.7419 -49.0469 -49.0105 -48.8240 -22.9840 -22.8705 -20.6991 -19.4853
   -12.9641 -11.1803 -10.9576 -10.2508  -9.8147  -9.6888  -9.3135  -8.3604
    -8.2559  -7.9658  -7.6345  -6.9060  -5.5956

     occupation numbers 
     1.0000   1.0000   1.0000   1.0000   1.0000   1.0000   1.0000   1.0000
     1.0000   1.0000   1.0000   1.0000   1.0000   1.0000   1.0000   1.0000
     1.0000   1.0000   1.0000   1.0000   1.0000

          k =-0.1429-0.1650 0.0000 ( 13029 PWs)   bands (ev):

   -77.7419 -49.0469 -49.0105 -48.8240 -22.9840 -22.8705 -20.6991 -19.4853
   -12.9640 -11.1798 -10.9570 -10.2508  -9.8150  -9.6898  -9.3135  -8.3602
    -8.2562  -7.9661  -7.6350  -6.9050  -5.5956

     occupation numbers 
     1.0000   1.0000   1.0000   1.0000   1.0000   1.0000   1.0000   1.0000
     1.0000   1.0000   1.0000   1.0000   1.0000   1.0000   1.0000   1.0000
     1.0000   1.0000   1.0000   1.0000   1.0000

          k = 0.2143-0.0412 0.0000 ( 13029 PWs)   bands (ev):

   -77.7419 -49.0469 -49.0105 -48.8240 -22.9840 -22.8704 -20.6991 -19.4853
   -12.9642 -11.1805 -10.9580 -10.2509  -9.8144  -9.6882  -9.3133  -8.3604
    -8.2559  -7.9657  -7.6343  -6.9064  -5.5956

     occupation numbers 
     1.0000   1.0000   1.0000   1.0000   1.0000   1.0000   1.0000   1.0000
     1.0000   1.0000   1.0000   1.0000   1.0000   1.0000   1.0000   1.0000
     1.0000   1.0000   1.0000   1.0000   1.0000

          k =-0.0714 0.2887 0.0000 ( 13055 PWs)   bands (ev):

   -77.7381 -49.0797 -49.0193 -48.8182 -22.5683 -22.4591 -20.4728 -19.3886
   -13.0758 -12.2512 -11.6414 -10.2995 -10.1366 -10.0078  -9.6912  -8.3907
    -8.1511  -8.0679  -7.7754  -7.0338  -5.8552

     occupation numbers 
     1.0000   1.0000   1.0000   1.0000   1.0000   1.0000   1.0000   1.0000
     1.0000   1.0000   1.0000   1.0000   1.0000   1.0000   1.0000   1.0000
     1.0000   1.0000   1.0000   1.0000   1.0000

          k =-0.2143 0.2062 0.0000 ( 13055 PWs)   bands (ev):

   -77.7381 -49.0797 -49.0193 -48.8182 -22.5683 -22.4590 -20.4729 -19.3886
   -13.0762 -12.2515 -11.6416 -10.2998 -10.1361 -10.0070  -9.6908  -8.3907
    -8.1510  -8.0679  -7.7749  -7.0347  -5.8552

     occupation numbers 
     1.0000   1.0000   1.0000   1.0000   1.0000   1.0000   1.0000   1.0000
     1.0000   1.0000   1.0000   1.0000   1.0000   1.0000   1.0000   1.0000
     1.0000   1.0000   1.0000   1.0000   1.0000

          k = 0.2857 0.0825 0.0000 ( 13055 PWs)   bands (ev):

   -77.7381 -49.0797 -49.0193 -48.8182 -22.5683 -22.4591 -20.4728 -19.3885
   -13.0758 -12.2512 -11.6414 -10.2996 -10.1366 -10.0078  -9.6912  -8.3907
    -8.1511  -8.0679  -7.7754  -7.0338  -5.8552

     occupation numbers 
     1.0000   1.0000   1.0000   1.0000   1.0000   1.0000   1.0000   1.0000
     1.0000   1.0000   1.0000   1.0000   1.0000   1.0000   1.0000   1.0000
     1.0000   1.0000   1.0000   1.0000   1.0000

          k =-0.2143-0.2062 0.0000 ( 13055 PWs)   bands (ev):

   -77.7381 -49.0797 -49.0193 -48.8182 -22.5684 -22.4592 -20.4728 -19.3885
   -13.0756 -12.2509 -11.6413 -10.2999 -10.1366 -10.0083  -9.6911  -8.3913
    -8.1506  -8.0687  -7.7751  -7.0330  -5.8553

     occupation numbers 
     1.0000   1.0000   1.0000   1.0000   1.0000   1.0000   1.0000   1.0000
     1.0000   1.0000   1.0000   1.0000   1.0000   1.0000   1.0000   1.0000
     1.0000   1.0000   1.0000   1.0000   1.0000

          k = 0.2857-0.0825 0.0000 ( 13055 PWs)   bands (ev):

   -77.7381 -49.0797 -49.0193 -48.8182 -22.5683 -22.4590 -20.4729 -19.3886
   -13.0762 -12.2515 -11.6416 -10.2998 -10.1361 -10.0070  -9.6908  -8.3907
    -8.1510  -8.0679  -7.7749  -7.0347  -5.8552

     occupation numbers 
     1.0000   1.0000   1.0000   1.0000   1.0000   1.0000   1.0000   1.0000
     1.0000   1.0000   1.0000   1.0000   1.0000   1.0000   1.0000   1.0000
     1.0000   1.0000   1.0000   1.0000   1.0000

          k =-0.0714 0.3712 0.0000 ( 13099 PWs)   bands (ev):

   -77.7343 -49.1122 -49.0282 -48.8124 -22.0691 -21.9651 -20.2621 -19.3205
   -13.7014 -13.2675 -11.7723 -10.6355 -10.3794 -10.1377  -9.9789  -8.7139
    -8.0830  -7.9350  -7.8099  -7.1012  -5.9984

     occupation numbers 
     1.0000   1.0000   1.0000   1.0000   1.0000   1.0000   1.0000   1.0000
     1.0000   1.0000   1.0000   1.0000   1.0000   1.0000   1.0000   1.0000
     1.0000   1.0000   1.0000   1.0000   1.0000

          k =-0.2857 0.2474 0.0000 ( 13099 PWs)   bands (ev):

   -77.7343 -49.1122 -49.0282 -48.8124 -22.0691 -21.9649 -20.2622 -19.3207
   -13.7020 -13.2677 -11.7723 -10.6355 -10.3788 -10.1375  -9.9781  -8.7139
    -8.0826  -7.9345  -7.8101  -7.1025  -5.9985

     occupation numbers 
     1.0000   1.0000   1.0000   1.0000   1.0000   1.0000   1.0000   1.0000
     1.0000   1.0000   1.0000   1.0000   1.0000   1.0000   1.0000   1.0000
     1.0000   1.0000   1.0000   1.0000   1.0000

          k = 0.3571 0.1237 0.0000 ( 13099 PWs)   bands (ev):

   -77.7343 -49.1122 -49.0282 -48.8124 -22.0691 -21.9651 -20.2621 -19.3205
   -13.7014 -13.2675 -11.7723 -10.6355 -10.3794 -10.1377  -9.9789  -8.7139
    -8.0830  -7.9350  -7.8099  -7.1012  -5.9984

     occupation numbers 
     1.0000   1.0000   1.0000   1.0000   1.0000   1.0000   1.0000   1.0000
     1.0000   1.0000   1.0000   1.0000   1.0000   1.0000   1.0000   1.0000
     1.0000   1.0000   1.0000   1.0000   1.0000

          k =-0.2857-0.2474 0.0000 ( 13099 PWs)   bands (ev):

   -77.7343 -49.1122 -49.0282 -48.8124 -22.0691 -21.9652 -20.2620 -19.3205
   -13.7012 -13.2673 -11.7724 -10.6357 -10.3799 -10.1377  -9.9786  -8.7149
    -8.0825  -7.9345  -7.8100  -7.1009  -5.9986

     occupation numbers 
     1.0000   1.0000   1.0000   1.0000   1.0000   1.0000   1.0000   1.0000
     1.0000   1.0000   1.0000   1.0000   1.0000   1.0000   1.0000   1.0000
     1.0000   1.0000   1.0000   1.0000   1.0000

          k = 0.3571-0.1237 0.0000 ( 13099 PWs)   bands (ev):

   -77.7343 -49.1122 -49.0282 -48.8124 -22.0691 -21.9649 -20.2622 -19.3207
   -13.7020 -13.2677 -11.7723 -10.6355 -10.3788 -10.1375  -9.9781  -8.7139
    -8.0826  -7.9345  -7.8101  -7.1025  -5.9985

     occupation numbers 
     1.0000   1.0000   1.0000   1.0000   1.0000   1.0000   1.0000   1.0000
     1.0000   1.0000   1.0000   1.0000   1.0000   1.0000   1.0000   1.0000
     1.0000   1.0000   1.0000   1.0000   1.0000

          k =-0.0714 0.4536 0.0000 ( 13101 PWs)   bands (ev):

   -77.7312 -49.1382 -49.0353 -48.8077 -21.5609 -21.4638 -20.1373 -19.3213
   -14.4168 -14.0705 -11.6686 -10.9265 -10.5852 -10.3960 -10.0676  -8.8567
    -8.2784  -7.7826  -7.6479  -7.0973  -6.0117

     occupation numbers 
     1.0000   1.0000   1.0000   1.0000   1.0000   1.0000   1.0000   1.0000
     1.0000   1.0000   1.0000   1.0000   1.0000   1.0000   1.0000   1.0000
     1.0000   1.0000   1.0000   1.0000   1.0000

          k =-0.3571 0.2887 0.0000 ( 13101 PWs)   bands (ev):

   -77.7312 -49.1382 -49.0353 -48.8077 -21.5609 -21.4632 -20.1377 -19.3217
   -14.4174 -14.0707 -11.6689 -10.9264 -10.5846 -10.3954 -10.0672  -8.8567
    -8.2777  -7.7825  -7.6482  -7.0988  -6.0118

     occupation numbers 
     1.0000   1.0000   1.0000   1.0000   1.0000   1.0000   1.0000   1.0000
     1.0000   1.0000   1.0000   1.0000   1.0000   1.0000   1.0000   1.0000
     1.0000   1.0000   1.0000   1.0000   1.0000

          k = 0.4286 0.1650 0.0000 ( 13101 PWs)   bands (ev):

   -77.7312 -49.1382 -49.0353 -48.8077 -21.5609 -21.4638 -20.1373 -19.3213
   -14.4168 -14.0705 -11.6686 -10.9265 -10.5852 -10.3960 -10.0676  -8.8567
    -8.2784  -7.7826  -7.6479  -7.0973  -6.0117

     occupation numbers 
     1.0000   1.0000   1.0000   1.0000   1.0000   1.0000   1.0000   1.0000
     1.0000   1.0000   1.0000   1.0000   1.0000   1.0000   1.0000   1.0000
     1.0000   1.0000   1.0000   1.0000   1.0000

          k =-0.3571-0.2887 0.0000 ( 13101 PWs)   bands (ev):

   -77.7312 -49.1382 -49.0353 -48.8077 -21.5609 -21.4639 -20.1373 -19.3213
   -14.4167 -14.0705 -11.6687 -10.9265 -10.5856 -10.3959 -10.0674  -8.8580
    -8.2772  -7.7823  -7.6482  -7.0971  -6.0120

     occupation numbers 
     1.0000   1.0000   1.0000   1.0000   1.0000   1.0000   1.0000   1.0000
     1.0000   1.0000   1.0000   1.0000   1.0000   1.0000   1.0000   1.0000
     1.0000   1.0000   1.0000   1.0000   1.0000

          k = 0.4286-0.1650 0.0000 ( 13101 PWs)   bands (ev):

   -77.7312 -49.1382 -49.0353 -48.8077 -21.5609 -21.4632 -20.1377 -19.3217
   -14.4174 -14.0707 -11.6689 -10.9264 -10.5846 -10.3954 -10.0672  -8.8567
    -8.2777  -7.7825  -7.6482  -7.0988  -6.0118

     occupation numbers 
     1.0000   1.0000   1.0000   1.0000   1.0000   1.0000   1.0000   1.0000
     1.0000   1.0000   1.0000   1.0000   1.0000   1.0000   1.0000   1.0000
     1.0000   1.0000   1.0000   1.0000   1.0000

          k =-0.0714 0.5361 0.0000 ( 13102 PWs)   bands (ev):

   -77.7295 -49.1526 -49.0392 -48.8051 -21.1939 -21.1043 -20.1256 -19.3767
   -14.8523 -14.5186 -11.5719 -11.1079 -10.6655 -10.5880 -10.1445  -8.8451
    -8.4405  -7.6865  -7.5156  -7.0770  -5.9771

     occupation numbers 
     1.0000   1.0000   1.0000   1.0000   1.0000   1.0000   1.0000   1.0000
     1.0000   1.0000   1.0000   1.0000   1.0000   1.0000   1.0000   1.0000
     1.0000   1.0000   1.0000   1.0000   1.0000

          k =-0.4286 0.3299 0.0000 ( 13102 PWs)   bands (ev):

   -77.7295 -49.1526 -49.0392 -48.8051 -21.1941 -21.1032 -20.1263 -19.3772
   -14.8530 -14.5186 -11.5725 -11.1076 -10.6648 -10.5871 -10.1442  -8.8447
    -8.4401  -7.6865  -7.5156  -7.0788  -5.9772

     occupation numbers 
     1.0000   1.0000   1.0000   1.0000   1.0000   1.0000   1.0000   1.0000
     1.0000   1.0000   1.0000   1.0000   1.0000   1.0000   1.0000   1.0000
     1.0000   1.0000   1.0000   1.0000   1.0000

          k = 0.5000 0.2062 0.0000 ( 13102 PWs)   bands (ev):

   -77.7295 -49.1526 -49.0392 -48.8051 -21.1940 -21.1043 -20.1256 -19.3767
   -14.8523 -14.5186 -11.5719 -11.1079 -10.6655 -10.5880 -10.1445  -8.8451
    -8.4405  -7.6865  -7.5156  -7.0770  -5.9771

     occupation numbers 
     1.0000   1.0000   1.0000   1.0000   1.0000   1.0000   1.0000   1.0000
     1.0000   1.0000   1.0000   1.0000   1.0000   1.0000   1.0000   1.0000
     1.0000   1.0000   1.0000   1.0000   1.0000

          k =-0.4286-0.3299 0.0000 ( 13102 PWs)   bands (ev):

   -77.7295 -49.1526 -49.0392 -48.8051 -21.1939 -21.1044 -20.1255 -19.3767
   -14.8523 -14.5185 -11.5719 -11.1079 -10.6657 -10.5878 -10.1444  -8.8459
    -8.4398  -7.6865  -7.5157  -7.0770  -5.9772

     occupation numbers 
     1.0000   1.0000   1.0000   1.0000   1.0000   1.0000   1.0000   1.0000
     1.0000   1.0000   1.0000   1.0000   1.0000   1.0000   1.0000   1.0000
     1.0000   1.0000   1.0000   1.0000   1.0000

          k = 0.5000-0.2062 0.0000 ( 13102 PWs)   bands (ev):

   -77.7295 -49.1526 -49.0392 -48.8051 -21.1941 -21.1032 -20.1263 -19.3772
   -14.8530 -14.5186 -11.5725 -11.1076 -10.6648 -10.5871 -10.1442  -8.8447
    -8.4401  -7.6865  -7.5156  -7.0788  -5.9772

     occupation numbers 
     1.0000   1.0000   1.0000   1.0000   1.0000   1.0000   1.0000   1.0000
     1.0000   1.0000   1.0000   1.0000   1.0000   1.0000   1.0000   1.0000
     1.0000   1.0000   1.0000   1.0000   1.0000

          k =-0.1429 0.2474 0.0000 ( 13054 PWs)   bands (ev):

   -77.7387 -49.0726 -49.0204 -48.8190 -22.6347 -22.5248 -20.5054 -19.4004
   -12.9963 -11.9862 -11.4873 -10.3950 -10.2892 -10.0634  -9.5582  -8.4455
    -8.2339  -8.0858  -7.5981  -7.0267  -5.8246

     occupation numbers 
     1.0000   1.0000   1.0000   1.0000   1.0000   1.0000   1.0000   1.0000
     1.0000   1.0000   1.0000   1.0000   1.0000   1.0000   1.0000   1.0000
     1.0000   1.0000   1.0000   1.0000   1.0000

          k = 0.2857 0.0000 0.0000 ( 13054 PWs)   bands (ev):

   -77.7387 -49.0726 -49.0204 -48.8190 -22.6347 -22.5248 -20.5054 -19.4004
   -12.9963 -11.9862 -11.4873 -10.3950 -10.2892 -10.0634  -9.5582  -8.4455
    -8.2339  -8.0858  -7.5981  -7.0267  -5.8246

     occupation numbers 
     1.0000   1.0000   1.0000   1.0000   1.0000   1.0000   1.0000   1.0000
     1.0000   1.0000   1.0000   1.0000   1.0000   1.0000   1.0000   1.0000
     1.0000   1.0000   1.0000   1.0000   1.0000

          k =-0.1429 0.3299 0.0000 ( 13096 PWs)   bands (ev):

   -77.7351 -49.1002 -49.0321 -48.8135 -22.1838 -22.0784 -20.2998 -19.3247
   -13.3959 -12.8523 -11.6934 -10.9177 -10.7381 -10.0429  -9.8589  -8.8637
    -8.1308  -7.9764  -7.5865  -7.1542  -5.9998

     occupation numbers 
     1.0000   1.0000   1.0000   1.0000   1.0000   1.0000   1.0000   1.0000
     1.0000   1.0000   1.0000   1.0000   1.0000   1.0000   1.0000   1.0000
     1.0000   1.0000   1.0000   1.0000   1.0000

          k =-0.2143 0.2887 0.0000 ( 13096 PWs)   bands (ev):

   -77.7351 -49.1002 -49.0321 -48.8135 -22.1838 -22.0783 -20.2998 -19.3247
   -13.3961 -12.8525 -11.6934 -10.9176 -10.7378 -10.0429  -9.8586  -8.8638
    -8.1308  -7.9763  -7.5860  -7.1550  -5.9998

     occupation numbers 
     1.0000   1.0000   1.0000   1.0000   1.0000   1.0000   1.0000   1.0000
     1.0000   1.0000   1.0000   1.0000   1.0000   1.0000   1.0000   1.0000
     1.0000   1.0000   1.0000   1.0000   1.0000

          k = 0.3571 0.0412 0.0000 ( 13096 PWs)   bands (ev):

   -77.7351 -49.1002 -49.0321 -48.8135 -22.1838 -22.0784 -20.2998 -19.3247
   -13.3959 -12.8523 -11.6934 -10.9177 -10.7381 -10.0429  -9.8589  -8.8637
    -8.1308  -7.9764  -7.5865  -7.1542  -5.9998

     occupation numbers 
     1.0000   1.0000   1.0000   1.0000   1.0000   1.0000   1.0000   1.0000
     1.0000   1.0000   1.0000   1.0000   1.0000   1.0000   1.0000   1.0000
     1.0000   1.0000   1.0000   1.0000   1.0000

          k =-0.2143-0.2887 0.0000 ( 13096 PWs)   bands (ev):

   -77.7351 -49.1002 -49.0321 -48.8135 -22.1838 -22.0785 -20.2997 -19.3246
   -13.3954 -12.8518 -11.6934 -10.9181 -10.7391 -10.0428  -9.8586  -8.8645
    -8.1308  -7.9769  -7.5858  -7.1532  -6.0000

     occupation numbers 
     1.0000   1.0000   1.0000   1.0000   1.0000   1.0000   1.0000   1.0000
     1.0000   1.0000   1.0000   1.0000   1.0000   1.0000   1.0000   1.0000
     1.0000   1.0000   1.0000   1.0000   1.0000

          k = 0.3571-0.0412 0.0000 ( 13096 PWs)   bands (ev):

   -77.7351 -49.1002 -49.0321 -48.8135 -22.1838 -22.0783 -20.2998 -19.3247
   -13.3961 -12.8525 -11.6934 -10.9176 -10.7378 -10.0429  -9.8586  -8.8638
    -8.1308  -7.9763  -7.5860  -7.1550  -5.9998

     occupation numbers 
     1.0000   1.0000   1.0000   1.0000   1.0000   1.0000   1.0000   1.0000
     1.0000   1.0000   1.0000   1.0000   1.0000   1.0000   1.0000   1.0000
     1.0000   1.0000   1.0000   1.0000   1.0000

          k =-0.1429 0.4124 0.0000 ( 13108 PWs)   bands (ev):

   -77.7318 -49.1246 -49.0430 -48.8085 -21.6843 -21.5847 -20.1457 -19.2972
   -14.0321 -13.6458 -11.6822 -11.2885 -11.0737 -10.2251  -9.9941  -9.0963
    -8.1000  -8.0058  -7.6035  -7.1252  -6.0491

     occupation numbers 
     1.0000   1.0000   1.0000   1.0000   1.0000   1.0000   1.0000   1.0000
     1.0000   1.0000   1.0000   1.0000   1.0000   1.0000   1.0000   1.0000
     1.0000   1.0000   1.0000   1.0000   1.0000

          k =-0.2857 0.3299 0.0000 ( 13108 PWs)   bands (ev):

   -77.7318 -49.1246 -49.0430 -48.8085 -21.6843 -21.5844 -20.1459 -19.2974
   -14.0326 -13.6459 -11.6821 -11.2883 -11.0732 -10.2251  -9.9937  -9.0964
    -8.0994  -8.0057  -7.6034  -7.1263  -6.0492

     occupation numbers 
     1.0000   1.0000   1.0000   1.0000   1.0000   1.0000   1.0000   1.0000
     1.0000   1.0000   1.0000   1.0000   1.0000   1.0000   1.0000   1.0000
     1.0000   1.0000   1.0000   1.0000   1.0000

          k = 0.4286 0.0825 0.0000 ( 13108 PWs)   bands (ev):

   -77.7318 -49.1246 -49.0430 -48.8085 -21.6843 -21.5847 -20.1457 -19.2972
   -14.0321 -13.6458 -11.6822 -11.2885 -11.0737 -10.2251  -9.9941  -9.0963
    -8.1000  -8.0058  -7.6035  -7.1252  -6.0491

     occupation numbers 
     1.0000   1.0000   1.0000   1.0000   1.0000   1.0000   1.0000   1.0000
     1.0000   1.0000   1.0000   1.0000   1.0000   1.0000   1.0000   1.0000
     1.0000   1.0000   1.0000   1.0000   1.0000

          k =-0.2857-0.3299 0.0000 ( 13108 PWs)   bands (ev):

   -77.7318 -49.1246 -49.0430 -48.8085 -21.6843 -21.5849 -20.1456 -19.2971
   -14.0318 -13.6455 -11.6824 -11.2886 -11.0743 -10.2249  -9.9937  -9.0975
    -8.1002  -8.0055  -7.6023  -7.1252  -6.0494

     occupation numbers 
     1.0000   1.0000   1.0000   1.0000   1.0000   1.0000   1.0000   1.0000
     1.0000   1.0000   1.0000   1.0000   1.0000   1.0000   1.0000   1.0000
     1.0000   1.0000   1.0000   1.0000   1.0000

          k = 0.4286-0.0825 0.0000 ( 13108 PWs)   bands (ev):

   -77.7318 -49.1246 -49.0430 -48.8085 -21.6843 -21.5844 -20.1459 -19.2974
   -14.0326 -13.6459 -11.6821 -11.2883 -11.0732 -10.2251  -9.9937  -9.0964
    -8.0994  -8.0057  -7.6034  -7.1263  -6.0492

     occupation numbers 
     1.0000   1.0000   1.0000   1.0000   1.0000   1.0000   1.0000   1.0000
     1.0000   1.0000   1.0000   1.0000   1.0000   1.0000   1.0000   1.0000
     1.0000   1.0000   1.0000   1.0000   1.0000

          k =-0.1429 0.4949 0.0000 ( 13102 PWs)   bands (ev):

   -77.7295 -49.1413 -49.0506 -48.8051 -21.2388 -21.1470 -20.0972 -19.3367
   -14.5593 -14.2123 -11.7349 -11.4976 -11.1033 -10.5359 -10.1064  -9.0518
    -8.2981  -8.0340  -7.5129  -7.0328  -6.0029

     occupation numbers 
     1.0000   1.0000   1.0000   1.0000   1.0000   1.0000   1.0000   1.0000
     1.0000   1.0000   1.0000   1.0000   1.0000   1.0000   1.0000   1.0000
     1.0000   1.0000   1.0000   1.0000   1.0000

          k =-0.3571 0.3712 0.0000 ( 13102 PWs)   bands (ev):

   -77.7295 -49.1413 -49.0506 -48.8051 -21.2388 -21.1463 -20.0976 -19.3371
   -14.5599 -14.2124 -11.7346 -11.4974 -11.1032 -10.5356 -10.1062  -9.0517
    -8.2970  -8.0345  -7.5132  -7.0339  -6.0030

     occupation numbers 
     1.0000   1.0000   1.0000   1.0000   1.0000   1.0000   1.0000   1.0000
     1.0000   1.0000   1.0000   1.0000   1.0000   1.0000   1.0000   1.0000
     1.0000   1.0000   1.0000   1.0000   1.0000

          k = 0.5000 0.1237 0.0000 ( 13102 PWs)   bands (ev):

   -77.7295 -49.1413 -49.0506 -48.8051 -21.2388 -21.1470 -20.0972 -19.3367
   -14.5593 -14.2123 -11.7349 -11.4976 -11.1033 -10.5359 -10.1064  -9.0518
    -8.2981  -8.0340  -7.5129  -7.0328  -6.0029

     occupation numbers 
     1.0000   1.0000   1.0000   1.0000   1.0000   1.0000   1.0000   1.0000
     1.0000   1.0000   1.0000   1.0000   1.0000   1.0000   1.0000   1.0000
     1.0000   1.0000   1.0000   1.0000   1.0000

          k =-0.3571-0.3712 0.0000 ( 13102 PWs)   bands (ev):

   -77.7295 -49.1413 -49.0506 -48.8051 -21.2388 -21.1472 -20.0970 -19.3366
   -14.5592 -14.2122 -11.7351 -11.4978 -11.1036 -10.5357 -10.1060  -9.0530
    -8.2974  -8.0341  -7.5123  -7.0330  -6.0031

     occupation numbers 
     1.0000   1.0000   1.0000   1.0000   1.0000   1.0000   1.0000   1.0000
     1.0000   1.0000   1.0000   1.0000   1.0000   1.0000   1.0000   1.0000
     1.0000   1.0000   1.0000   1.0000   1.0000

          k = 0.5000-0.1237 0.0000 ( 13102 PWs)   bands (ev):

   -77.7295 -49.1413 -49.0506 -48.8051 -21.2388 -21.1463 -20.0976 -19.3371
   -14.5599 -14.2124 -11.7346 -11.4974 -11.1032 -10.5356 -10.1062  -9.0517
    -8.2970  -8.0345  -7.5132  -7.0339  -6.0030

     occupation numbers 
     1.0000   1.0000   1.0000   1.0000   1.0000   1.0000   1.0000   1.0000
     1.0000   1.0000   1.0000   1.0000   1.0000   1.0000   1.0000   1.0000
     1.0000   1.0000   1.0000   1.0000   1.0000

          k =-0.4286 0.4124 0.0000 ( 13088 PWs)   bands (ev):

   -77.7287 -49.1473 -49.0533 -48.8038 -21.0399 -20.9509 -20.1143 -19.3776
   -14.7616 -14.4190 -11.7807 -11.5689 -10.9892 -10.7392 -10.1706  -8.9498
    -8.4578  -8.0307  -7.4536  -6.9944  -5.9663

     occupation numbers 
     1.0000   1.0000   1.0000   1.0000   1.0000   1.0000   1.0000   1.0000
     1.0000   1.0000   1.0000   1.0000   1.0000   1.0000   1.0000   1.0000
     1.0000   1.0000   1.0000   1.0000   1.0000

          k = 0.5714 0.1650 0.0000 ( 13088 PWs)   bands (ev):

   -77.7287 -49.1473 -49.0533 -48.8038 -21.0397 -20.9521 -20.1136 -19.3771
   -14.7610 -14.4189 -11.7812 -11.5693 -10.9890 -10.7399 -10.1706  -8.9507
    -8.4583  -8.0303  -7.4531  -6.9935  -5.9662

     occupation numbers 
     1.0000   1.0000   1.0000   1.0000   1.0000   1.0000   1.0000   1.0000
     1.0000   1.0000   1.0000   1.0000   1.0000   1.0000   1.0000   1.0000
     1.0000   1.0000   1.0000   1.0000   1.0000

          k =-0.2143 0.3712 0.0000 ( 13100 PWs)   bands (ev):

   -77.7320 -49.1176 -49.0478 -48.8088 -21.7282 -21.6276 -20.1497 -19.2886
   -13.8312 -13.4026 -11.6983 -11.4554 -11.4240 -10.0566  -9.9787  -9.2179
    -8.2609  -7.9245  -7.4916  -7.2023  -6.0661

     occupation numbers 
     1.0000   1.0000   1.0000   1.0000   1.0000   1.0000   1.0000   1.0000
     1.0000   1.0000   1.0000   1.0000   1.0000   1.0000   1.0000   1.0000
     1.0000   1.0000   1.0000   1.0000   1.0000

          k = 0.4286-0.0000 0.0000 ( 13100 PWs)   bands (ev):

   -77.7320 -49.1176 -49.0478 -48.8088 -21.7282 -21.6276 -20.1497 -19.2886
   -13.8313 -13.4026 -11.6983 -11.4554 -11.4240 -10.0566  -9.9787  -9.2179
    -8.2609  -7.9245  -7.4916  -7.2023  -6.0661

     occupation numbers 
     1.0000   1.0000   1.0000   1.0000   1.0000   1.0000   1.0000   1.0000
     1.0000   1.0000   1.0000   1.0000   1.0000   1.0000   1.0000   1.0000
     1.0000   1.0000   1.0000   1.0000   1.0000

          k =-0.2143 0.4536 0.0000 ( 13103 PWs)   bands (ev):

   -77.7295 -49.1297 -49.0624 -48.8051 -21.2727 -21.1791 -20.0770 -19.3066
   -14.2427 -13.8588 -12.1380 -11.9757 -11.2807 -10.2646 -10.0730  -9.2494
    -8.4935  -8.0435  -7.4960  -7.0473  -6.0203

     occupation numbers 
     1.0000   1.0000   1.0000   1.0000   1.0000   1.0000   1.0000   1.0000
     1.0000   1.0000   1.0000   1.0000   1.0000   1.0000   1.0000   1.0000
     1.0000   1.0000   1.0000   1.0000   1.0000

          k =-0.2857 0.4124 0.0000 ( 13103 PWs)   bands (ev):

   -77.7295 -49.1297 -49.0623 -48.8051 -21.2727 -21.1789 -20.0772 -19.3067
   -14.2429 -13.8589 -12.1377 -11.9755 -11.2808 -10.2646 -10.0728  -9.2494
    -8.4933  -8.0433  -7.4962  -7.0477  -6.0204

     occupation numbers 
     1.0000   1.0000   1.0000   1.0000   1.0000   1.0000   1.0000   1.0000
     1.0000   1.0000   1.0000   1.0000   1.0000   1.0000   1.0000   1.0000
     1.0000   1.0000   1.0000   1.0000   1.0000

          k = 0.5000 0.0412 0.0000 ( 13103 PWs)   bands (ev):

   -77.7295 -49.1297 -49.0624 -48.8051 -21.2727 -21.1791 -20.0770 -19.3066
   -14.2427 -13.8588 -12.1380 -11.9757 -11.2807 -10.2646 -10.0730  -9.2495
    -8.4935  -8.0435  -7.4960  -7.0473  -6.0203

     occupation numbers 
     1.0000   1.0000   1.0000   1.0000   1.0000   1.0000   1.0000   1.0000
     1.0000   1.0000   1.0000   1.0000   1.0000   1.0000   1.0000   1.0000
     1.0000   1.0000   1.0000   1.0000   1.0000

          k =-0.2857-0.4124 0.0000 ( 13103 PWs)   bands (ev):

   -77.7295 -49.1297 -49.0624 -48.8051 -21.2727 -21.1795 -20.0768 -19.3064
   -14.2422 -13.8584 -12.1383 -11.9767 -11.2808 -10.2640 -10.0726  -9.2505
    -8.4944  -8.0429  -7.4941  -7.0480  -6.0205

     occupation numbers 
     1.0000   1.0000   1.0000   1.0000   1.0000   1.0000   1.0000   1.0000
     1.0000   1.0000   1.0000   1.0000   1.0000   1.0000   1.0000   1.0000
     1.0000   1.0000   1.0000   1.0000   1.0000

          k = 0.5000-0.0412 0.0000 ( 13103 PWs)   bands (ev):

   -77.7295 -49.1297 -49.0624 -48.8051 -21.2727 -21.1789 -20.0772 -19.3067
   -14.2429 -13.8589 -12.1377 -11.9755 -11.2808 -10.2646 -10.0728  -9.2494
    -8.4933  -8.0433  -7.4962  -7.0477  -6.0204

     occupation numbers 
     1.0000   1.0000   1.0000   1.0000   1.0000   1.0000   1.0000   1.0000
     1.0000   1.0000   1.0000   1.0000   1.0000   1.0000   1.0000   1.0000
     1.0000   1.0000   1.0000   1.0000   1.0000

          k =-0.2143 0.5361 0.0000 ( 13118 PWs)   bands (ev):

   -77.7282 -49.1356 -49.0712 -48.8030 -20.9497 -20.8620 -20.0933 -19.3592
   -14.5012 -14.1318 -12.3902 -12.2529 -11.0442 -10.4963 -10.2056  -9.0629
    -8.7056  -8.2455  -7.4277  -6.9308  -5.9407

     occupation numbers 
     1.0000   1.0000   1.0000   1.0000   1.0000   1.0000   1.0000   1.0000
     1.0000   1.0000   1.0000   1.0000   1.0000   1.0000   1.0000   1.0000
     1.0000   1.0000   1.0000   1.0000   1.0000

          k =-0.3571 0.4536 0.0000 ( 13118 PWs)   bands (ev):

   -77.7282 -49.1356 -49.0712 -48.8030 -20.9498 -20.8612 -20.0938 -19.3595
   -14.5016 -14.1320 -12.3897 -12.2523 -11.0445 -10.4963 -10.2056  -9.0627
    -8.7046  -8.2459  -7.4285  -6.9310  -5.9408

     occupation numbers 
     1.0000   1.0000   1.0000   1.0000   1.0000   1.0000   1.0000   1.0000
     1.0000   1.0000   1.0000   1.0000   1.0000   1.0000   1.0000   1.0000
     1.0000   1.0000   1.0000   1.0000   1.0000

          k = 0.5714 0.0825 0.0000 ( 13118 PWs)   bands (ev):

   -77.7282 -49.1356 -49.0712 -48.8030 -20.9497 -20.8620 -20.0933 -19.3592
   -14.5012 -14.1318 -12.3902 -12.2529 -11.0442 -10.4963 -10.2056  -9.0629
    -8.7056  -8.2455  -7.4277  -6.9308  -5.9407

     occupation numbers 
     1.0000   1.0000   1.0000   1.0000   1.0000   1.0000   1.0000   1.0000
     1.0000   1.0000   1.0000   1.0000   1.0000   1.0000   1.0000   1.0000
     1.0000   1.0000   1.0000   1.0000   1.0000

          k =-0.3571-0.4536 0.0000 ( 13118 PWs)   bands (ev):

   -77.7282 -49.1356 -49.0712 -48.8030 -20.9496 -20.8623 -20.0931 -19.3591
   -14.5010 -14.1317 -12.3902 -12.2533 -11.0443 -10.4960 -10.2055  -9.0633
    -8.7062  -8.2450  -7.4271  -6.9311  -5.9408

     occupation numbers 
     1.0000   1.0000   1.0000   1.0000   1.0000   1.0000   1.0000   1.0000
     1.0000   1.0000   1.0000   1.0000   1.0000   1.0000   1.0000   1.0000
     1.0000   1.0000   1.0000   1.0000   1.0000

          k = 0.5714-0.0825 0.0000 ( 13118 PWs)   bands (ev):

   -77.7282 -49.1356 -49.0712 -48.8030 -20.9498 -20.8612 -20.0937 -19.3595
   -14.5016 -14.1320 -12.3897 -12.2523 -11.0445 -10.4963 -10.2056  -9.0627
    -8.7046  -8.2459  -7.4285  -6.9310  -5.9408

     occupation numbers 
     1.0000   1.0000   1.0000   1.0000   1.0000   1.0000   1.0000   1.0000
     1.0000   1.0000   1.0000   1.0000   1.0000   1.0000   1.0000   1.0000
     1.0000   1.0000   1.0000   1.0000   1.0000

          k =-0.2857 0.4949 0.0000 ( 13108 PWs)   bands (ev):

   -77.7280 -49.1273 -49.0816 -48.8027 -20.9220 -20.8339 -20.0825 -19.3483
   -14.3150 -13.9042 -12.7443 -12.6244 -11.0495 -10.3331 -10.1387  -9.2817
    -8.8194  -8.2545  -7.4274  -6.9131  -5.9253

     occupation numbers 
     1.0000   1.0000   1.0000   1.0000   1.0000   1.0000   1.0000   1.0000
     1.0000   1.0000   1.0000   1.0000   1.0000   1.0000   1.0000   1.0000
     1.0000   1.0000   1.0000   1.0000   1.0000

          k = 0.5714 0.0000 0.0000 ( 13108 PWs)   bands (ev):

   -77.7280 -49.1273 -49.0816 -48.8027 -20.9220 -20.8339 -20.0825 -19.3483
   -14.3150 -13.9042 -12.7443 -12.6244 -11.0495 -10.3331 -10.1387  -9.2817
    -8.8194  -8.2545  -7.4274  -6.9131  -5.9253

     occupation numbers 
     1.0000   1.0000   1.0000   1.0000   1.0000   1.0000   1.0000   1.0000
     1.0000   1.0000   1.0000   1.0000   1.0000   1.0000   1.0000   1.0000
     1.0000   1.0000   1.0000   1.0000   1.0000

          k =-0.3571 0.5361 0.0000 ( 13098 PWs)   bands (ev):

   -77.7274 -49.1235 -49.0915 -48.8018 -20.7729 -20.6812 -20.1142 -19.3768
   -14.3136 -13.8761 -12.9898 -12.9077 -10.9113 -10.4037 -10.1008  -9.4471
    -8.7515  -8.4506  -7.3898  -6.8537  -5.8673

     occupation numbers 
     1.0000   1.0000   1.0000   1.0000   1.0000   1.0000   1.0000   1.0000
     1.0000   1.0000   1.0000   1.0000   1.0000   1.0000   1.0000   1.0000
     1.0000   1.0000   1.0000   1.0000   1.0000

          k = 0.6429 0.0412 0.0000 ( 13098 PWs)   bands (ev):

   -77.7274 -49.1235 -49.0915 -48.8018 -20.7728 -20.6817 -20.1138 -19.3766
   -14.3132 -13.8758 -12.9900 -12.9083 -10.9112 -10.4034 -10.1008  -9.4471
    -8.7531  -8.4496  -7.3892  -6.8539  -5.8673

     occupation numbers 
     1.0000   1.0000   1.0000   1.0000   1.0000   1.0000   1.0000   1.0000
     1.0000   1.0000   1.0000   1.0000   1.0000   1.0000   1.0000   1.0000
     1.0000   1.0000   1.0000   1.0000   1.0000

     highest occupied level (ev):    -5.1495

     Writing all to output data dir ./tmp/crsi2n4.save/ :
     XML data file, pseudopotentials, collected wavefunctions
 
     init_run     :      0.72s CPU      0.77s WALL (       1 calls)
     electrons    :    258.99s CPU    259.51s WALL (       1 calls)

     Called by init_run:
     wfcinit      :      0.00s CPU      0.00s WALL (       1 calls)
     wfcinit:atom :      0.06s CPU      0.07s WALL (     100 calls)
     wfcinit:wfcr :      4.53s CPU      4.57s WALL (     100 calls)
     potinit      :      0.41s CPU      0.44s WALL (       1 calls)
     hinit0       :      0.17s CPU      0.18s WALL (       1 calls)

     Called by electrons:
     c_bands      :    258.99s CPU    259.51s WALL (       1 calls)
     v_of_rho     :      0.02s CPU      0.04s WALL (       1 calls)
     v_h          :      0.00s CPU      0.01s WALL (       1 calls)
     v_xc         :      0.01s CPU      0.03s WALL (       1 calls)

     Called by c_bands:
     init_us_2    :      0.06s CPU      0.07s WALL (     100 calls)
     cegterg      :    254.06s CPU    254.43s WALL (     557 calls)

     Called by sum_band:

     Called by *egterg:
     cdiaghg      :     28.27s CPU     28.46s WALL (   10551 calls)
                                       28.38s GPU  (   10551 calls)
     cegterg:over :     44.15s CPU     44.17s WALL (   10451 calls)
     cegterg:upda :     12.48s CPU     12.49s WALL (   10451 calls)
     cegterg:last :     18.37s CPU     18.37s WALL (    8271 calls)
     h_psi        :    149.08s CPU    149.48s WALL (   11108 calls)
                                      149.42s GPU  (   11108 calls)
     g_psi        :      0.04s CPU      1.52s WALL (   10451 calls)
                                        1.48s GPU  (   10451 calls)

     Called by h_psi:
     h_psi:calbec :      0.34s CPU     19.99s WALL (   11108 calls)
                                       19.93s GPU  (   11108 calls)
     vloc_psi     :    112.12s CPU    112.49s WALL (   11108 calls)
                                      112.44s GPU  (   11108 calls)
     add_vuspsi   :      2.32s CPU     16.31s WALL (   11108 calls)
                                       16.20s GPU  (   11108 calls)

     General routines
     calbec       :      0.32s CPU      0.35s WALL (   11108 calls)
     fft          :      0.23s CPU      0.23s WALL (      11 calls)
                                        0.01s GPU  (      10 calls)
     ffts         :      0.16s CPU      0.16s WALL (       1 calls)
     fftw         :      0.33s CPU     99.75s WALL (   31396 calls)
                                       99.60s GPU  (   31396 calls)
     interpolate  :      0.39s CPU      0.40s WALL (       1 calls)
     davcio       :      0.01s CPU      0.16s WALL (     200 calls)
 
     Parallel routines
 
     PWSCF        :   4m19.93s CPU   4m20.73s WALL

 
   This run was terminated on:   4:41:44  13Mar2026            

=------------------------------------------------------------------------------=
   JOB DONE.
=------------------------------------------------------------------------------=
