
     Program PWSCF v.7.4.1 starts on 28Apr2026 at 20:48:36 

     This program is part of the open-source Quantum ESPRESSO suite
     for quantum simulation of materials; please cite
         "P. Giannozzi et al., J. Phys.:Condens. Matter 21 395502 (2009);
         "P. Giannozzi et al., J. Phys.:Condens. Matter 29 465901 (2017);
         "P. Giannozzi et al., J. Chem. Phys. 152 154105 (2020);
          URL http://www.quantum-espresso.org", 
     in publications or presentations arising from this work. More details at
     http://www.quantum-espresso.org/quote

     Parallel version (MPI), running on     1 processors

     MPI processes distributed on     1 nodes
     14308 MiB available memory on the printing compute node when the environment starts
 
     Reading input from crsi2n4_bi_0.000.in
Warning: card &CELL ignored
Warning: card / ignored
Warning: card &FCP ignored
Warning: card / ignored
Warning: card &RISM ignored
Warning: card / ignored

     Current dimensions of program PWSCF are:
     Max number of different atomic species (ntypx) = 10
     Max number of k-points (npk) =  40000
     Max angular momentum in pseudopotentials (lmaxx) =  4
     Message from routine setup:
     no reason to have ecutrho>4*ecutwfc
 
     Subspace diagonalization in iterative solution of the eigenvalue problem:
     a serial algorithm will be used

 
     G-vector sticks info
     --------------------
     sticks:   dense  smooth     PW     G-vecs:    dense   smooth      PW
     Sum         805     649    199               164373   118021   20693
 
     Using Slab Decomposition
 


     bravais-lattice index     =            0
     lattice parameter (alat)  =       5.3744  a.u.
     unit-cell volume          =    1217.9657 (a.u.)^3
     number of atoms/cell      =            7
     number of atomic types    =            3
     number of electrons       =        42.00
     number of Kohn-Sham states=           21
     kinetic-energy cutoff     =      80.0000  Ry
     charge density cutoff     =     400.0000  Ry
     scf convergence threshold =      1.0E-10
     mixing beta               =       0.4000
     number of iterations used =            8  plain     mixing
     Exchange-correlation= PBE
                           (   1   4   3   4   0   0   0)

     GPU acceleration is ACTIVE.  1 visible GPUs per MPI rank
     GPU-aware MPI enabled


     GPU used by master process:

        Device Number: 0
        Device name: NVIDIA RTX A2000 12GB
        Compute capability : 86
        Ratio of single to double precision performance  : 64
        Memory Clock Rate (KHz): 6001000
        Memory Bus Width (bits): 192
        Peak Memory Bandwidth (GB/s): 288.05

     celldm(1)=   5.374381  celldm(2)=   0.000000  celldm(3)=   0.000000
     celldm(4)=   0.000000  celldm(5)=   0.000000  celldm(6)=   0.000000

     crystal axes: (cart. coord. in units of alat)
               a(1) = (   1.000000   0.000000   0.000000 )  
               a(2) = (  -0.500000   0.866025   0.000000 )  
               a(3) = (   0.000000   0.000000   9.059810 )  

     reciprocal axes: (cart. coord. in units 2 pi/alat)
               b(1) = (  1.000000  0.577350 -0.000000 )  
               b(2) = (  0.000000  1.154701  0.000000 )  
               b(3) = (  0.000000 -0.000000  0.110378 )  


     PseudoPot. # 1 for Cr read from file:
     /home/rao/Desktop/pseudo/ONCVPSP/sg15/Cr_ONCV_PBE_sr.upf
     MD5 check sum: 8c25700f94aee329d8014e8d8708abb4
     Pseudo is Norm-conserving, Zval = 14.0
     Generated using ONCVPSP code by D. R. Hamann
     Using radial grid of 1490 points,  6 beta functions with: 
                l(1) =   0
                l(2) =   0
                l(3) =   1
                l(4) =   1
                l(5) =   2
                l(6) =   2

     PseudoPot. # 2 for N  read from file:
     /home/rao/Desktop/pseudo/ONCVPSP/sg15/N_ONCV_PBE_sr.upf
     MD5 check sum: 584dff68b02d160f04ff099e3496afa1
     Pseudo is Norm-conserving, Zval =  5.0
     Generated using ONCVPSP code by D. R. Hamann
     Using radial grid of 1058 points,  4 beta functions with: 
                l(1) =   0
                l(2) =   0
                l(3) =   1
                l(4) =   1

     PseudoPot. # 3 for Si read from file:
     /home/rao/Desktop/pseudo/ONCVPSP/sg15/Si_ONCV_PBE_sr.upf
     MD5 check sum: 8553c464762ac42b85b1eed164b4d029
     Pseudo is Norm-conserving, Zval =  4.0
     Generated using ONCVPSP code by D. R. Hamann
     Using radial grid of 1510 points,  4 beta functions with: 
                l(1) =   0
                l(2) =   0
                l(3) =   1
                l(4) =   1

     atomic species   valence    mass     pseudopotential
     Cr               14.00    51.99610     Cr( 1.00)
     N                 5.00    14.00700     N ( 1.00)
     Si                4.00    28.08500     Si( 1.00)

     No symmetry found


                                    s                        frac. trans.

      isym =  1     identity                                     

 cryst.   s( 1) = (     1          0          0      )
                  (     0          1          0      )
                  (     0          0          1      )

 cart.    s( 1) = (  1.0000000  0.0000000  0.0000000 )
                  (  0.0000000  1.0000000  0.0000000 )
                  (  0.0000000  0.0000000  1.0000000 )


   Cartesian axes

     site n.     atom                  positions (alat units)
         1        Cr     tau(   1) = (   0.7857166   0.1237059   3.8764965  )
         2        N      tau(   2) = (   0.2856961   0.4123943   3.4735537  )
         3        N      tau(   3) = (   0.2856461   0.4124201   4.2847767  )
         4        N      tau(   4) = (   0.7855304   0.1238080   5.0954982  )
         5        N      tau(   5) = (  -0.2141148   0.7009634   2.6712569  )
         6        Si     tau(   6) = (   0.2858986   0.4122805   2.8590966  )
         7        Si     tau(   7) = (   0.2855938   0.4124467   4.9039298  )

   Crystallographic axes

     site n.     atom                  positions (cryst. coord.)
         1        Cr     tau(   1) = (  0.8571383  0.1428433  0.4278783  )
         2        N      tau(   2) = (  0.5237921  0.4761920  0.3834025  )
         3        N      tau(   3) = (  0.5237570  0.4762217  0.4729433  )
         4        N      tau(   4) = (  0.8570110  0.1429611  0.5624288  )
         5        N      tau(   5) = (  0.1905866  0.8094029  0.2948469  )
         6        Si     tau(   6) = (  0.5239289  0.4760606  0.3155802  )
         7        Si     tau(   7) = (  0.5237201  0.4762525  0.5412840  )

     number of k points=   121
                       cart. coord. in units 2pi/alat
        k(    1) = (   0.0000000   0.0000000   0.0000000), wk =   0.0165289
        k(    2) = (   0.0000000   0.1049728   0.0000000), wk =   0.0165289
        k(    3) = (   0.0000000   0.2099456   0.0000000), wk =   0.0165289
        k(    4) = (   0.0000000   0.3149184   0.0000000), wk =   0.0165289
        k(    5) = (   0.0000000   0.4198911   0.0000000), wk =   0.0165289
        k(    6) = (   0.0000000   0.5248639   0.0000000), wk =   0.0165289
        k(    7) = (   0.0000000  -0.5248639   0.0000000), wk =   0.0165289
        k(    8) = (   0.0000000  -0.4198911   0.0000000), wk =   0.0165289
        k(    9) = (   0.0000000  -0.3149184   0.0000000), wk =   0.0165289
        k(   10) = (   0.0000000  -0.2099456   0.0000000), wk =   0.0165289
        k(   11) = (   0.0000000  -0.1049728   0.0000000), wk =   0.0165289
        k(   12) = (   0.0909091   0.0524864   0.0000000), wk =   0.0165289
        k(   13) = (   0.0909091   0.1574592   0.0000000), wk =   0.0165289
        k(   14) = (   0.0909091   0.2624320   0.0000000), wk =   0.0165289
        k(   15) = (   0.0909091   0.3674048   0.0000000), wk =   0.0165289
        k(   16) = (   0.0909091   0.4723775   0.0000000), wk =   0.0165289
        k(   17) = (   0.0909091   0.5773503   0.0000000), wk =   0.0165289
        k(   18) = (   0.0909091  -0.4723775   0.0000000), wk =   0.0165289
        k(   19) = (   0.0909091  -0.3674048   0.0000000), wk =   0.0165289
        k(   20) = (   0.0909091  -0.2624320   0.0000000), wk =   0.0165289
        k(   21) = (   0.0909091  -0.1574592   0.0000000), wk =   0.0165289
        k(   22) = (   0.0909091  -0.0524864   0.0000000), wk =   0.0165289
        k(   23) = (   0.1818182   0.1049728   0.0000000), wk =   0.0165289
        k(   24) = (   0.1818182   0.2099456   0.0000000), wk =   0.0165289
        k(   25) = (   0.1818182   0.3149184   0.0000000), wk =   0.0165289
        k(   26) = (   0.1818182   0.4198911   0.0000000), wk =   0.0165289
        k(   27) = (   0.1818182   0.5248639   0.0000000), wk =   0.0165289
        k(   28) = (   0.1818182   0.6298367   0.0000000), wk =   0.0165289
        k(   29) = (   0.1818182  -0.4198911   0.0000000), wk =   0.0165289
        k(   30) = (   0.1818182  -0.3149184   0.0000000), wk =   0.0165289
        k(   31) = (   0.1818182  -0.2099456   0.0000000), wk =   0.0165289
        k(   32) = (   0.1818182  -0.1049728   0.0000000), wk =   0.0165289
        k(   33) = (   0.1818182  -0.0000000   0.0000000), wk =   0.0165289
        k(   34) = (   0.2727273   0.1574592   0.0000000), wk =   0.0165289
        k(   35) = (   0.2727273   0.2624320   0.0000000), wk =   0.0165289
        k(   36) = (   0.2727273   0.3674048   0.0000000), wk =   0.0165289
        k(   37) = (   0.2727273   0.4723775   0.0000000), wk =   0.0165289
        k(   38) = (   0.2727273   0.5773503   0.0000000), wk =   0.0165289
        k(   39) = (   0.2727273   0.6823231   0.0000000), wk =   0.0165289
        k(   40) = (   0.2727273  -0.3674048   0.0000000), wk =   0.0165289
        k(   41) = (   0.2727273  -0.2624320   0.0000000), wk =   0.0165289
        k(   42) = (   0.2727273  -0.1574592   0.0000000), wk =   0.0165289
        k(   43) = (   0.2727273  -0.0524864   0.0000000), wk =   0.0165289
        k(   44) = (   0.2727273   0.0524864   0.0000000), wk =   0.0165289
        k(   45) = (   0.3636364   0.2099456   0.0000000), wk =   0.0165289
        k(   46) = (   0.3636364   0.3149184   0.0000000), wk =   0.0165289
        k(   47) = (   0.3636364   0.4198911   0.0000000), wk =   0.0165289
        k(   48) = (   0.3636364   0.5248639   0.0000000), wk =   0.0165289
        k(   49) = (   0.3636364   0.6298367   0.0000000), wk =   0.0165289
        k(   50) = (   0.3636364   0.7348095   0.0000000), wk =   0.0165289
        k(   51) = (   0.3636364  -0.3149184   0.0000000), wk =   0.0165289
        k(   52) = (   0.3636364  -0.2099456   0.0000000), wk =   0.0165289
        k(   53) = (   0.3636364  -0.1049728   0.0000000), wk =   0.0165289
        k(   54) = (   0.3636364   0.0000000   0.0000000), wk =   0.0165289
        k(   55) = (   0.3636364   0.1049728   0.0000000), wk =   0.0165289
        k(   56) = (   0.4545455   0.2624320   0.0000000), wk =   0.0165289
        k(   57) = (   0.4545455   0.3674048   0.0000000), wk =   0.0165289
        k(   58) = (   0.4545455   0.4723775   0.0000000), wk =   0.0165289
        k(   59) = (   0.4545455   0.5773503   0.0000000), wk =   0.0165289
        k(   60) = (   0.4545455   0.6823231   0.0000000), wk =   0.0165289
        k(   61) = (   0.4545455   0.7872959   0.0000000), wk =   0.0165289
        k(   62) = (   0.4545455  -0.2624320   0.0000000), wk =   0.0165289
        k(   63) = (   0.4545455  -0.1574592   0.0000000), wk =   0.0165289
        k(   64) = (   0.4545455  -0.0524864   0.0000000), wk =   0.0165289
        k(   65) = (   0.4545455   0.0524864   0.0000000), wk =   0.0165289
        k(   66) = (   0.4545455   0.1574592   0.0000000), wk =   0.0165289
        k(   67) = (  -0.4545455  -0.2624320   0.0000000), wk =   0.0165289
        k(   68) = (  -0.4545455  -0.1574592   0.0000000), wk =   0.0165289
        k(   69) = (  -0.4545455  -0.0524864   0.0000000), wk =   0.0165289
        k(   70) = (  -0.4545455   0.0524864   0.0000000), wk =   0.0165289
        k(   71) = (  -0.4545455   0.1574592   0.0000000), wk =   0.0165289
        k(   72) = (  -0.4545455   0.2624320   0.0000000), wk =   0.0165289
        k(   73) = (  -0.4545455  -0.7872959   0.0000000), wk =   0.0165289
        k(   74) = (  -0.4545455  -0.6823231   0.0000000), wk =   0.0165289
        k(   75) = (  -0.4545455  -0.5773503   0.0000000), wk =   0.0165289
        k(   76) = (  -0.4545455  -0.4723775   0.0000000), wk =   0.0165289
        k(   77) = (  -0.4545455  -0.3674048   0.0000000), wk =   0.0165289
        k(   78) = (  -0.3636364  -0.2099456   0.0000000), wk =   0.0165289
        k(   79) = (  -0.3636364  -0.1049728   0.0000000), wk =   0.0165289
        k(   80) = (  -0.3636364   0.0000000   0.0000000), wk =   0.0165289
        k(   81) = (  -0.3636364   0.1049728   0.0000000), wk =   0.0165289
        k(   82) = (  -0.3636364   0.2099456   0.0000000), wk =   0.0165289
        k(   83) = (  -0.3636364   0.3149184   0.0000000), wk =   0.0165289
        k(   84) = (  -0.3636364  -0.7348095   0.0000000), wk =   0.0165289
        k(   85) = (  -0.3636364  -0.6298367   0.0000000), wk =   0.0165289
        k(   86) = (  -0.3636364  -0.5248639   0.0000000), wk =   0.0165289
        k(   87) = (  -0.3636364  -0.4198911   0.0000000), wk =   0.0165289
        k(   88) = (  -0.3636364  -0.3149184   0.0000000), wk =   0.0165289
        k(   89) = (  -0.2727273  -0.1574592   0.0000000), wk =   0.0165289
        k(   90) = (  -0.2727273  -0.0524864   0.0000000), wk =   0.0165289
        k(   91) = (  -0.2727273   0.0524864   0.0000000), wk =   0.0165289
        k(   92) = (  -0.2727273   0.1574592   0.0000000), wk =   0.0165289
        k(   93) = (  -0.2727273   0.2624320   0.0000000), wk =   0.0165289
        k(   94) = (  -0.2727273   0.3674048   0.0000000), wk =   0.0165289
        k(   95) = (  -0.2727273  -0.6823231   0.0000000), wk =   0.0165289
        k(   96) = (  -0.2727273  -0.5773503   0.0000000), wk =   0.0165289
        k(   97) = (  -0.2727273  -0.4723775   0.0000000), wk =   0.0165289
        k(   98) = (  -0.2727273  -0.3674048   0.0000000), wk =   0.0165289
        k(   99) = (  -0.2727273  -0.2624320   0.0000000), wk =   0.0165289
        k(  100) = (  -0.1818182  -0.1049728   0.0000000), wk =   0.0165289
        k(  101) = (  -0.1818182   0.0000000   0.0000000), wk =   0.0165289
        k(  102) = (  -0.1818182   0.1049728   0.0000000), wk =   0.0165289
        k(  103) = (  -0.1818182   0.2099456   0.0000000), wk =   0.0165289
        k(  104) = (  -0.1818182   0.3149184   0.0000000), wk =   0.0165289
        k(  105) = (  -0.1818182   0.4198911   0.0000000), wk =   0.0165289
        k(  106) = (  -0.1818182  -0.6298367   0.0000000), wk =   0.0165289
        k(  107) = (  -0.1818182  -0.5248639   0.0000000), wk =   0.0165289
        k(  108) = (  -0.1818182  -0.4198911   0.0000000), wk =   0.0165289
        k(  109) = (  -0.1818182  -0.3149184   0.0000000), wk =   0.0165289
        k(  110) = (  -0.1818182  -0.2099456   0.0000000), wk =   0.0165289
        k(  111) = (  -0.0909091  -0.0524864   0.0000000), wk =   0.0165289
        k(  112) = (  -0.0909091   0.0524864   0.0000000), wk =   0.0165289
        k(  113) = (  -0.0909091   0.1574592   0.0000000), wk =   0.0165289
        k(  114) = (  -0.0909091   0.2624320   0.0000000), wk =   0.0165289
        k(  115) = (  -0.0909091   0.3674048   0.0000000), wk =   0.0165289
        k(  116) = (  -0.0909091   0.4723775   0.0000000), wk =   0.0165289
        k(  117) = (  -0.0909091  -0.5773503   0.0000000), wk =   0.0165289
        k(  118) = (  -0.0909091  -0.4723775   0.0000000), wk =   0.0165289
        k(  119) = (  -0.0909091  -0.3674048   0.0000000), wk =   0.0165289
        k(  120) = (  -0.0909091  -0.2624320   0.0000000), wk =   0.0165289
        k(  121) = (  -0.0909091  -0.1574592   0.0000000), wk =   0.0165289

                       cryst. coord.
        k(    1) = (   0.0000000   0.0000000   0.0000000), wk =   0.0165289
        k(    2) = (   0.0000000   0.0909091   0.0000000), wk =   0.0165289
        k(    3) = (   0.0000000   0.1818182   0.0000000), wk =   0.0165289
        k(    4) = (   0.0000000   0.2727273   0.0000000), wk =   0.0165289
        k(    5) = (   0.0000000   0.3636364   0.0000000), wk =   0.0165289
        k(    6) = (   0.0000000   0.4545455   0.0000000), wk =   0.0165289
        k(    7) = (   0.0000000  -0.4545455   0.0000000), wk =   0.0165289
        k(    8) = (   0.0000000  -0.3636364   0.0000000), wk =   0.0165289
        k(    9) = (   0.0000000  -0.2727273   0.0000000), wk =   0.0165289
        k(   10) = (   0.0000000  -0.1818182   0.0000000), wk =   0.0165289
        k(   11) = (   0.0000000  -0.0909091   0.0000000), wk =   0.0165289
        k(   12) = (   0.0909091  -0.0000000   0.0000000), wk =   0.0165289
        k(   13) = (   0.0909091   0.0909091   0.0000000), wk =   0.0165289
        k(   14) = (   0.0909091   0.1818182   0.0000000), wk =   0.0165289
        k(   15) = (   0.0909091   0.2727273   0.0000000), wk =   0.0165289
        k(   16) = (   0.0909091   0.3636364   0.0000000), wk =   0.0165289
        k(   17) = (   0.0909091   0.4545455   0.0000000), wk =   0.0165289
        k(   18) = (   0.0909091  -0.4545455   0.0000000), wk =   0.0165289
        k(   19) = (   0.0909091  -0.3636364   0.0000000), wk =   0.0165289
        k(   20) = (   0.0909091  -0.2727273   0.0000000), wk =   0.0165289
        k(   21) = (   0.0909091  -0.1818182   0.0000000), wk =   0.0165289
        k(   22) = (   0.0909091  -0.0909091   0.0000000), wk =   0.0165289
        k(   23) = (   0.1818182  -0.0000000   0.0000000), wk =   0.0165289
        k(   24) = (   0.1818182   0.0909091   0.0000000), wk =   0.0165289
        k(   25) = (   0.1818182   0.1818182   0.0000000), wk =   0.0165289
        k(   26) = (   0.1818182   0.2727273   0.0000000), wk =   0.0165289
        k(   27) = (   0.1818182   0.3636364   0.0000000), wk =   0.0165289
        k(   28) = (   0.1818182   0.4545455   0.0000000), wk =   0.0165289
        k(   29) = (   0.1818182  -0.4545455   0.0000000), wk =   0.0165289
        k(   30) = (   0.1818182  -0.3636364   0.0000000), wk =   0.0165289
        k(   31) = (   0.1818182  -0.2727273   0.0000000), wk =   0.0165289
        k(   32) = (   0.1818182  -0.1818182   0.0000000), wk =   0.0165289
        k(   33) = (   0.1818182  -0.0909091   0.0000000), wk =   0.0165289
        k(   34) = (   0.2727273  -0.0000000   0.0000000), wk =   0.0165289
        k(   35) = (   0.2727273   0.0909091   0.0000000), wk =   0.0165289
        k(   36) = (   0.2727273   0.1818182   0.0000000), wk =   0.0165289
        k(   37) = (   0.2727273   0.2727273   0.0000000), wk =   0.0165289
        k(   38) = (   0.2727273   0.3636364   0.0000000), wk =   0.0165289
        k(   39) = (   0.2727273   0.4545455   0.0000000), wk =   0.0165289
        k(   40) = (   0.2727273  -0.4545455   0.0000000), wk =   0.0165289
        k(   41) = (   0.2727273  -0.3636364   0.0000000), wk =   0.0165289
        k(   42) = (   0.2727273  -0.2727273   0.0000000), wk =   0.0165289
        k(   43) = (   0.2727273  -0.1818182   0.0000000), wk =   0.0165289
        k(   44) = (   0.2727273  -0.0909091   0.0000000), wk =   0.0165289
        k(   45) = (   0.3636364  -0.0000000   0.0000000), wk =   0.0165289
        k(   46) = (   0.3636364   0.0909091   0.0000000), wk =   0.0165289
        k(   47) = (   0.3636364   0.1818182   0.0000000), wk =   0.0165289
        k(   48) = (   0.3636364   0.2727273   0.0000000), wk =   0.0165289
        k(   49) = (   0.3636364   0.3636364   0.0000000), wk =   0.0165289
        k(   50) = (   0.3636364   0.4545455   0.0000000), wk =   0.0165289
        k(   51) = (   0.3636364  -0.4545455   0.0000000), wk =   0.0165289
        k(   52) = (   0.3636364  -0.3636364   0.0000000), wk =   0.0165289
        k(   53) = (   0.3636364  -0.2727273   0.0000000), wk =   0.0165289
        k(   54) = (   0.3636364  -0.1818182   0.0000000), wk =   0.0165289
        k(   55) = (   0.3636364  -0.0909091   0.0000000), wk =   0.0165289
        k(   56) = (   0.4545455   0.0000000   0.0000000), wk =   0.0165289
        k(   57) = (   0.4545455   0.0909091   0.0000000), wk =   0.0165289
        k(   58) = (   0.4545455   0.1818182   0.0000000), wk =   0.0165289
        k(   59) = (   0.4545455   0.2727273   0.0000000), wk =   0.0165289
        k(   60) = (   0.4545455   0.3636364   0.0000000), wk =   0.0165289
        k(   61) = (   0.4545455   0.4545455   0.0000000), wk =   0.0165289
        k(   62) = (   0.4545455  -0.4545455   0.0000000), wk =   0.0165289
        k(   63) = (   0.4545455  -0.3636364   0.0000000), wk =   0.0165289
        k(   64) = (   0.4545455  -0.2727273   0.0000000), wk =   0.0165289
        k(   65) = (   0.4545455  -0.1818182   0.0000000), wk =   0.0165289
        k(   66) = (   0.4545455  -0.0909091   0.0000000), wk =   0.0165289
        k(   67) = (  -0.4545455  -0.0000000   0.0000000), wk =   0.0165289
        k(   68) = (  -0.4545455   0.0909091   0.0000000), wk =   0.0165289
        k(   69) = (  -0.4545455   0.1818182   0.0000000), wk =   0.0165289
        k(   70) = (  -0.4545455   0.2727273   0.0000000), wk =   0.0165289
        k(   71) = (  -0.4545455   0.3636364   0.0000000), wk =   0.0165289
        k(   72) = (  -0.4545455   0.4545455   0.0000000), wk =   0.0165289
        k(   73) = (  -0.4545455  -0.4545455   0.0000000), wk =   0.0165289
        k(   74) = (  -0.4545455  -0.3636364   0.0000000), wk =   0.0165289
        k(   75) = (  -0.4545455  -0.2727273   0.0000000), wk =   0.0165289
        k(   76) = (  -0.4545455  -0.1818182   0.0000000), wk =   0.0165289
        k(   77) = (  -0.4545455  -0.0909091   0.0000000), wk =   0.0165289
        k(   78) = (  -0.3636364   0.0000000   0.0000000), wk =   0.0165289
        k(   79) = (  -0.3636364   0.0909091   0.0000000), wk =   0.0165289
        k(   80) = (  -0.3636364   0.1818182   0.0000000), wk =   0.0165289
        k(   81) = (  -0.3636364   0.2727273   0.0000000), wk =   0.0165289
        k(   82) = (  -0.3636364   0.3636364   0.0000000), wk =   0.0165289
        k(   83) = (  -0.3636364   0.4545455   0.0000000), wk =   0.0165289
        k(   84) = (  -0.3636364  -0.4545455   0.0000000), wk =   0.0165289
        k(   85) = (  -0.3636364  -0.3636364   0.0000000), wk =   0.0165289
        k(   86) = (  -0.3636364  -0.2727273   0.0000000), wk =   0.0165289
        k(   87) = (  -0.3636364  -0.1818182   0.0000000), wk =   0.0165289
        k(   88) = (  -0.3636364  -0.0909091   0.0000000), wk =   0.0165289
        k(   89) = (  -0.2727273   0.0000000   0.0000000), wk =   0.0165289
        k(   90) = (  -0.2727273   0.0909091   0.0000000), wk =   0.0165289
        k(   91) = (  -0.2727273   0.1818182   0.0000000), wk =   0.0165289
        k(   92) = (  -0.2727273   0.2727273   0.0000000), wk =   0.0165289
        k(   93) = (  -0.2727273   0.3636364   0.0000000), wk =   0.0165289
        k(   94) = (  -0.2727273   0.4545455   0.0000000), wk =   0.0165289
        k(   95) = (  -0.2727273  -0.4545455   0.0000000), wk =   0.0165289
        k(   96) = (  -0.2727273  -0.3636364   0.0000000), wk =   0.0165289
        k(   97) = (  -0.2727273  -0.2727273   0.0000000), wk =   0.0165289
        k(   98) = (  -0.2727273  -0.1818182   0.0000000), wk =   0.0165289
        k(   99) = (  -0.2727273  -0.0909091   0.0000000), wk =   0.0165289
        k(  100) = (  -0.1818182  -0.0000000   0.0000000), wk =   0.0165289
        k(  101) = (  -0.1818182   0.0909091   0.0000000), wk =   0.0165289
        k(  102) = (  -0.1818182   0.1818182   0.0000000), wk =   0.0165289
        k(  103) = (  -0.1818182   0.2727273   0.0000000), wk =   0.0165289
        k(  104) = (  -0.1818182   0.3636364   0.0000000), wk =   0.0165289
        k(  105) = (  -0.1818182   0.4545455   0.0000000), wk =   0.0165289
        k(  106) = (  -0.1818182  -0.4545455   0.0000000), wk =   0.0165289
        k(  107) = (  -0.1818182  -0.3636364   0.0000000), wk =   0.0165289
        k(  108) = (  -0.1818182  -0.2727273   0.0000000), wk =   0.0165289
        k(  109) = (  -0.1818182  -0.1818182   0.0000000), wk =   0.0165289
        k(  110) = (  -0.1818182  -0.0909091   0.0000000), wk =   0.0165289
        k(  111) = (  -0.0909091  -0.0000000   0.0000000), wk =   0.0165289
        k(  112) = (  -0.0909091   0.0909091   0.0000000), wk =   0.0165289
        k(  113) = (  -0.0909091   0.1818182   0.0000000), wk =   0.0165289
        k(  114) = (  -0.0909091   0.2727273   0.0000000), wk =   0.0165289
        k(  115) = (  -0.0909091   0.3636364   0.0000000), wk =   0.0165289
        k(  116) = (  -0.0909091   0.4545455   0.0000000), wk =   0.0165289
        k(  117) = (  -0.0909091  -0.4545455   0.0000000), wk =   0.0165289
        k(  118) = (  -0.0909091  -0.3636364   0.0000000), wk =   0.0165289
        k(  119) = (  -0.0909091  -0.2727273   0.0000000), wk =   0.0165289
        k(  120) = (  -0.0909091  -0.1818182   0.0000000), wk =   0.0165289
        k(  121) = (  -0.0909091  -0.0909091   0.0000000), wk =   0.0165289

     Dense  grid:   164373 G-vectors     FFT dimensions: (  36,  36, 320)

     Smooth grid:   118021 G-vectors     FFT dimensions: (  32,  32, 288)

     Dynamical RAM for                 wfc:       4.72 MB

     Dynamical RAM for     wfc (w. buffer):     575.33 MB

     Dynamical RAM for           str. fact:       7.52 MB

     Dynamical RAM for           local pot:       0.00 MB

     Dynamical RAM for          nlocal pot:      14.82 MB

     Dynamical RAM for                qrad:       4.82 MB

     Dynamical RAM for          rho,v,vnew:      17.02 MB

     Dynamical RAM for               rhoin:       5.67 MB

     Dynamical RAM for            rho*nmix:      40.13 MB

     Dynamical RAM for           G-vectors:      10.31 MB

     Dynamical RAM for          h,s,v(r/c):       0.08 MB

     Dynamical RAM for          <psi|beta>:       0.02 MB

     Dynamical RAM for                 psi:       9.43 MB

     Dynamical RAM for                hpsi:       9.43 MB

     Dynamical RAM for      wfcinit/wfcrot:       9.44 MB

     Estimated static dynamical RAM per process >     661.34 MB

     Estimated max dynamical RAM per process >     720.44 MB
 ----2D----2D----2D----2D----2D----2D----2D----2D----2D----2D----2D----2D
  The code is running with the 2D cutoff
  Please refer to:
  Sohier, T., Calandra, M., & Mauri, F. (2017), 
  Density functional perturbation theory for gated two-dimensional heterostructures:
  Theoretical developments and application to flexural phonons in graphene.
  Physical Review B, 96(7), 75448. https://doi.org/10.1103/PhysRevB.96.075448
 ----2D----2D----2D----2D----2D----2D----2D----2D----2D----2D----2D----2D

     Initial potential from superposition of free atoms

     starting charge      41.9980, renormalised to      42.0000

     negative rho (up, down):  1.923E-06 0.000E+00
     Starting wfcs are   34 randomized atomic wfcs

     total cpu time spent up to now is        6.8 secs

     Self-consistent Calculation
[tb_dev] Currently allocated     1.51E+00 Mbytes, locked:    0 /   5
[tb_pin] Currently allocated     0.00E+00 Mbytes, locked:    0 /   0

     iteration #  1     ecut=    80.00 Ry     beta= 0.40
     Davidson diagonalization with overlap

---- Real-time Memory Report at c_bands before calling an iterative solver
          1274 MiB given to the printing process from OS
             0 MiB allocation reported by mallinfo(arena+hblkhd)
         13450 MiB available memory on the node where the printing process lives
     GPU memory used/free/total (MiB): 1395 / 10518 / 11914
------------------
     ethr =  1.00E-02,  avg # of iterations =  2.0

     total cpu time spent up to now is       17.0 secs

     total energy              =    -262.69856828 Ry
     estimated scf accuracy    <       2.25619810 Ry
[tb_dev] Currently allocated     2.67E-05 Mbytes, locked:    0 /   1
[tb_pin] Currently allocated     0.00E+00 Mbytes, locked:    0 /   0

     iteration #  2     ecut=    80.00 Ry     beta= 0.40
     Davidson diagonalization with overlap

---- Real-time Memory Report at c_bands before calling an iterative solver
          1290 MiB given to the printing process from OS
             0 MiB allocation reported by mallinfo(arena+hblkhd)
         13427 MiB available memory on the node where the printing process lives
     GPU memory used/free/total (MiB): 1419 / 10494 / 11914
------------------
     ethr =  5.37E-03,  avg # of iterations =  5.8

     total cpu time spent up to now is       33.8 secs

     total energy              =    -263.14259193 Ry
     estimated scf accuracy    <       0.93142606 Ry
[tb_dev] Currently allocated     2.67E-05 Mbytes, locked:    0 /   1
[tb_pin] Currently allocated     0.00E+00 Mbytes, locked:    0 /   0

     iteration #  3     ecut=    80.00 Ry     beta= 0.40
     Davidson diagonalization with overlap

---- Real-time Memory Report at c_bands before calling an iterative solver
          1318 MiB given to the printing process from OS
             0 MiB allocation reported by mallinfo(arena+hblkhd)
         13415 MiB available memory on the node where the printing process lives
     GPU memory used/free/total (MiB): 1419 / 10494 / 11914
------------------
     ethr =  2.22E-03,  avg # of iterations =  5.0

     total cpu time spent up to now is       47.4 secs

     total energy              =    -263.33309137 Ry
     estimated scf accuracy    <       0.06539353 Ry
[tb_dev] Currently allocated     2.67E-05 Mbytes, locked:    0 /   1
[tb_pin] Currently allocated     0.00E+00 Mbytes, locked:    0 /   0

     iteration #  4     ecut=    80.00 Ry     beta= 0.40
     Davidson diagonalization with overlap

---- Real-time Memory Report at c_bands before calling an iterative solver
          1323 MiB given to the printing process from OS
             0 MiB allocation reported by mallinfo(arena+hblkhd)
         13410 MiB available memory on the node where the printing process lives
     GPU memory used/free/total (MiB): 1419 / 10494 / 11914
------------------
     ethr =  1.56E-04,  avg # of iterations =  4.7

     total cpu time spent up to now is       60.7 secs

     total energy              =    -263.34312701 Ry
     estimated scf accuracy    <       0.01342791 Ry
[tb_dev] Currently allocated     2.67E-05 Mbytes, locked:    0 /   1
[tb_pin] Currently allocated     0.00E+00 Mbytes, locked:    0 /   0

     iteration #  5     ecut=    80.00 Ry     beta= 0.40
     Davidson diagonalization with overlap

---- Real-time Memory Report at c_bands before calling an iterative solver
          1327 MiB given to the printing process from OS
             0 MiB allocation reported by mallinfo(arena+hblkhd)
         13416 MiB available memory on the node where the printing process lives
     GPU memory used/free/total (MiB): 1419 / 10494 / 11914
------------------
     ethr =  3.20E-05,  avg # of iterations =  7.0

     total cpu time spent up to now is       78.7 secs

     total energy              =    -263.34635169 Ry
     estimated scf accuracy    <       0.03443631 Ry
[tb_dev] Currently allocated     2.67E-05 Mbytes, locked:    0 /   1
[tb_pin] Currently allocated     0.00E+00 Mbytes, locked:    0 /   0

     iteration #  6     ecut=    80.00 Ry     beta= 0.40
     Davidson diagonalization with overlap

---- Real-time Memory Report at c_bands before calling an iterative solver
          1332 MiB given to the printing process from OS
             0 MiB allocation reported by mallinfo(arena+hblkhd)
         13409 MiB available memory on the node where the printing process lives
     GPU memory used/free/total (MiB): 1421 / 10492 / 11914
------------------
     ethr =  3.20E-05,  avg # of iterations =  4.9

     total cpu time spent up to now is       92.8 secs

     total energy              =    -263.34514883 Ry
     estimated scf accuracy    <       0.00804228 Ry
[tb_dev] Currently allocated     2.67E-05 Mbytes, locked:    0 /   1
[tb_pin] Currently allocated     0.00E+00 Mbytes, locked:    0 /   0

     iteration #  7     ecut=    80.00 Ry     beta= 0.40
     Davidson diagonalization with overlap

---- Real-time Memory Report at c_bands before calling an iterative solver
          1336 MiB given to the printing process from OS
             0 MiB allocation reported by mallinfo(arena+hblkhd)
         13404 MiB available memory on the node where the printing process lives
     GPU memory used/free/total (MiB): 1421 / 10492 / 11914
------------------
     ethr =  1.91E-05,  avg # of iterations =  6.9

     total cpu time spent up to now is      109.2 secs

     total energy              =    -263.34731440 Ry
     estimated scf accuracy    <       0.01581455 Ry
[tb_dev] Currently allocated     2.67E-05 Mbytes, locked:    0 /   1
[tb_pin] Currently allocated     0.00E+00 Mbytes, locked:    0 /   0

     iteration #  8     ecut=    80.00 Ry     beta= 0.40
     Davidson diagonalization with overlap

---- Real-time Memory Report at c_bands before calling an iterative solver
          1341 MiB given to the printing process from OS
             0 MiB allocation reported by mallinfo(arena+hblkhd)
         13398 MiB available memory on the node where the printing process lives
     GPU memory used/free/total (MiB): 1421 / 10492 / 11914
------------------
     ethr =  1.91E-05,  avg # of iterations =  2.9

     total cpu time spent up to now is      119.5 secs

     total energy              =    -263.34738563 Ry
     estimated scf accuracy    <       0.00413552 Ry
[tb_dev] Currently allocated     2.67E-05 Mbytes, locked:    0 /   1
[tb_pin] Currently allocated     0.00E+00 Mbytes, locked:    0 /   0

     iteration #  9     ecut=    80.00 Ry     beta= 0.40
     Davidson diagonalization with overlap

---- Real-time Memory Report at c_bands before calling an iterative solver
          1348 MiB given to the printing process from OS
             0 MiB allocation reported by mallinfo(arena+hblkhd)
         13386 MiB available memory on the node where the printing process lives
     GPU memory used/free/total (MiB): 1421 / 10492 / 11914
------------------
     ethr =  9.85E-06,  avg # of iterations =  4.6

     total cpu time spent up to now is      132.6 secs

     total energy              =    -263.34835149 Ry
     estimated scf accuracy    <       0.00016172 Ry
[tb_dev] Currently allocated     2.67E-05 Mbytes, locked:    0 /   1
[tb_pin] Currently allocated     0.00E+00 Mbytes, locked:    0 /   0

     iteration # 10     ecut=    80.00 Ry     beta= 0.40
     Davidson diagonalization with overlap

---- Real-time Memory Report at c_bands before calling an iterative solver
          1353 MiB given to the printing process from OS
             0 MiB allocation reported by mallinfo(arena+hblkhd)
         13378 MiB available memory on the node where the printing process lives
     GPU memory used/free/total (MiB): 1421 / 10492 / 11914
------------------
     ethr =  3.85E-07,  avg # of iterations =  5.5

     total cpu time spent up to now is      147.5 secs

     total energy              =    -263.34838779 Ry
     estimated scf accuracy    <       0.00025847 Ry
[tb_dev] Currently allocated     2.67E-05 Mbytes, locked:    0 /   1
[tb_pin] Currently allocated     0.00E+00 Mbytes, locked:    0 /   0

     iteration # 11     ecut=    80.00 Ry     beta= 0.40
     Davidson diagonalization with overlap

---- Real-time Memory Report at c_bands before calling an iterative solver
          1355 MiB given to the printing process from OS
             0 MiB allocation reported by mallinfo(arena+hblkhd)
         13370 MiB available memory on the node where the printing process lives
     GPU memory used/free/total (MiB): 1421 / 10492 / 11914
------------------
     ethr =  3.85E-07,  avg # of iterations =  3.7

     negative rho (up, down):  7.599E-08 0.000E+00

     total cpu time spent up to now is      159.8 secs

     total energy              =    -263.34838769 Ry
     estimated scf accuracy    <       0.00005149 Ry
[tb_dev] Currently allocated     2.67E-05 Mbytes, locked:    0 /   1
[tb_pin] Currently allocated     0.00E+00 Mbytes, locked:    0 /   0

     iteration # 12     ecut=    80.00 Ry     beta= 0.40
     Davidson diagonalization with overlap

---- Real-time Memory Report at c_bands before calling an iterative solver
          1355 MiB given to the printing process from OS
             0 MiB allocation reported by mallinfo(arena+hblkhd)
         13365 MiB available memory on the node where the printing process lives
     GPU memory used/free/total (MiB): 1421 / 10492 / 11914
------------------
     ethr =  1.23E-07,  avg # of iterations =  6.1

     total cpu time spent up to now is      176.1 secs

     total energy              =    -263.34840693 Ry
     estimated scf accuracy    <       0.00003240 Ry
[tb_dev] Currently allocated     2.67E-05 Mbytes, locked:    0 /   1
[tb_pin] Currently allocated     0.00E+00 Mbytes, locked:    0 /   0

     iteration # 13     ecut=    80.00 Ry     beta= 0.40
     Davidson diagonalization with overlap

---- Real-time Memory Report at c_bands before calling an iterative solver
          1355 MiB given to the printing process from OS
             0 MiB allocation reported by mallinfo(arena+hblkhd)
         13381 MiB available memory on the node where the printing process lives
     GPU memory used/free/total (MiB): 1421 / 10492 / 11914
------------------
     ethr =  7.71E-08,  avg # of iterations =  1.7

     total cpu time spent up to now is      185.4 secs

     total energy              =    -263.34840384 Ry
     estimated scf accuracy    <       0.00001609 Ry
[tb_dev] Currently allocated     2.67E-05 Mbytes, locked:    0 /   1
[tb_pin] Currently allocated     0.00E+00 Mbytes, locked:    0 /   0

     iteration # 14     ecut=    80.00 Ry     beta= 0.40
     Davidson diagonalization with overlap

---- Real-time Memory Report at c_bands before calling an iterative solver
          1358 MiB given to the printing process from OS
             0 MiB allocation reported by mallinfo(arena+hblkhd)
         13379 MiB available memory on the node where the printing process lives
     GPU memory used/free/total (MiB): 1421 / 10492 / 11914
------------------
     ethr =  3.83E-08,  avg # of iterations =  5.5

     total cpu time spent up to now is      200.2 secs

     total energy              =    -263.34840819 Ry
     estimated scf accuracy    <       0.00000215 Ry
[tb_dev] Currently allocated     2.67E-05 Mbytes, locked:    0 /   1
[tb_pin] Currently allocated     0.00E+00 Mbytes, locked:    0 /   0

     iteration # 15     ecut=    80.00 Ry     beta= 0.40
     Davidson diagonalization with overlap

---- Real-time Memory Report at c_bands before calling an iterative solver
          1358 MiB given to the printing process from OS
             0 MiB allocation reported by mallinfo(arena+hblkhd)
         13379 MiB available memory on the node where the printing process lives
     GPU memory used/free/total (MiB): 1421 / 10492 / 11914
------------------
     ethr =  5.11E-09,  avg # of iterations =  4.3

     total cpu time spent up to now is      213.2 secs

     total energy              =    -263.34840796 Ry
     estimated scf accuracy    <       0.00000398 Ry
[tb_dev] Currently allocated     2.67E-05 Mbytes, locked:    0 /   1
[tb_pin] Currently allocated     0.00E+00 Mbytes, locked:    0 /   0

     iteration # 16     ecut=    80.00 Ry     beta= 0.40
     Davidson diagonalization with overlap

---- Real-time Memory Report at c_bands before calling an iterative solver
          1359 MiB given to the printing process from OS
             0 MiB allocation reported by mallinfo(arena+hblkhd)
         13366 MiB available memory on the node where the printing process lives
     GPU memory used/free/total (MiB): 1421 / 10492 / 11914
------------------
     ethr =  5.11E-09,  avg # of iterations =  2.7

     total cpu time spent up to now is      223.9 secs

     total energy              =    -263.34840758 Ry
     estimated scf accuracy    <       0.00000172 Ry
[tb_dev] Currently allocated     2.67E-05 Mbytes, locked:    0 /   1
[tb_pin] Currently allocated     0.00E+00 Mbytes, locked:    0 /   0

     iteration # 17     ecut=    80.00 Ry     beta= 0.40
     Davidson diagonalization with overlap

---- Real-time Memory Report at c_bands before calling an iterative solver
          1359 MiB given to the printing process from OS
             0 MiB allocation reported by mallinfo(arena+hblkhd)
         13375 MiB available memory on the node where the printing process lives
     GPU memory used/free/total (MiB): 1421 / 10492 / 11914
------------------
     ethr =  4.11E-09,  avg # of iterations =  5.6

     total cpu time spent up to now is      238.4 secs

     total energy              =    -263.34840814 Ry
     estimated scf accuracy    <       0.00000066 Ry
[tb_dev] Currently allocated     2.67E-05 Mbytes, locked:    0 /   1
[tb_pin] Currently allocated     0.00E+00 Mbytes, locked:    0 /   0

     iteration # 18     ecut=    80.00 Ry     beta= 0.40
     Davidson diagonalization with overlap

---- Real-time Memory Report at c_bands before calling an iterative solver
          1359 MiB given to the printing process from OS
             0 MiB allocation reported by mallinfo(arena+hblkhd)
         13386 MiB available memory on the node where the printing process lives
     GPU memory used/free/total (MiB): 1421 / 10492 / 11914
------------------
     ethr =  1.58E-09,  avg # of iterations =  1.2

     total cpu time spent up to now is      246.5 secs

     total energy              =    -263.34840803 Ry
     estimated scf accuracy    <       0.00000056 Ry
[tb_dev] Currently allocated     2.67E-05 Mbytes, locked:    0 /   1
[tb_pin] Currently allocated     0.00E+00 Mbytes, locked:    0 /   0

     iteration # 19     ecut=    80.00 Ry     beta= 0.40
     Davidson diagonalization with overlap

---- Real-time Memory Report at c_bands before calling an iterative solver
          1359 MiB given to the printing process from OS
             0 MiB allocation reported by mallinfo(arena+hblkhd)
         13377 MiB available memory on the node where the printing process lives
     GPU memory used/free/total (MiB): 1421 / 10492 / 11914
------------------
     ethr =  1.33E-09,  avg # of iterations =  3.1

     total cpu time spent up to now is      257.5 secs

     total energy              =    -263.34840807 Ry
     estimated scf accuracy    <       0.00000009 Ry
[tb_dev] Currently allocated     2.67E-05 Mbytes, locked:    0 /   1
[tb_pin] Currently allocated     0.00E+00 Mbytes, locked:    0 /   0

     iteration # 20     ecut=    80.00 Ry     beta= 0.40
     Davidson diagonalization with overlap

---- Real-time Memory Report at c_bands before calling an iterative solver
          1359 MiB given to the printing process from OS
             0 MiB allocation reported by mallinfo(arena+hblkhd)
         13379 MiB available memory on the node where the printing process lives
     GPU memory used/free/total (MiB): 1421 / 10492 / 11914
------------------
     ethr =  2.15E-10,  avg # of iterations =  5.0

     total cpu time spent up to now is      271.5 secs

     total energy              =    -263.34840809 Ry
     estimated scf accuracy    <          9.8E-09 Ry
[tb_dev] Currently allocated     2.67E-05 Mbytes, locked:    0 /   1
[tb_pin] Currently allocated     0.00E+00 Mbytes, locked:    0 /   0

     iteration # 21     ecut=    80.00 Ry     beta= 0.40
     Davidson diagonalization with overlap

---- Real-time Memory Report at c_bands before calling an iterative solver
          1359 MiB given to the printing process from OS
             0 MiB allocation reported by mallinfo(arena+hblkhd)
         13385 MiB available memory on the node where the printing process lives
     GPU memory used/free/total (MiB): 1421 / 10492 / 11914
------------------
     ethr =  2.32E-11,  avg # of iterations =  5.9

     total cpu time spent up to now is      287.6 secs

     total energy              =    -263.34840810 Ry
     estimated scf accuracy    <          2.1E-09 Ry
[tb_dev] Currently allocated     2.67E-05 Mbytes, locked:    0 /   1
[tb_pin] Currently allocated     0.00E+00 Mbytes, locked:    0 /   0

     iteration # 22     ecut=    80.00 Ry     beta= 0.40
     Davidson diagonalization with overlap

---- Real-time Memory Report at c_bands before calling an iterative solver
          1359 MiB given to the printing process from OS
             0 MiB allocation reported by mallinfo(arena+hblkhd)
         13396 MiB available memory on the node where the printing process lives
     GPU memory used/free/total (MiB): 1421 / 10492 / 11914
------------------
     ethr =  5.04E-12,  avg # of iterations =  8.9

     total cpu time spent up to now is      311.8 secs

     total energy              =    -263.34840810 Ry
     estimated scf accuracy    <       0.00000004 Ry
[tb_dev] Currently allocated     2.67E-05 Mbytes, locked:    0 /   1
[tb_pin] Currently allocated     0.00E+00 Mbytes, locked:    0 /   0

     iteration # 23     ecut=    80.00 Ry     beta= 0.40
     Davidson diagonalization with overlap

---- Real-time Memory Report at c_bands before calling an iterative solver
          1360 MiB given to the printing process from OS
             0 MiB allocation reported by mallinfo(arena+hblkhd)
         13395 MiB available memory on the node where the printing process lives
     GPU memory used/free/total (MiB): 1421 / 10492 / 11914
------------------
     ethr =  5.04E-12,  avg # of iterations =  4.7

     total cpu time spent up to now is      326.3 secs

     total energy              =    -263.34840810 Ry
     estimated scf accuracy    <       0.00000002 Ry
[tb_dev] Currently allocated     2.67E-05 Mbytes, locked:    0 /   1
[tb_pin] Currently allocated     0.00E+00 Mbytes, locked:    0 /   0

     iteration # 24     ecut=    80.00 Ry     beta= 0.40
     Davidson diagonalization with overlap

---- Real-time Memory Report at c_bands before calling an iterative solver
          1360 MiB given to the printing process from OS
             0 MiB allocation reported by mallinfo(arena+hblkhd)
         13409 MiB available memory on the node where the printing process lives
     GPU memory used/free/total (MiB): 1421 / 10492 / 11914
------------------
     ethr =  5.04E-12,  avg # of iterations =  5.8

     total cpu time spent up to now is      343.1 secs

     total energy              =    -263.34840810 Ry
     estimated scf accuracy    <          6.7E-09 Ry
[tb_dev] Currently allocated     2.67E-05 Mbytes, locked:    0 /   1
[tb_pin] Currently allocated     0.00E+00 Mbytes, locked:    0 /   0

     iteration # 25     ecut=    80.00 Ry     beta= 0.40
     Davidson diagonalization with overlap

---- Real-time Memory Report at c_bands before calling an iterative solver
          1360 MiB given to the printing process from OS
             0 MiB allocation reported by mallinfo(arena+hblkhd)
         13410 MiB available memory on the node where the printing process lives
     GPU memory used/free/total (MiB): 1421 / 10492 / 11914
------------------
     ethr =  5.04E-12,  avg # of iterations =  2.1

     total cpu time spent up to now is      353.8 secs

     total energy              =    -263.34840810 Ry
     estimated scf accuracy    <          4.5E-09 Ry
[tb_dev] Currently allocated     2.67E-05 Mbytes, locked:    0 /   1
[tb_pin] Currently allocated     0.00E+00 Mbytes, locked:    0 /   0

     iteration # 26     ecut=    80.00 Ry     beta= 0.40
     Davidson diagonalization with overlap

---- Real-time Memory Report at c_bands before calling an iterative solver
          1360 MiB given to the printing process from OS
             0 MiB allocation reported by mallinfo(arena+hblkhd)
         13406 MiB available memory on the node where the printing process lives
     GPU memory used/free/total (MiB): 1421 / 10492 / 11914
------------------
     ethr =  5.04E-12,  avg # of iterations =  3.9

     total cpu time spent up to now is      367.1 secs

     total energy              =    -263.34840810 Ry
     estimated scf accuracy    <          1.3E-09 Ry
[tb_dev] Currently allocated     2.67E-05 Mbytes, locked:    0 /   1
[tb_pin] Currently allocated     0.00E+00 Mbytes, locked:    0 /   0

     iteration # 27     ecut=    80.00 Ry     beta= 0.40
     Davidson diagonalization with overlap

---- Real-time Memory Report at c_bands before calling an iterative solver
          1362 MiB given to the printing process from OS
             0 MiB allocation reported by mallinfo(arena+hblkhd)
         13406 MiB available memory on the node where the printing process lives
     GPU memory used/free/total (MiB): 1421 / 10492 / 11914
------------------
     ethr =  3.17E-12,  avg # of iterations =  5.0

     total cpu time spent up to now is      382.3 secs

     End of self-consistent calculation

          k = 0.0000 0.0000 0.0000 ( 14845 PWs)   bands (ev):

   -77.8509 -49.0597 -49.0596 -49.0091 -24.5312 -24.4497 -21.7752 -20.3749
   -13.9972 -11.3677  -9.4353  -9.2831  -9.2820  -9.2317  -9.2311  -8.8477
    -8.8476  -7.5528  -7.5513  -7.5163  -5.3960

     occupation numbers 
     1.0000   1.0000   1.0000   1.0000   1.0000   1.0000   1.0000   1.0000
     1.0000   1.0000   1.0000   1.0000   1.0000   1.0000   1.0000   1.0000
     1.0000   1.0000   1.0000   1.0000   1.0000

          k = 0.0000 0.1050 0.0000 ( 14773 PWs)   bands (ev):

   -77.8482 -49.0812 -49.0646 -49.0052 -24.3891 -24.3097 -21.6665 -20.3161
   -13.8841 -11.3161  -9.9711  -9.8867  -9.4107  -9.3740  -9.2326  -9.0940
    -8.7597  -7.8221  -7.6954  -7.3302  -5.5030

     occupation numbers 
     1.0000   1.0000   1.0000   1.0000   1.0000   1.0000   1.0000   1.0000
     1.0000   1.0000   1.0000   1.0000   1.0000   1.0000   1.0000   1.0000
     1.0000   1.0000   1.0000   1.0000   1.0000

          k = 0.0000 0.2099 0.0000 ( 14733 PWs)   bands (ev):

   -77.8407 -49.1389 -49.0777 -48.9948 -23.9750 -23.9014 -21.3674 -20.1572
   -13.6109 -11.4469 -11.2581 -11.0630  -9.7434  -9.7241  -9.7176  -8.9938
    -8.5011  -8.2190  -8.0392  -7.4238  -5.8678

     occupation numbers 
     1.0000   1.0000   1.0000   1.0000   1.0000   1.0000   1.0000   1.0000
     1.0000   1.0000   1.0000   1.0000   1.0000   1.0000   1.0000   1.0000
     1.0000   1.0000   1.0000   1.0000   1.0000

          k = 0.0000 0.3149 0.0000 ( 14735 PWs)   bands (ev):

   -77.8310 -49.2137 -49.0948 -48.9810 -23.3312 -23.2664 -20.9641 -19.9562
   -13.6355 -12.9918 -12.3963 -11.0018 -10.3939 -10.1454 -10.1221  -8.8483
    -8.6530  -8.4396  -8.1216  -7.6091  -6.2542

     occupation numbers 
     1.0000   1.0000   1.0000   1.0000   1.0000   1.0000   1.0000   1.0000
     1.0000   1.0000   1.0000   1.0000   1.0000   1.0000   1.0000   1.0000
     1.0000   1.0000   1.0000   1.0000   1.0000

          k = 0.0000 0.4199 0.0000 ( 14683 PWs)   bands (ev):

   -77.8221 -49.2819 -49.1105 -48.9683 -22.5612 -22.5075 -20.6113 -19.8181
   -14.6799 -14.4043 -12.3974 -11.2112 -10.7898 -10.4803 -10.4467  -9.2669
    -8.7525  -8.4211  -7.7570  -7.6929  -6.3817

     occupation numbers 
     1.0000   1.0000   1.0000   1.0000   1.0000   1.0000   1.0000   1.0000
     1.0000   1.0000   1.0000   1.0000   1.0000   1.0000   1.0000   1.0000
     1.0000   1.0000   1.0000   1.0000   1.0000

          k = 0.0000 0.5249 0.0000 ( 14716 PWs)   bands (ev):

   -77.8168 -49.3221 -49.1198 -48.9608 -21.9265 -21.8834 -20.4757 -19.8262
   -15.5059 -15.2583 -12.2219 -11.6022 -10.9279 -10.6653 -10.6258  -9.4268
    -8.9257  -8.1725  -7.7092  -7.5223  -6.3420

     occupation numbers 
     1.0000   1.0000   1.0000   1.0000   1.0000   1.0000   1.0000   1.0000
     1.0000   1.0000   1.0000   1.0000   1.0000   1.0000   1.0000   1.0000
     1.0000   1.0000   1.0000   1.0000   1.0000

          k = 0.0000-0.5249 0.0000 ( 14716 PWs)   bands (ev):

   -77.8168 -49.3221 -49.1198 -48.9608 -21.9265 -21.8834 -20.4757 -19.8262
   -15.5059 -15.2583 -12.2219 -11.6022 -10.9279 -10.6653 -10.6258  -9.4268
    -8.9257  -8.1725  -7.7092  -7.5223  -6.3420

     occupation numbers 
     1.0000   1.0000   1.0000   1.0000   1.0000   1.0000   1.0000   1.0000
     1.0000   1.0000   1.0000   1.0000   1.0000   1.0000   1.0000   1.0000
     1.0000   1.0000   1.0000   1.0000   1.0000

          k = 0.0000-0.4199 0.0000 ( 14683 PWs)   bands (ev):

   -77.8221 -49.2819 -49.1105 -48.9683 -22.5612 -22.5075 -20.6113 -19.8181
   -14.6799 -14.4043 -12.3974 -11.2112 -10.7898 -10.4803 -10.4467  -9.2669
    -8.7525  -8.4211  -7.7570  -7.6929  -6.3817

     occupation numbers 
     1.0000   1.0000   1.0000   1.0000   1.0000   1.0000   1.0000   1.0000
     1.0000   1.0000   1.0000   1.0000   1.0000   1.0000   1.0000   1.0000
     1.0000   1.0000   1.0000   1.0000   1.0000

          k = 0.0000-0.3149 0.0000 ( 14735 PWs)   bands (ev):

   -77.8310 -49.2137 -49.0948 -48.9810 -23.3312 -23.2664 -20.9641 -19.9562
   -13.6355 -12.9918 -12.3963 -11.0018 -10.3939 -10.1454 -10.1221  -8.8483
    -8.6530  -8.4396  -8.1216  -7.6091  -6.2542

     occupation numbers 
     1.0000   1.0000   1.0000   1.0000   1.0000   1.0000   1.0000   1.0000
     1.0000   1.0000   1.0000   1.0000   1.0000   1.0000   1.0000   1.0000
     1.0000   1.0000   1.0000   1.0000   1.0000

          k = 0.0000-0.2099 0.0000 ( 14733 PWs)   bands (ev):

   -77.8407 -49.1389 -49.0777 -48.9948 -23.9750 -23.9014 -21.3674 -20.1572
   -13.6109 -11.4469 -11.2581 -11.0630  -9.7434  -9.7241  -9.7176  -8.9938
    -8.5011  -8.2190  -8.0392  -7.4238  -5.8678

     occupation numbers 
     1.0000   1.0000   1.0000   1.0000   1.0000   1.0000   1.0000   1.0000
     1.0000   1.0000   1.0000   1.0000   1.0000   1.0000   1.0000   1.0000
     1.0000   1.0000   1.0000   1.0000   1.0000

          k = 0.0000-0.1050 0.0000 ( 14773 PWs)   bands (ev):

   -77.8482 -49.0812 -49.0646 -49.0052 -24.3891 -24.3097 -21.6665 -20.3161
   -13.8841 -11.3161  -9.9711  -9.8867  -9.4107  -9.3740  -9.2326  -9.0940
    -8.7597  -7.8221  -7.6954  -7.3302  -5.5030

     occupation numbers 
     1.0000   1.0000   1.0000   1.0000   1.0000   1.0000   1.0000   1.0000
     1.0000   1.0000   1.0000   1.0000   1.0000   1.0000   1.0000   1.0000
     1.0000   1.0000   1.0000   1.0000   1.0000

          k = 0.0909 0.0525 0.0000 ( 14773 PWs)   bands (ev):

   -77.8482 -49.0812 -49.0646 -49.0052 -24.3891 -24.3097 -21.6665 -20.3161
   -13.8841 -11.3161  -9.9711  -9.8867  -9.4107  -9.3740  -9.2326  -9.0940
    -8.7597  -7.8221  -7.6954  -7.3302  -5.5030

     occupation numbers 
     1.0000   1.0000   1.0000   1.0000   1.0000   1.0000   1.0000   1.0000
     1.0000   1.0000   1.0000   1.0000   1.0000   1.0000   1.0000   1.0000
     1.0000   1.0000   1.0000   1.0000   1.0000

          k = 0.0909 0.1575 0.0000 ( 14793 PWs)   bands (ev):

   -77.8431 -49.1195 -49.0749 -48.9980 -24.1109 -24.0354 -21.4623 -20.2069
   -13.6876 -11.2604 -10.8279 -10.7941  -9.8369  -9.7185  -9.3987  -9.0559
    -8.6124  -8.0931  -7.9720  -7.3173  -5.7486

     occupation numbers 
     1.0000   1.0000   1.0000   1.0000   1.0000   1.0000   1.0000   1.0000
     1.0000   1.0000   1.0000   1.0000   1.0000   1.0000   1.0000   1.0000
     1.0000   1.0000   1.0000   1.0000   1.0000

          k = 0.0909 0.2624 0.0000 ( 14738 PWs)   bands (ev):

   -77.8345 -49.1825 -49.0932 -48.9859 -23.5802 -23.5120 -21.1092 -20.0245
   -13.4860 -12.2879 -11.9880 -11.0127 -10.4689 -10.2575  -9.8872  -8.8421
    -8.7262  -8.3375  -8.1087  -7.4954  -6.1385

     occupation numbers 
     1.0000   1.0000   1.0000   1.0000   1.0000   1.0000   1.0000   1.0000
     1.0000   1.0000   1.0000   1.0000   1.0000   1.0000   1.0000   1.0000
     1.0000   1.0000   1.0000   1.0000   1.0000

          k = 0.0909 0.3674 0.0000 ( 14715 PWs)   bands (ev):

   -77.8252 -49.2503 -49.1133 -48.9727 -22.8648 -22.8064 -20.7251 -19.8484
   -14.0867 -13.7236 -12.4172 -11.1336 -10.8601 -10.6884 -10.4127  -9.3510
    -8.5999  -8.3127  -8.0520  -7.6567  -6.3742

     occupation numbers 
     1.0000   1.0000   1.0000   1.0000   1.0000   1.0000   1.0000   1.0000
     1.0000   1.0000   1.0000   1.0000   1.0000   1.0000   1.0000   1.0000
     1.0000   1.0000   1.0000   1.0000   1.0000

          k = 0.0909 0.4724 0.0000 ( 14702 PWs)   bands (ev):

   -77.8181 -49.3016 -49.1287 -48.9626 -22.1276 -22.0805 -20.4833 -19.7878
   -15.0953 -14.8420 -12.2528 -11.5326 -11.1128 -10.8677 -10.7791  -9.5707
    -8.7726  -8.2244  -7.9215  -7.6063  -6.3416

     occupation numbers 
     1.0000   1.0000   1.0000   1.0000   1.0000   1.0000   1.0000   1.0000
     1.0000   1.0000   1.0000   1.0000   1.0000   1.0000   1.0000   1.0000
     1.0000   1.0000   1.0000   1.0000   1.0000

          k = 0.0909 0.5774 0.0000 ( 14712 PWs)   bands (ev):

   -77.8154 -49.3207 -49.1344 -48.9589 -21.7597 -21.7181 -20.4472 -19.8209
   -15.5208 -15.2725 -12.1473 -11.7196 -11.1660 -11.0892 -10.8579  -9.5271
    -8.9622  -8.0956  -7.8649  -7.5723  -6.2737

     occupation numbers 
     1.0000   1.0000   1.0000   1.0000   1.0000   1.0000   1.0000   1.0000
     1.0000   1.0000   1.0000   1.0000   1.0000   1.0000   1.0000   1.0000
     1.0000   1.0000   1.0000   1.0000   1.0000

          k = 0.0909-0.4724 0.0000 ( 14702 PWs)   bands (ev):

   -77.8181 -49.3016 -49.1287 -48.9626 -22.1275 -22.0805 -20.4834 -19.7878
   -15.0953 -14.8420 -12.2528 -11.5325 -11.1126 -10.8678 -10.7793  -9.5702
    -8.7728  -8.2244  -7.9217  -7.6065  -6.3414

     occupation numbers 
     1.0000   1.0000   1.0000   1.0000   1.0000   1.0000   1.0000   1.0000
     1.0000   1.0000   1.0000   1.0000   1.0000   1.0000   1.0000   1.0000
     1.0000   1.0000   1.0000   1.0000   1.0000

          k = 0.0909-0.3674 0.0000 ( 14715 PWs)   bands (ev):

   -77.8252 -49.2503 -49.1133 -48.9727 -22.8647 -22.8063 -20.7251 -19.8485
   -14.0868 -13.7237 -12.4172 -11.1334 -10.8599 -10.6882 -10.4129  -9.3508
    -8.5998  -8.3127  -8.0522  -7.6571  -6.3739

     occupation numbers 
     1.0000   1.0000   1.0000   1.0000   1.0000   1.0000   1.0000   1.0000
     1.0000   1.0000   1.0000   1.0000   1.0000   1.0000   1.0000   1.0000
     1.0000   1.0000   1.0000   1.0000   1.0000

          k = 0.0909-0.2624 0.0000 ( 14738 PWs)   bands (ev):

   -77.8345 -49.1825 -49.0932 -48.9859 -23.5802 -23.5120 -21.1092 -20.0245
   -13.4861 -12.2881 -11.9882 -11.0126 -10.4686 -10.2571  -9.8874  -8.8420
    -8.7265  -8.3375  -8.1081  -7.4960  -6.1382

     occupation numbers 
     1.0000   1.0000   1.0000   1.0000   1.0000   1.0000   1.0000   1.0000
     1.0000   1.0000   1.0000   1.0000   1.0000   1.0000   1.0000   1.0000
     1.0000   1.0000   1.0000   1.0000   1.0000

          k = 0.0909-0.1575 0.0000 ( 14793 PWs)   bands (ev):

   -77.8431 -49.1196 -49.0748 -48.9980 -24.1109 -24.0354 -21.4624 -20.2069
   -13.6876 -11.2604 -10.8288 -10.7941  -9.8364  -9.7180  -9.3988  -9.0559
    -8.6122  -8.0936  -7.9713  -7.3178  -5.7484

     occupation numbers 
     1.0000   1.0000   1.0000   1.0000   1.0000   1.0000   1.0000   1.0000
     1.0000   1.0000   1.0000   1.0000   1.0000   1.0000   1.0000   1.0000
     1.0000   1.0000   1.0000   1.0000   1.0000

          k = 0.0909-0.0525 0.0000 ( 14773 PWs)   bands (ev):

   -77.8482 -49.0813 -49.0645 -49.0052 -24.3891 -24.3097 -21.6665 -20.3161
   -13.8841 -11.3161  -9.9717  -9.8871  -9.4098  -9.3737  -9.2327  -9.0941
    -8.7596  -7.8211  -7.6965  -7.3302  -5.5029

     occupation numbers 
     1.0000   1.0000   1.0000   1.0000   1.0000   1.0000   1.0000   1.0000
     1.0000   1.0000   1.0000   1.0000   1.0000   1.0000   1.0000   1.0000
     1.0000   1.0000   1.0000   1.0000   1.0000

          k = 0.1818 0.1050 0.0000 ( 14733 PWs)   bands (ev):

   -77.8407 -49.1389 -49.0777 -48.9948 -23.9750 -23.9014 -21.3674 -20.1572
   -13.6109 -11.4469 -11.2581 -11.0630  -9.7434  -9.7241  -9.7176  -8.9938
    -8.5011  -8.2190  -8.0392  -7.4238  -5.8678

     occupation numbers 
     1.0000   1.0000   1.0000   1.0000   1.0000   1.0000   1.0000   1.0000
     1.0000   1.0000   1.0000   1.0000   1.0000   1.0000   1.0000   1.0000
     1.0000   1.0000   1.0000   1.0000   1.0000

          k = 0.1818 0.2099 0.0000 ( 14738 PWs)   bands (ev):

   -77.8345 -49.1825 -49.0932 -48.9859 -23.5802 -23.5120 -21.1092 -20.0245
   -13.4860 -12.2879 -11.9880 -11.0127 -10.4689 -10.2575  -9.8872  -8.8421
    -8.7262  -8.3375  -8.1087  -7.4954  -6.1385

     occupation numbers 
     1.0000   1.0000   1.0000   1.0000   1.0000   1.0000   1.0000   1.0000
     1.0000   1.0000   1.0000   1.0000   1.0000   1.0000   1.0000   1.0000
     1.0000   1.0000   1.0000   1.0000   1.0000

          k = 0.1818 0.3149 0.0000 ( 14730 PWs)   bands (ev):

   -77.8263 -49.2325 -49.1205 -48.9744 -22.9725 -22.9125 -20.7702 -19.8613
   -13.7704 -13.2802 -12.3105 -11.3823 -11.2282 -10.7680 -10.2535  -9.4781
    -8.6101  -8.3293  -7.9509  -7.7071  -6.3726

     occupation numbers 
     1.0000   1.0000   1.0000   1.0000   1.0000   1.0000   1.0000   1.0000
     1.0000   1.0000   1.0000   1.0000   1.0000   1.0000   1.0000   1.0000
     1.0000   1.0000   1.0000   1.0000   1.0000

          k = 0.1818 0.4199 0.0000 ( 14698 PWs)   bands (ev):

   -77.8188 -49.2746 -49.1490 -48.9637 -22.2589 -22.2089 -20.4888 -19.7556
   -14.5357 -14.2438 -12.2871 -12.0374 -11.8612 -10.7451 -10.6167  -9.8953
    -8.6007  -8.4755  -8.0501  -7.6491  -6.3551

     occupation numbers 
     1.0000   1.0000   1.0000   1.0000   1.0000   1.0000   1.0000   1.0000
     1.0000   1.0000   1.0000   1.0000   1.0000   1.0000   1.0000   1.0000
     1.0000   1.0000   1.0000   1.0000   1.0000

          k = 0.1818 0.5249 0.0000 ( 14692 PWs)   bands (ev):

   -77.8143 -49.2984 -49.1671 -48.9574 -21.6877 -21.6455 -20.3924 -19.7656
   -15.1399 -14.8844 -12.5492 -12.3775 -11.6637 -11.1119 -10.8880  -9.7113
    -8.9661  -8.6080  -8.0013  -7.4834  -6.1891

     occupation numbers 
     1.0000   1.0000   1.0000   1.0000   1.0000   1.0000   1.0000   1.0000
     1.0000   1.0000   1.0000   1.0000   1.0000   1.0000   1.0000   1.0000
     1.0000   1.0000   1.0000   1.0000   1.0000

          k = 0.1818 0.6298 0.0000 ( 14692 PWs)   bands (ev):

   -77.8143 -49.2984 -49.1671 -48.9574 -21.6876 -21.6454 -20.3925 -19.7656
   -15.1400 -14.8844 -12.5491 -12.3774 -11.6636 -11.1120 -10.8882  -9.7108
    -8.9663  -8.6079  -8.0016  -7.4834  -6.1889

     occupation numbers 
     1.0000   1.0000   1.0000   1.0000   1.0000   1.0000   1.0000   1.0000
     1.0000   1.0000   1.0000   1.0000   1.0000   1.0000   1.0000   1.0000
     1.0000   1.0000   1.0000   1.0000   1.0000

          k = 0.1818-0.4199 0.0000 ( 14698 PWs)   bands (ev):

   -77.8188 -49.2746 -49.1490 -48.9637 -22.2588 -22.2088 -20.4890 -19.7557
   -14.5359 -14.2438 -12.2869 -12.0371 -11.8611 -10.7453 -10.6171  -9.8948
    -8.6006  -8.4753  -8.0511  -7.6492  -6.3547

     occupation numbers 
     1.0000   1.0000   1.0000   1.0000   1.0000   1.0000   1.0000   1.0000
     1.0000   1.0000   1.0000   1.0000   1.0000   1.0000   1.0000   1.0000
     1.0000   1.0000   1.0000   1.0000   1.0000

          k = 0.1818-0.3149 0.0000 ( 14730 PWs)   bands (ev):

   -77.8263 -49.2325 -49.1205 -48.9744 -22.9725 -22.9124 -20.7703 -19.8614
   -13.7708 -13.2805 -12.3105 -11.3817 -11.2278 -10.7679 -10.2538  -9.4781
    -8.6101  -8.3291  -7.9507  -7.7080  -6.3721

     occupation numbers 
     1.0000   1.0000   1.0000   1.0000   1.0000   1.0000   1.0000   1.0000
     1.0000   1.0000   1.0000   1.0000   1.0000   1.0000   1.0000   1.0000
     1.0000   1.0000   1.0000   1.0000   1.0000

          k = 0.1818-0.2099 0.0000 ( 14738 PWs)   bands (ev):

   -77.8345 -49.1825 -49.0932 -48.9859 -23.5802 -23.5120 -21.1092 -20.0245
   -13.4862 -12.2883 -11.9883 -11.0126 -10.4685 -10.2569  -9.8873  -8.8419
    -8.7265  -8.3374  -8.1084  -7.4960  -6.1381

     occupation numbers 
     1.0000   1.0000   1.0000   1.0000   1.0000   1.0000   1.0000   1.0000
     1.0000   1.0000   1.0000   1.0000   1.0000   1.0000   1.0000   1.0000
     1.0000   1.0000   1.0000   1.0000   1.0000

          k = 0.1818-0.1050 0.0000 ( 14733 PWs)   bands (ev):

   -77.8407 -49.1389 -49.0776 -48.9948 -23.9749 -23.9014 -21.3675 -20.1572
   -13.6110 -11.4471 -11.2586 -11.0630  -9.7422  -9.7242  -9.7178  -8.9937
    -8.5010  -8.2183  -8.0400  -7.4240  -5.8675

     occupation numbers 
     1.0000   1.0000   1.0000   1.0000   1.0000   1.0000   1.0000   1.0000
     1.0000   1.0000   1.0000   1.0000   1.0000   1.0000   1.0000   1.0000
     1.0000   1.0000   1.0000   1.0000   1.0000

          k = 0.1818-0.0000 0.0000 ( 14793 PWs)   bands (ev):

   -77.8431 -49.1196 -49.0748 -48.9980 -24.1109 -24.0354 -21.4624 -20.2069
   -13.6876 -11.2604 -10.8288 -10.7941  -9.8364  -9.7180  -9.3988  -9.0559
    -8.6122  -8.0936  -7.9713  -7.3178  -5.7484

     occupation numbers 
     1.0000   1.0000   1.0000   1.0000   1.0000   1.0000   1.0000   1.0000
     1.0000   1.0000   1.0000   1.0000   1.0000   1.0000   1.0000   1.0000
     1.0000   1.0000   1.0000   1.0000   1.0000

          k = 0.2727 0.1575 0.0000 ( 14735 PWs)   bands (ev):

   -77.8310 -49.2137 -49.0948 -48.9810 -23.3312 -23.2664 -20.9641 -19.9562
   -13.6355 -12.9918 -12.3963 -11.0018 -10.3939 -10.1454 -10.1221  -8.8483
    -8.6530  -8.4396  -8.1216  -7.6091  -6.2542

     occupation numbers 
     1.0000   1.0000   1.0000   1.0000   1.0000   1.0000   1.0000   1.0000
     1.0000   1.0000   1.0000   1.0000   1.0000   1.0000   1.0000   1.0000
     1.0000   1.0000   1.0000   1.0000   1.0000

          k = 0.2727 0.2624 0.0000 ( 14715 PWs)   bands (ev):

   -77.8252 -49.2503 -49.1133 -48.9727 -22.8648 -22.8064 -20.7251 -19.8484
   -14.0867 -13.7236 -12.4172 -11.1336 -10.8601 -10.6884 -10.4127  -9.3510
    -8.5999  -8.3127  -8.0520  -7.6567  -6.3742

     occupation numbers 
     1.0000   1.0000   1.0000   1.0000   1.0000   1.0000   1.0000   1.0000
     1.0000   1.0000   1.0000   1.0000   1.0000   1.0000   1.0000   1.0000
     1.0000   1.0000   1.0000   1.0000   1.0000

          k = 0.2727 0.3674 0.0000 ( 14698 PWs)   bands (ev):

   -77.8188 -49.2746 -49.1490 -48.9637 -22.2589 -22.2089 -20.4888 -19.7556
   -14.5357 -14.2438 -12.2871 -12.0374 -11.8612 -10.7451 -10.6167  -9.8953
    -8.6007  -8.4755  -8.0501  -7.6491  -6.3551

     occupation numbers 
     1.0000   1.0000   1.0000   1.0000   1.0000   1.0000   1.0000   1.0000
     1.0000   1.0000   1.0000   1.0000   1.0000   1.0000   1.0000   1.0000
     1.0000   1.0000   1.0000   1.0000   1.0000

          k = 0.2727 0.4724 0.0000 ( 14692 PWs)   bands (ev):

   -77.8139 -49.2793 -49.1902 -48.9568 -21.6751 -21.6324 -20.3631 -19.7318
   -14.7672 -14.4799 -13.1308 -12.9965 -11.7174 -10.9351 -10.7005  -9.8912
    -9.2592  -8.7008  -8.0173  -7.4634  -6.1548

     occupation numbers 
     1.0000   1.0000   1.0000   1.0000   1.0000   1.0000   1.0000   1.0000
     1.0000   1.0000   1.0000   1.0000   1.0000   1.0000   1.0000   1.0000
     1.0000   1.0000   1.0000   1.0000   1.0000

          k = 0.2727 0.5774 0.0000 ( 14670 PWs)   bands (ev):

   -77.8121 -49.2742 -49.2124 -48.9543 -21.4082 -21.3637 -20.3520 -19.7491
   -14.8026 -14.5061 -13.5534 -13.4606 -11.4272 -11.1042 -10.7684  -9.8317
    -9.4504  -9.0094  -7.9495  -7.3657  -6.0115

     occupation numbers 
     1.0000   1.0000   1.0000   1.0000   1.0000   1.0000   1.0000   1.0000
     1.0000   1.0000   1.0000   1.0000   1.0000   1.0000   1.0000   1.0000
     1.0000   1.0000   1.0000   1.0000   1.0000

          k = 0.2727 0.6823 0.0000 ( 14692 PWs)   bands (ev):

   -77.8139 -49.2793 -49.1901 -48.9568 -21.6750 -21.6323 -20.3633 -19.7319
   -14.7675 -14.4800 -13.1303 -12.9963 -11.7174 -10.9354 -10.7010  -9.8906
    -9.2587  -8.7012  -8.0180  -7.4634  -6.1545

     occupation numbers 
     1.0000   1.0000   1.0000   1.0000   1.0000   1.0000   1.0000   1.0000
     1.0000   1.0000   1.0000   1.0000   1.0000   1.0000   1.0000   1.0000
     1.0000   1.0000   1.0000   1.0000   1.0000

          k = 0.2727-0.3674 0.0000 ( 14698 PWs)   bands (ev):

   -77.8188 -49.2746 -49.1490 -48.9637 -22.2587 -22.2088 -20.4891 -19.7557
   -14.5361 -14.2438 -12.2868 -12.0370 -11.8611 -10.7454 -10.6168  -9.8949
    -8.6004  -8.4755  -8.0513  -7.6490  -6.3546

     occupation numbers 
     1.0000   1.0000   1.0000   1.0000   1.0000   1.0000   1.0000   1.0000
     1.0000   1.0000   1.0000   1.0000   1.0000   1.0000   1.0000   1.0000
     1.0000   1.0000   1.0000   1.0000   1.0000

          k = 0.2727-0.2624 0.0000 ( 14715 PWs)   bands (ev):

   -77.8252 -49.2503 -49.1133 -48.9727 -22.8647 -22.8063 -20.7252 -19.8485
   -14.0871 -13.7238 -12.4172 -11.1334 -10.8599 -10.6877 -10.4127  -9.3509
    -8.6000  -8.3131  -8.0521  -7.6570  -6.3736

     occupation numbers 
     1.0000   1.0000   1.0000   1.0000   1.0000   1.0000   1.0000   1.0000
     1.0000   1.0000   1.0000   1.0000   1.0000   1.0000   1.0000   1.0000
     1.0000   1.0000   1.0000   1.0000   1.0000

          k = 0.2727-0.1575 0.0000 ( 14735 PWs)   bands (ev):

   -77.8310 -49.2137 -49.0948 -48.9810 -23.3311 -23.2664 -20.9642 -19.9562
   -13.6359 -12.9920 -12.3964 -11.0016 -10.3940 -10.1444 -10.1221  -8.8477
    -8.6534  -8.4402  -8.1216  -7.6092  -6.2537

     occupation numbers 
     1.0000   1.0000   1.0000   1.0000   1.0000   1.0000   1.0000   1.0000
     1.0000   1.0000   1.0000   1.0000   1.0000   1.0000   1.0000   1.0000
     1.0000   1.0000   1.0000   1.0000   1.0000

          k = 0.2727-0.0525 0.0000 ( 14738 PWs)   bands (ev):

   -77.8345 -49.1825 -49.0932 -48.9859 -23.5802 -23.5120 -21.1092 -20.0245
   -13.4862 -12.2883 -11.9883 -11.0126 -10.4685 -10.2569  -9.8873  -8.8419
    -8.7265  -8.3374  -8.1084  -7.4960  -6.1381

     occupation numbers 
     1.0000   1.0000   1.0000   1.0000   1.0000   1.0000   1.0000   1.0000
     1.0000   1.0000   1.0000   1.0000   1.0000   1.0000   1.0000   1.0000
     1.0000   1.0000   1.0000   1.0000   1.0000

          k = 0.2727 0.0525 0.0000 ( 14738 PWs)   bands (ev):

   -77.8345 -49.1825 -49.0932 -48.9859 -23.5802 -23.5120 -21.1092 -20.0245
   -13.4861 -12.2881 -11.9882 -11.0126 -10.4686 -10.2571  -9.8874  -8.8421
    -8.7265  -8.3375  -8.1081  -7.4960  -6.1382

     occupation numbers 
     1.0000   1.0000   1.0000   1.0000   1.0000   1.0000   1.0000   1.0000
     1.0000   1.0000   1.0000   1.0000   1.0000   1.0000   1.0000   1.0000
     1.0000   1.0000   1.0000   1.0000   1.0000

          k = 0.3636 0.2099 0.0000 ( 14683 PWs)   bands (ev):

   -77.8221 -49.2819 -49.1105 -48.9683 -22.5612 -22.5075 -20.6113 -19.8181
   -14.6799 -14.4043 -12.3974 -11.2112 -10.7898 -10.4803 -10.4467  -9.2669
    -8.7525  -8.4211  -7.7570  -7.6929  -6.3817

     occupation numbers 
     1.0000   1.0000   1.0000   1.0000   1.0000   1.0000   1.0000   1.0000
     1.0000   1.0000   1.0000   1.0000   1.0000   1.0000   1.0000   1.0000
     1.0000   1.0000   1.0000   1.0000   1.0000

          k = 0.3636 0.3149 0.0000 ( 14702 PWs)   bands (ev):

   -77.8181 -49.3016 -49.1287 -48.9626 -22.1276 -22.0805 -20.4833 -19.7878
   -15.0953 -14.8420 -12.2528 -11.5326 -11.1128 -10.8677 -10.7791  -9.5707
    -8.7726  -8.2244  -7.9215  -7.6063  -6.3416

     occupation numbers 
     1.0000   1.0000   1.0000   1.0000   1.0000   1.0000   1.0000   1.0000
     1.0000   1.0000   1.0000   1.0000   1.0000   1.0000   1.0000   1.0000
     1.0000   1.0000   1.0000   1.0000   1.0000

          k = 0.3636 0.4199 0.0000 ( 14692 PWs)   bands (ev):

   -77.8143 -49.2984 -49.1671 -48.9574 -21.6877 -21.6455 -20.3924 -19.7656
   -15.1399 -14.8844 -12.5492 -12.3775 -11.6637 -11.1119 -10.8880  -9.7113
    -8.9661  -8.6080  -8.0012  -7.4834  -6.1891

     occupation numbers 
     1.0000   1.0000   1.0000   1.0000   1.0000   1.0000   1.0000   1.0000
     1.0000   1.0000   1.0000   1.0000   1.0000   1.0000   1.0000   1.0000
     1.0000   1.0000   1.0000   1.0000   1.0000

          k = 0.3636 0.5249 0.0000 ( 14670 PWs)   bands (ev):

   -77.8121 -49.2742 -49.2124 -48.9543 -21.4082 -21.3637 -20.3520 -19.7491
   -14.8026 -14.5062 -13.5534 -13.4606 -11.4272 -11.1042 -10.7684  -9.8317
    -9.4504  -9.0094  -7.9495  -7.3657  -6.0115

     occupation numbers 
     1.0000   1.0000   1.0000   1.0000   1.0000   1.0000   1.0000   1.0000
     1.0000   1.0000   1.0000   1.0000   1.0000   1.0000   1.0000   1.0000
     1.0000   1.0000   1.0000   1.0000   1.0000

          k = 0.3636 0.6298 0.0000 ( 14670 PWs)   bands (ev):

   -77.8121 -49.2742 -49.2123 -48.9543 -21.4080 -21.3636 -20.3522 -19.7492
   -14.8028 -14.5061 -13.5530 -13.4605 -11.4273 -11.1043 -10.7687  -9.8315
    -9.4498  -9.0099  -7.9498  -7.3656  -6.0114

     occupation numbers 
     1.0000   1.0000   1.0000   1.0000   1.0000   1.0000   1.0000   1.0000
     1.0000   1.0000   1.0000   1.0000   1.0000   1.0000   1.0000   1.0000
     1.0000   1.0000   1.0000   1.0000   1.0000

          k = 0.3636 0.7348 0.0000 ( 14692 PWs)   bands (ev):

   -77.8143 -49.2984 -49.1670 -48.9574 -21.6874 -21.6453 -20.3928 -19.7658
   -15.1402 -14.8844 -12.5488 -12.3772 -11.6639 -11.1121 -10.8881  -9.7107
    -8.9661  -8.6082  -8.0020  -7.4833  -6.1888

     occupation numbers 
     1.0000   1.0000   1.0000   1.0000   1.0000   1.0000   1.0000   1.0000
     1.0000   1.0000   1.0000   1.0000   1.0000   1.0000   1.0000   1.0000
     1.0000   1.0000   1.0000   1.0000   1.0000

          k = 0.3636-0.3149 0.0000 ( 14702 PWs)   bands (ev):

   -77.8181 -49.3016 -49.1286 -48.9626 -22.1274 -22.0804 -20.4837 -19.7880
   -15.0956 -14.8419 -12.2529 -11.5325 -11.1124 -10.8676 -10.7788  -9.5702
    -8.7729  -8.2249  -7.9218  -7.6065  -6.3411

     occupation numbers 
     1.0000   1.0000   1.0000   1.0000   1.0000   1.0000   1.0000   1.0000
     1.0000   1.0000   1.0000   1.0000   1.0000   1.0000   1.0000   1.0000
     1.0000   1.0000   1.0000   1.0000   1.0000

          k = 0.3636-0.2099 0.0000 ( 14683 PWs)   bands (ev):

   -77.8221 -49.2819 -49.1105 -48.9683 -22.5611 -22.5074 -20.6116 -19.8182
   -14.6802 -14.4043 -12.3975 -11.2113 -10.7895 -10.4796 -10.4466  -9.2666
    -8.7530  -8.4214  -7.7571  -7.6930  -6.3813

     occupation numbers 
     1.0000   1.0000   1.0000   1.0000   1.0000   1.0000   1.0000   1.0000
     1.0000   1.0000   1.0000   1.0000   1.0000   1.0000   1.0000   1.0000
     1.0000   1.0000   1.0000   1.0000   1.0000

          k = 0.3636-0.1050 0.0000 ( 14715 PWs)   bands (ev):

   -77.8252 -49.2503 -49.1133 -48.9727 -22.8647 -22.8063 -20.7252 -19.8485
   -14.0871 -13.7238 -12.4172 -11.1334 -10.8599 -10.6877 -10.4127  -9.3509
    -8.6000  -8.3131  -8.0521  -7.6570  -6.3736

     occupation numbers 
     1.0000   1.0000   1.0000   1.0000   1.0000   1.0000   1.0000   1.0000
     1.0000   1.0000   1.0000   1.0000   1.0000   1.0000   1.0000   1.0000
     1.0000   1.0000   1.0000   1.0000   1.0000

          k = 0.3636 0.0000 0.0000 ( 14730 PWs)   bands (ev):

   -77.8263 -49.2325 -49.1205 -48.9744 -22.9725 -22.9124 -20.7703 -19.8614
   -13.7708 -13.2805 -12.3105 -11.3818 -11.2278 -10.7679 -10.2538  -9.4781
    -8.6101  -8.3291  -7.9507  -7.7080  -6.3721

     occupation numbers 
     1.0000   1.0000   1.0000   1.0000   1.0000   1.0000   1.0000   1.0000
     1.0000   1.0000   1.0000   1.0000   1.0000   1.0000   1.0000   1.0000
     1.0000   1.0000   1.0000   1.0000   1.0000

          k = 0.3636 0.1050 0.0000 ( 14715 PWs)   bands (ev):

   -77.8252 -49.2503 -49.1133 -48.9727 -22.8647 -22.8063 -20.7251 -19.8485
   -14.0868 -13.7237 -12.4172 -11.1334 -10.8599 -10.6882 -10.4129  -9.3508
    -8.5998  -8.3127  -8.0522  -7.6571  -6.3739

     occupation numbers 
     1.0000   1.0000   1.0000   1.0000   1.0000   1.0000   1.0000   1.0000
     1.0000   1.0000   1.0000   1.0000   1.0000   1.0000   1.0000   1.0000
     1.0000   1.0000   1.0000   1.0000   1.0000

          k = 0.4545 0.2624 0.0000 ( 14716 PWs)   bands (ev):

   -77.8168 -49.3221 -49.1198 -48.9608 -21.9265 -21.8834 -20.4757 -19.8262
   -15.5059 -15.2583 -12.2219 -11.6022 -10.9279 -10.6653 -10.6258  -9.4269
    -8.9257  -8.1725  -7.7092  -7.5223  -6.3420

     occupation numbers 
     1.0000   1.0000   1.0000   1.0000   1.0000   1.0000   1.0000   1.0000
     1.0000   1.0000   1.0000   1.0000   1.0000   1.0000   1.0000   1.0000
     1.0000   1.0000   1.0000   1.0000   1.0000

          k = 0.4545 0.3674 0.0000 ( 14712 PWs)   bands (ev):

   -77.8154 -49.3207 -49.1344 -48.9589 -21.7597 -21.7181 -20.4471 -19.8209
   -15.5208 -15.2725 -12.1473 -11.7196 -11.1660 -11.0892 -10.8579  -9.5271
    -8.9622  -8.0956  -7.8649  -7.5723  -6.2737

     occupation numbers 
     1.0000   1.0000   1.0000   1.0000   1.0000   1.0000   1.0000   1.0000
     1.0000   1.0000   1.0000   1.0000   1.0000   1.0000   1.0000   1.0000
     1.0000   1.0000   1.0000   1.0000   1.0000

          k = 0.4545 0.4724 0.0000 ( 14692 PWs)   bands (ev):

   -77.8143 -49.2984 -49.1671 -48.9574 -21.6876 -21.6454 -20.3924 -19.7656
   -15.1400 -14.8844 -12.5491 -12.3774 -11.6636 -11.1120 -10.8882  -9.7108
    -8.9663  -8.6079  -8.0016  -7.4834  -6.1889

     occupation numbers 
     1.0000   1.0000   1.0000   1.0000   1.0000   1.0000   1.0000   1.0000
     1.0000   1.0000   1.0000   1.0000   1.0000   1.0000   1.0000   1.0000
     1.0000   1.0000   1.0000   1.0000   1.0000

          k = 0.4545 0.5774 0.0000 ( 14692 PWs)   bands (ev):

   -77.8139 -49.2793 -49.1901 -48.9568 -21.6750 -21.6323 -20.3633 -19.7319
   -14.7675 -14.4800 -13.1303 -12.9963 -11.7174 -10.9354 -10.7009  -9.8906
    -9.2588  -8.7012  -8.0180  -7.4634  -6.1545

     occupation numbers 
     1.0000   1.0000   1.0000   1.0000   1.0000   1.0000   1.0000   1.0000
     1.0000   1.0000   1.0000   1.0000   1.0000   1.0000   1.0000   1.0000
     1.0000   1.0000   1.0000   1.0000   1.0000

          k = 0.4545 0.6823 0.0000 ( 14692 PWs)   bands (ev):

   -77.8143 -49.2984 -49.1670 -48.9574 -21.6874 -21.6453 -20.3928 -19.7658
   -15.1402 -14.8844 -12.5488 -12.3772 -11.6639 -11.1121 -10.8881  -9.7107
    -8.9661  -8.6082  -8.0020  -7.4833  -6.1888

     occupation numbers 
     1.0000   1.0000   1.0000   1.0000   1.0000   1.0000   1.0000   1.0000
     1.0000   1.0000   1.0000   1.0000   1.0000   1.0000   1.0000   1.0000
     1.0000   1.0000   1.0000   1.0000   1.0000

          k = 0.4545 0.7873 0.0000 ( 14712 PWs)   bands (ev):

   -77.8154 -49.3207 -49.1344 -48.9589 -21.7594 -21.7178 -20.4476 -19.8212
   -15.5210 -15.2723 -12.1476 -11.7196 -11.1655 -11.0892 -10.8576  -9.5266
    -8.9625  -8.0959  -7.8653  -7.5722  -6.2734

     occupation numbers 
     1.0000   1.0000   1.0000   1.0000   1.0000   1.0000   1.0000   1.0000
     1.0000   1.0000   1.0000   1.0000   1.0000   1.0000   1.0000   1.0000
     1.0000   1.0000   1.0000   1.0000   1.0000

          k = 0.4545-0.2624 0.0000 ( 14716 PWs)   bands (ev):

   -77.8168 -49.3221 -49.1198 -48.9608 -21.9262 -21.8832 -20.4761 -19.8264
   -15.5061 -15.2581 -12.2222 -11.6023 -10.9276 -10.6646 -10.6257  -9.4264
    -8.9262  -8.1729  -7.7094  -7.5225  -6.3416

     occupation numbers 
     1.0000   1.0000   1.0000   1.0000   1.0000   1.0000   1.0000   1.0000
     1.0000   1.0000   1.0000   1.0000   1.0000   1.0000   1.0000   1.0000
     1.0000   1.0000   1.0000   1.0000   1.0000

          k = 0.4545-0.1575 0.0000 ( 14702 PWs)   bands (ev):

   -77.8181 -49.3016 -49.1286 -48.9626 -22.1274 -22.0804 -20.4837 -19.7880
   -15.0956 -14.8419 -12.2529 -11.5325 -11.1124 -10.8676 -10.7788  -9.5702
    -8.7729  -8.2249  -7.9218  -7.6065  -6.3412

     occupation numbers 
     1.0000   1.0000   1.0000   1.0000   1.0000   1.0000   1.0000   1.0000
     1.0000   1.0000   1.0000   1.0000   1.0000   1.0000   1.0000   1.0000
     1.0000   1.0000   1.0000   1.0000   1.0000

          k = 0.4545-0.0525 0.0000 ( 14698 PWs)   bands (ev):

   -77.8188 -49.2746 -49.1490 -48.9637 -22.2587 -22.2088 -20.4891 -19.7557
   -14.5361 -14.2438 -12.2868 -12.0370 -11.8611 -10.7454 -10.6168  -9.8949
    -8.6004  -8.4755  -8.0513  -7.6490  -6.3546

     occupation numbers 
     1.0000   1.0000   1.0000   1.0000   1.0000   1.0000   1.0000   1.0000
     1.0000   1.0000   1.0000   1.0000   1.0000   1.0000   1.0000   1.0000
     1.0000   1.0000   1.0000   1.0000   1.0000

          k = 0.4545 0.0525 0.0000 ( 14698 PWs)   bands (ev):

   -77.8188 -49.2746 -49.1490 -48.9637 -22.2588 -22.2088 -20.4890 -19.7556
   -14.5359 -14.2438 -12.2869 -12.0371 -11.8611 -10.7453 -10.6171  -9.8948
    -8.6006  -8.4753  -8.0511  -7.6492  -6.3547

     occupation numbers 
     1.0000   1.0000   1.0000   1.0000   1.0000   1.0000   1.0000   1.0000
     1.0000   1.0000   1.0000   1.0000   1.0000   1.0000   1.0000   1.0000
     1.0000   1.0000   1.0000   1.0000   1.0000

          k = 0.4545 0.1575 0.0000 ( 14702 PWs)   bands (ev):

   -77.8181 -49.3016 -49.1287 -48.9626 -22.1275 -22.0805 -20.4834 -19.7878
   -15.0953 -14.8420 -12.2528 -11.5325 -11.1126 -10.8678 -10.7793  -9.5702
    -8.7728  -8.2244  -7.9217  -7.6065  -6.3414

     occupation numbers 
     1.0000   1.0000   1.0000   1.0000   1.0000   1.0000   1.0000   1.0000
     1.0000   1.0000   1.0000   1.0000   1.0000   1.0000   1.0000   1.0000
     1.0000   1.0000   1.0000   1.0000   1.0000

          k =-0.4545-0.2624 0.0000 ( 14716 PWs)   bands (ev):

   -77.8168 -49.3221 -49.1198 -48.9608 -21.9265 -21.8834 -20.4757 -19.8262
   -15.5059 -15.2583 -12.2219 -11.6022 -10.9279 -10.6653 -10.6258  -9.4269
    -8.9257  -8.1725  -7.7092  -7.5223  -6.3420

     occupation numbers 
     1.0000   1.0000   1.0000   1.0000   1.0000   1.0000   1.0000   1.0000
     1.0000   1.0000   1.0000   1.0000   1.0000   1.0000   1.0000   1.0000
     1.0000   1.0000   1.0000   1.0000   1.0000

          k =-0.4545-0.1575 0.0000 ( 14702 PWs)   bands (ev):

   -77.8181 -49.3016 -49.1287 -48.9626 -22.1275 -22.0805 -20.4834 -19.7878
   -15.0953 -14.8420 -12.2528 -11.5325 -11.1126 -10.8678 -10.7793  -9.5702
    -8.7728  -8.2244  -7.9217  -7.6065  -6.3414

     occupation numbers 
     1.0000   1.0000   1.0000   1.0000   1.0000   1.0000   1.0000   1.0000
     1.0000   1.0000   1.0000   1.0000   1.0000   1.0000   1.0000   1.0000
     1.0000   1.0000   1.0000   1.0000   1.0000

          k =-0.4545-0.0525 0.0000 ( 14698 PWs)   bands (ev):

   -77.8188 -49.2746 -49.1490 -48.9637 -22.2588 -22.2088 -20.4890 -19.7556
   -14.5359 -14.2438 -12.2869 -12.0371 -11.8611 -10.7453 -10.6171  -9.8948
    -8.6006  -8.4753  -8.0511  -7.6492  -6.3547

     occupation numbers 
     1.0000   1.0000   1.0000   1.0000   1.0000   1.0000   1.0000   1.0000
     1.0000   1.0000   1.0000   1.0000   1.0000   1.0000   1.0000   1.0000
     1.0000   1.0000   1.0000   1.0000   1.0000

          k =-0.4545 0.0525 0.0000 ( 14698 PWs)   bands (ev):

   -77.8188 -49.2746 -49.1490 -48.9637 -22.2587 -22.2088 -20.4891 -19.7557
   -14.5361 -14.2438 -12.2868 -12.0370 -11.8611 -10.7454 -10.6168  -9.8949
    -8.6004  -8.4755  -8.0513  -7.6490  -6.3546

     occupation numbers 
     1.0000   1.0000   1.0000   1.0000   1.0000   1.0000   1.0000   1.0000
     1.0000   1.0000   1.0000   1.0000   1.0000   1.0000   1.0000   1.0000
     1.0000   1.0000   1.0000   1.0000   1.0000

          k =-0.4545 0.1575 0.0000 ( 14702 PWs)   bands (ev):

   -77.8181 -49.3016 -49.1286 -48.9626 -22.1274 -22.0804 -20.4837 -19.7880
   -15.0956 -14.8419 -12.2529 -11.5325 -11.1124 -10.8676 -10.7788  -9.5702
    -8.7729  -8.2249  -7.9218  -7.6065  -6.3412

     occupation numbers 
     1.0000   1.0000   1.0000   1.0000   1.0000   1.0000   1.0000   1.0000
     1.0000   1.0000   1.0000   1.0000   1.0000   1.0000   1.0000   1.0000
     1.0000   1.0000   1.0000   1.0000   1.0000

          k =-0.4545 0.2624 0.0000 ( 14716 PWs)   bands (ev):

   -77.8168 -49.3221 -49.1198 -48.9608 -21.9262 -21.8832 -20.4761 -19.8264
   -15.5061 -15.2581 -12.2222 -11.6023 -10.9276 -10.6646 -10.6257  -9.4264
    -8.9262  -8.1729  -7.7094  -7.5225  -6.3416

     occupation numbers 
     1.0000   1.0000   1.0000   1.0000   1.0000   1.0000   1.0000   1.0000
     1.0000   1.0000   1.0000   1.0000   1.0000   1.0000   1.0000   1.0000
     1.0000   1.0000   1.0000   1.0000   1.0000

          k =-0.4545-0.7873 0.0000 ( 14712 PWs)   bands (ev):

   -77.8154 -49.3207 -49.1344 -48.9589 -21.7594 -21.7178 -20.4476 -19.8212
   -15.5210 -15.2723 -12.1476 -11.7196 -11.1655 -11.0892 -10.8576  -9.5266
    -8.9625  -8.0959  -7.8653  -7.5722  -6.2734

     occupation numbers 
     1.0000   1.0000   1.0000   1.0000   1.0000   1.0000   1.0000   1.0000
     1.0000   1.0000   1.0000   1.0000   1.0000   1.0000   1.0000   1.0000
     1.0000   1.0000   1.0000   1.0000   1.0000

          k =-0.4545-0.6823 0.0000 ( 14692 PWs)   bands (ev):

   -77.8143 -49.2984 -49.1670 -48.9574 -21.6874 -21.6453 -20.3928 -19.7658
   -15.1402 -14.8844 -12.5488 -12.3772 -11.6639 -11.1121 -10.8881  -9.7107
    -8.9661  -8.6082  -8.0020  -7.4833  -6.1888

     occupation numbers 
     1.0000   1.0000   1.0000   1.0000   1.0000   1.0000   1.0000   1.0000
     1.0000   1.0000   1.0000   1.0000   1.0000   1.0000   1.0000   1.0000
     1.0000   1.0000   1.0000   1.0000   1.0000

          k =-0.4545-0.5774 0.0000 ( 14692 PWs)   bands (ev):

   -77.8139 -49.2793 -49.1901 -48.9568 -21.6750 -21.6323 -20.3633 -19.7319
   -14.7675 -14.4800 -13.1303 -12.9963 -11.7174 -10.9354 -10.7009  -9.8906
    -9.2588  -8.7012  -8.0180  -7.4634  -6.1545

     occupation numbers 
     1.0000   1.0000   1.0000   1.0000   1.0000   1.0000   1.0000   1.0000
     1.0000   1.0000   1.0000   1.0000   1.0000   1.0000   1.0000   1.0000
     1.0000   1.0000   1.0000   1.0000   1.0000

          k =-0.4545-0.4724 0.0000 ( 14692 PWs)   bands (ev):

   -77.8143 -49.2984 -49.1671 -48.9574 -21.6876 -21.6454 -20.3924 -19.7656
   -15.1400 -14.8844 -12.5491 -12.3774 -11.6636 -11.1120 -10.8882  -9.7108
    -8.9663  -8.6079  -8.0016  -7.4834  -6.1889

     occupation numbers 
     1.0000   1.0000   1.0000   1.0000   1.0000   1.0000   1.0000   1.0000
     1.0000   1.0000   1.0000   1.0000   1.0000   1.0000   1.0000   1.0000
     1.0000   1.0000   1.0000   1.0000   1.0000

          k =-0.4545-0.3674 0.0000 ( 14712 PWs)   bands (ev):

   -77.8154 -49.3207 -49.1344 -48.9589 -21.7597 -21.7181 -20.4471 -19.8209
   -15.5208 -15.2725 -12.1473 -11.7196 -11.1660 -11.0892 -10.8579  -9.5271
    -8.9622  -8.0956  -7.8649  -7.5723  -6.2737

     occupation numbers 
     1.0000   1.0000   1.0000   1.0000   1.0000   1.0000   1.0000   1.0000
     1.0000   1.0000   1.0000   1.0000   1.0000   1.0000   1.0000   1.0000
     1.0000   1.0000   1.0000   1.0000   1.0000

          k =-0.3636-0.2099 0.0000 ( 14683 PWs)   bands (ev):

   -77.8221 -49.2819 -49.1105 -48.9683 -22.5612 -22.5075 -20.6113 -19.8181
   -14.6799 -14.4043 -12.3974 -11.2112 -10.7898 -10.4803 -10.4467  -9.2669
    -8.7525  -8.4211  -7.7570  -7.6929  -6.3817

     occupation numbers 
     1.0000   1.0000   1.0000   1.0000   1.0000   1.0000   1.0000   1.0000
     1.0000   1.0000   1.0000   1.0000   1.0000   1.0000   1.0000   1.0000
     1.0000   1.0000   1.0000   1.0000   1.0000

          k =-0.3636-0.1050 0.0000 ( 14715 PWs)   bands (ev):

   -77.8252 -49.2503 -49.1133 -48.9727 -22.8647 -22.8063 -20.7251 -19.8485
   -14.0868 -13.7237 -12.4172 -11.1334 -10.8599 -10.6882 -10.4129  -9.3508
    -8.5998  -8.3127  -8.0522  -7.6571  -6.3739

     occupation numbers 
     1.0000   1.0000   1.0000   1.0000   1.0000   1.0000   1.0000   1.0000
     1.0000   1.0000   1.0000   1.0000   1.0000   1.0000   1.0000   1.0000
     1.0000   1.0000   1.0000   1.0000   1.0000

          k =-0.3636 0.0000 0.0000 ( 14730 PWs)   bands (ev):

   -77.8263 -49.2325 -49.1205 -48.9744 -22.9725 -22.9124 -20.7703 -19.8614
   -13.7708 -13.2805 -12.3105 -11.3818 -11.2278 -10.7679 -10.2538  -9.4781
    -8.6101  -8.3291  -7.9507  -7.7080  -6.3721

     occupation numbers 
     1.0000   1.0000   1.0000   1.0000   1.0000   1.0000   1.0000   1.0000
     1.0000   1.0000   1.0000   1.0000   1.0000   1.0000   1.0000   1.0000
     1.0000   1.0000   1.0000   1.0000   1.0000

          k =-0.3636 0.1050 0.0000 ( 14715 PWs)   bands (ev):

   -77.8252 -49.2503 -49.1133 -48.9727 -22.8647 -22.8063 -20.7252 -19.8485
   -14.0871 -13.7238 -12.4172 -11.1334 -10.8599 -10.6877 -10.4127  -9.3509
    -8.6000  -8.3131  -8.0521  -7.6570  -6.3736

     occupation numbers 
     1.0000   1.0000   1.0000   1.0000   1.0000   1.0000   1.0000   1.0000
     1.0000   1.0000   1.0000   1.0000   1.0000   1.0000   1.0000   1.0000
     1.0000   1.0000   1.0000   1.0000   1.0000

          k =-0.3636 0.2099 0.0000 ( 14683 PWs)   bands (ev):

   -77.8221 -49.2819 -49.1105 -48.9683 -22.5611 -22.5074 -20.6116 -19.8182
   -14.6802 -14.4043 -12.3975 -11.2113 -10.7895 -10.4796 -10.4466  -9.2666
    -8.7530  -8.4214  -7.7571  -7.6930  -6.3813

     occupation numbers 
     1.0000   1.0000   1.0000   1.0000   1.0000   1.0000   1.0000   1.0000
     1.0000   1.0000   1.0000   1.0000   1.0000   1.0000   1.0000   1.0000
     1.0000   1.0000   1.0000   1.0000   1.0000

          k =-0.3636 0.3149 0.0000 ( 14702 PWs)   bands (ev):

   -77.8181 -49.3016 -49.1286 -48.9626 -22.1274 -22.0804 -20.4837 -19.7880
   -15.0956 -14.8419 -12.2529 -11.5325 -11.1124 -10.8676 -10.7788  -9.5702
    -8.7729  -8.2249  -7.9218  -7.6065  -6.3411

     occupation numbers 
     1.0000   1.0000   1.0000   1.0000   1.0000   1.0000   1.0000   1.0000
     1.0000   1.0000   1.0000   1.0000   1.0000   1.0000   1.0000   1.0000
     1.0000   1.0000   1.0000   1.0000   1.0000

          k =-0.3636-0.7348 0.0000 ( 14692 PWs)   bands (ev):

   -77.8143 -49.2984 -49.1670 -48.9574 -21.6874 -21.6453 -20.3928 -19.7658
   -15.1402 -14.8844 -12.5488 -12.3772 -11.6639 -11.1121 -10.8881  -9.7107
    -8.9661  -8.6082  -8.0020  -7.4833  -6.1888

     occupation numbers 
     1.0000   1.0000   1.0000   1.0000   1.0000   1.0000   1.0000   1.0000
     1.0000   1.0000   1.0000   1.0000   1.0000   1.0000   1.0000   1.0000
     1.0000   1.0000   1.0000   1.0000   1.0000

          k =-0.3636-0.6298 0.0000 ( 14670 PWs)   bands (ev):

   -77.8121 -49.2742 -49.2123 -48.9543 -21.4080 -21.3636 -20.3522 -19.7492
   -14.8028 -14.5061 -13.5530 -13.4605 -11.4273 -11.1043 -10.7687  -9.8315
    -9.4498  -9.0099  -7.9498  -7.3656  -6.0114

     occupation numbers 
     1.0000   1.0000   1.0000   1.0000   1.0000   1.0000   1.0000   1.0000
     1.0000   1.0000   1.0000   1.0000   1.0000   1.0000   1.0000   1.0000
     1.0000   1.0000   1.0000   1.0000   1.0000

          k =-0.3636-0.5249 0.0000 ( 14670 PWs)   bands (ev):

   -77.8121 -49.2742 -49.2124 -48.9543 -21.4082 -21.3637 -20.3520 -19.7491
   -14.8026 -14.5062 -13.5534 -13.4606 -11.4272 -11.1042 -10.7684  -9.8317
    -9.4504  -9.0094  -7.9495  -7.3657  -6.0115

     occupation numbers 
     1.0000   1.0000   1.0000   1.0000   1.0000   1.0000   1.0000   1.0000
     1.0000   1.0000   1.0000   1.0000   1.0000   1.0000   1.0000   1.0000
     1.0000   1.0000   1.0000   1.0000   1.0000

          k =-0.3636-0.4199 0.0000 ( 14692 PWs)   bands (ev):

   -77.8143 -49.2984 -49.1671 -48.9574 -21.6877 -21.6455 -20.3924 -19.7656
   -15.1399 -14.8844 -12.5492 -12.3775 -11.6637 -11.1119 -10.8880  -9.7113
    -8.9661  -8.6080  -8.0012  -7.4834  -6.1891

     occupation numbers 
     1.0000   1.0000   1.0000   1.0000   1.0000   1.0000   1.0000   1.0000
     1.0000   1.0000   1.0000   1.0000   1.0000   1.0000   1.0000   1.0000
     1.0000   1.0000   1.0000   1.0000   1.0000

          k =-0.3636-0.3149 0.0000 ( 14702 PWs)   bands (ev):

   -77.8181 -49.3016 -49.1287 -48.9626 -22.1276 -22.0805 -20.4833 -19.7878
   -15.0953 -14.8420 -12.2528 -11.5326 -11.1128 -10.8677 -10.7791  -9.5707
    -8.7726  -8.2244  -7.9215  -7.6063  -6.3416

     occupation numbers 
     1.0000   1.0000   1.0000   1.0000   1.0000   1.0000   1.0000   1.0000
     1.0000   1.0000   1.0000   1.0000   1.0000   1.0000   1.0000   1.0000
     1.0000   1.0000   1.0000   1.0000   1.0000

          k =-0.2727-0.1575 0.0000 ( 14735 PWs)   bands (ev):

   -77.8310 -49.2137 -49.0948 -48.9810 -23.3312 -23.2664 -20.9641 -19.9562
   -13.6355 -12.9918 -12.3963 -11.0018 -10.3939 -10.1454 -10.1221  -8.8483
    -8.6530  -8.4396  -8.1216  -7.6091  -6.2542

     occupation numbers 
     1.0000   1.0000   1.0000   1.0000   1.0000   1.0000   1.0000   1.0000
     1.0000   1.0000   1.0000   1.0000   1.0000   1.0000   1.0000   1.0000
     1.0000   1.0000   1.0000   1.0000   1.0000

          k =-0.2727-0.0525 0.0000 ( 14738 PWs)   bands (ev):

   -77.8345 -49.1825 -49.0932 -48.9859 -23.5802 -23.5120 -21.1092 -20.0245
   -13.4861 -12.2881 -11.9882 -11.0126 -10.4686 -10.2571  -9.8874  -8.8421
    -8.7265  -8.3375  -8.1081  -7.4960  -6.1382

     occupation numbers 
     1.0000   1.0000   1.0000   1.0000   1.0000   1.0000   1.0000   1.0000
     1.0000   1.0000   1.0000   1.0000   1.0000   1.0000   1.0000   1.0000
     1.0000   1.0000   1.0000   1.0000   1.0000

          k =-0.2727 0.0525 0.0000 ( 14738 PWs)   bands (ev):

   -77.8345 -49.1825 -49.0932 -48.9859 -23.5802 -23.5120 -21.1092 -20.0245
   -13.4862 -12.2883 -11.9883 -11.0126 -10.4685 -10.2569  -9.8873  -8.8419
    -8.7265  -8.3374  -8.1084  -7.4960  -6.1381

     occupation numbers 
     1.0000   1.0000   1.0000   1.0000   1.0000   1.0000   1.0000   1.0000
     1.0000   1.0000   1.0000   1.0000   1.0000   1.0000   1.0000   1.0000
     1.0000   1.0000   1.0000   1.0000   1.0000

          k =-0.2727 0.1575 0.0000 ( 14735 PWs)   bands (ev):

   -77.8310 -49.2137 -49.0948 -48.9810 -23.3311 -23.2664 -20.9642 -19.9562
   -13.6359 -12.9920 -12.3964 -11.0016 -10.3940 -10.1444 -10.1221  -8.8477
    -8.6534  -8.4402  -8.1216  -7.6092  -6.2537

     occupation numbers 
     1.0000   1.0000   1.0000   1.0000   1.0000   1.0000   1.0000   1.0000
     1.0000   1.0000   1.0000   1.0000   1.0000   1.0000   1.0000   1.0000
     1.0000   1.0000   1.0000   1.0000   1.0000

          k =-0.2727 0.2624 0.0000 ( 14715 PWs)   bands (ev):

   -77.8252 -49.2503 -49.1133 -48.9727 -22.8647 -22.8063 -20.7252 -19.8485
   -14.0871 -13.7238 -12.4172 -11.1334 -10.8599 -10.6877 -10.4127  -9.3509
    -8.6000  -8.3131  -8.0521  -7.6570  -6.3736

     occupation numbers 
     1.0000   1.0000   1.0000   1.0000   1.0000   1.0000   1.0000   1.0000
     1.0000   1.0000   1.0000   1.0000   1.0000   1.0000   1.0000   1.0000
     1.0000   1.0000   1.0000   1.0000   1.0000

          k =-0.2727 0.3674 0.0000 ( 14698 PWs)   bands (ev):

   -77.8188 -49.2746 -49.1490 -48.9637 -22.2587 -22.2088 -20.4891 -19.7557
   -14.5361 -14.2438 -12.2868 -12.0370 -11.8611 -10.7454 -10.6168  -9.8949
    -8.6004  -8.4755  -8.0513  -7.6490  -6.3546

     occupation numbers 
     1.0000   1.0000   1.0000   1.0000   1.0000   1.0000   1.0000   1.0000
     1.0000   1.0000   1.0000   1.0000   1.0000   1.0000   1.0000   1.0000
     1.0000   1.0000   1.0000   1.0000   1.0000

          k =-0.2727-0.6823 0.0000 ( 14692 PWs)   bands (ev):

   -77.8139 -49.2793 -49.1901 -48.9568 -21.6750 -21.6323 -20.3633 -19.7319
   -14.7675 -14.4800 -13.1303 -12.9963 -11.7174 -10.9354 -10.7010  -9.8906
    -9.2587  -8.7012  -8.0180  -7.4634  -6.1545

     occupation numbers 
     1.0000   1.0000   1.0000   1.0000   1.0000   1.0000   1.0000   1.0000
     1.0000   1.0000   1.0000   1.0000   1.0000   1.0000   1.0000   1.0000
     1.0000   1.0000   1.0000   1.0000   1.0000

          k =-0.2727-0.5774 0.0000 ( 14670 PWs)   bands (ev):

   -77.8121 -49.2742 -49.2124 -48.9543 -21.4082 -21.3637 -20.3520 -19.7491
   -14.8026 -14.5061 -13.5534 -13.4606 -11.4272 -11.1042 -10.7684  -9.8317
    -9.4504  -9.0094  -7.9495  -7.3657  -6.0115

     occupation numbers 
     1.0000   1.0000   1.0000   1.0000   1.0000   1.0000   1.0000   1.0000
     1.0000   1.0000   1.0000   1.0000   1.0000   1.0000   1.0000   1.0000
     1.0000   1.0000   1.0000   1.0000   1.0000

          k =-0.2727-0.4724 0.0000 ( 14692 PWs)   bands (ev):

   -77.8139 -49.2793 -49.1902 -48.9568 -21.6751 -21.6324 -20.3631 -19.7318
   -14.7672 -14.4799 -13.1308 -12.9965 -11.7174 -10.9351 -10.7005  -9.8912
    -9.2592  -8.7008  -8.0173  -7.4634  -6.1548

     occupation numbers 
     1.0000   1.0000   1.0000   1.0000   1.0000   1.0000   1.0000   1.0000
     1.0000   1.0000   1.0000   1.0000   1.0000   1.0000   1.0000   1.0000
     1.0000   1.0000   1.0000   1.0000   1.0000

          k =-0.2727-0.3674 0.0000 ( 14698 PWs)   bands (ev):

   -77.8188 -49.2746 -49.1490 -48.9637 -22.2589 -22.2089 -20.4888 -19.7556
   -14.5357 -14.2438 -12.2871 -12.0374 -11.8612 -10.7451 -10.6167  -9.8953
    -8.6007  -8.4755  -8.0501  -7.6491  -6.3551

     occupation numbers 
     1.0000   1.0000   1.0000   1.0000   1.0000   1.0000   1.0000   1.0000
     1.0000   1.0000   1.0000   1.0000   1.0000   1.0000   1.0000   1.0000
     1.0000   1.0000   1.0000   1.0000   1.0000

          k =-0.2727-0.2624 0.0000 ( 14715 PWs)   bands (ev):

   -77.8252 -49.2503 -49.1133 -48.9727 -22.8648 -22.8064 -20.7251 -19.8484
   -14.0867 -13.7236 -12.4172 -11.1336 -10.8601 -10.6884 -10.4127  -9.3510
    -8.5999  -8.3127  -8.0520  -7.6567  -6.3742

     occupation numbers 
     1.0000   1.0000   1.0000   1.0000   1.0000   1.0000   1.0000   1.0000
     1.0000   1.0000   1.0000   1.0000   1.0000   1.0000   1.0000   1.0000
     1.0000   1.0000   1.0000   1.0000   1.0000

          k =-0.1818-0.1050 0.0000 ( 14733 PWs)   bands (ev):

   -77.8407 -49.1389 -49.0777 -48.9948 -23.9750 -23.9014 -21.3674 -20.1572
   -13.6109 -11.4469 -11.2581 -11.0630  -9.7434  -9.7241  -9.7176  -8.9938
    -8.5011  -8.2190  -8.0392  -7.4238  -5.8678

     occupation numbers 
     1.0000   1.0000   1.0000   1.0000   1.0000   1.0000   1.0000   1.0000
     1.0000   1.0000   1.0000   1.0000   1.0000   1.0000   1.0000   1.0000
     1.0000   1.0000   1.0000   1.0000   1.0000

          k =-0.1818 0.0000 0.0000 ( 14793 PWs)   bands (ev):

   -77.8431 -49.1196 -49.0748 -48.9980 -24.1109 -24.0354 -21.4624 -20.2069
   -13.6876 -11.2604 -10.8288 -10.7941  -9.8364  -9.7180  -9.3988  -9.0559
    -8.6122  -8.0936  -7.9713  -7.3178  -5.7484

     occupation numbers 
     1.0000   1.0000   1.0000   1.0000   1.0000   1.0000   1.0000   1.0000
     1.0000   1.0000   1.0000   1.0000   1.0000   1.0000   1.0000   1.0000
     1.0000   1.0000   1.0000   1.0000   1.0000

          k =-0.1818 0.1050 0.0000 ( 14733 PWs)   bands (ev):

   -77.8407 -49.1389 -49.0776 -48.9948 -23.9749 -23.9014 -21.3675 -20.1572
   -13.6110 -11.4471 -11.2586 -11.0630  -9.7422  -9.7242  -9.7178  -8.9937
    -8.5010  -8.2183  -8.0400  -7.4240  -5.8675

     occupation numbers 
     1.0000   1.0000   1.0000   1.0000   1.0000   1.0000   1.0000   1.0000
     1.0000   1.0000   1.0000   1.0000   1.0000   1.0000   1.0000   1.0000
     1.0000   1.0000   1.0000   1.0000   1.0000

          k =-0.1818 0.2099 0.0000 ( 14738 PWs)   bands (ev):

   -77.8345 -49.1825 -49.0932 -48.9859 -23.5802 -23.5120 -21.1092 -20.0245
   -13.4862 -12.2883 -11.9883 -11.0126 -10.4685 -10.2569  -9.8873  -8.8419
    -8.7265  -8.3374  -8.1084  -7.4960  -6.1381

     occupation numbers 
     1.0000   1.0000   1.0000   1.0000   1.0000   1.0000   1.0000   1.0000
     1.0000   1.0000   1.0000   1.0000   1.0000   1.0000   1.0000   1.0000
     1.0000   1.0000   1.0000   1.0000   1.0000

          k =-0.1818 0.3149 0.0000 ( 14730 PWs)   bands (ev):

   -77.8263 -49.2325 -49.1205 -48.9744 -22.9725 -22.9124 -20.7703 -19.8614
   -13.7708 -13.2805 -12.3105 -11.3817 -11.2278 -10.7679 -10.2538  -9.4781
    -8.6101  -8.3291  -7.9507  -7.7080  -6.3721

     occupation numbers 
     1.0000   1.0000   1.0000   1.0000   1.0000   1.0000   1.0000   1.0000
     1.0000   1.0000   1.0000   1.0000   1.0000   1.0000   1.0000   1.0000
     1.0000   1.0000   1.0000   1.0000   1.0000

          k =-0.1818 0.4199 0.0000 ( 14698 PWs)   bands (ev):

   -77.8188 -49.2746 -49.1490 -48.9637 -22.2588 -22.2088 -20.4890 -19.7557
   -14.5359 -14.2438 -12.2869 -12.0371 -11.8611 -10.7453 -10.6171  -9.8948
    -8.6006  -8.4753  -8.0511  -7.6492  -6.3547

     occupation numbers 
     1.0000   1.0000   1.0000   1.0000   1.0000   1.0000   1.0000   1.0000
     1.0000   1.0000   1.0000   1.0000   1.0000   1.0000   1.0000   1.0000
     1.0000   1.0000   1.0000   1.0000   1.0000

          k =-0.1818-0.6298 0.0000 ( 14692 PWs)   bands (ev):

   -77.8143 -49.2984 -49.1671 -48.9574 -21.6876 -21.6454 -20.3925 -19.7656
   -15.1400 -14.8844 -12.5491 -12.3774 -11.6636 -11.1120 -10.8882  -9.7108
    -8.9663  -8.6079  -8.0016  -7.4834  -6.1889

     occupation numbers 
     1.0000   1.0000   1.0000   1.0000   1.0000   1.0000   1.0000   1.0000
     1.0000   1.0000   1.0000   1.0000   1.0000   1.0000   1.0000   1.0000
     1.0000   1.0000   1.0000   1.0000   1.0000

          k =-0.1818-0.5249 0.0000 ( 14692 PWs)   bands (ev):

   -77.8143 -49.2984 -49.1671 -48.9574 -21.6877 -21.6455 -20.3924 -19.7656
   -15.1399 -14.8844 -12.5492 -12.3775 -11.6637 -11.1119 -10.8880  -9.7113
    -8.9661  -8.6080  -8.0013  -7.4834  -6.1891

     occupation numbers 
     1.0000   1.0000   1.0000   1.0000   1.0000   1.0000   1.0000   1.0000
     1.0000   1.0000   1.0000   1.0000   1.0000   1.0000   1.0000   1.0000
     1.0000   1.0000   1.0000   1.0000   1.0000

          k =-0.1818-0.4199 0.0000 ( 14698 PWs)   bands (ev):

   -77.8188 -49.2746 -49.1490 -48.9637 -22.2589 -22.2089 -20.4888 -19.7556
   -14.5357 -14.2438 -12.2871 -12.0374 -11.8612 -10.7451 -10.6167  -9.8953
    -8.6007  -8.4755  -8.0501  -7.6491  -6.3551

     occupation numbers 
     1.0000   1.0000   1.0000   1.0000   1.0000   1.0000   1.0000   1.0000
     1.0000   1.0000   1.0000   1.0000   1.0000   1.0000   1.0000   1.0000
     1.0000   1.0000   1.0000   1.0000   1.0000

          k =-0.1818-0.3149 0.0000 ( 14730 PWs)   bands (ev):

   -77.8263 -49.2325 -49.1205 -48.9744 -22.9725 -22.9125 -20.7702 -19.8613
   -13.7704 -13.2802 -12.3105 -11.3823 -11.2282 -10.7680 -10.2535  -9.4781
    -8.6101  -8.3293  -7.9509  -7.7071  -6.3726

     occupation numbers 
     1.0000   1.0000   1.0000   1.0000   1.0000   1.0000   1.0000   1.0000
     1.0000   1.0000   1.0000   1.0000   1.0000   1.0000   1.0000   1.0000
     1.0000   1.0000   1.0000   1.0000   1.0000

          k =-0.1818-0.2099 0.0000 ( 14738 PWs)   bands (ev):

   -77.8345 -49.1825 -49.0932 -48.9859 -23.5802 -23.5120 -21.1092 -20.0245
   -13.4860 -12.2879 -11.9880 -11.0127 -10.4689 -10.2575  -9.8872  -8.8421
    -8.7262  -8.3375  -8.1087  -7.4954  -6.1385

     occupation numbers 
     1.0000   1.0000   1.0000   1.0000   1.0000   1.0000   1.0000   1.0000
     1.0000   1.0000   1.0000   1.0000   1.0000   1.0000   1.0000   1.0000
     1.0000   1.0000   1.0000   1.0000   1.0000

          k =-0.0909-0.0525 0.0000 ( 14773 PWs)   bands (ev):

   -77.8482 -49.0812 -49.0646 -49.0052 -24.3891 -24.3097 -21.6665 -20.3161
   -13.8841 -11.3161  -9.9711  -9.8867  -9.4107  -9.3740  -9.2326  -9.0940
    -8.7597  -7.8221  -7.6954  -7.3302  -5.5030

     occupation numbers 
     1.0000   1.0000   1.0000   1.0000   1.0000   1.0000   1.0000   1.0000
     1.0000   1.0000   1.0000   1.0000   1.0000   1.0000   1.0000   1.0000
     1.0000   1.0000   1.0000   1.0000   1.0000

          k =-0.0909 0.0525 0.0000 ( 14773 PWs)   bands (ev):

   -77.8482 -49.0813 -49.0645 -49.0052 -24.3891 -24.3097 -21.6665 -20.3161
   -13.8841 -11.3161  -9.9717  -9.8871  -9.4098  -9.3737  -9.2327  -9.0941
    -8.7596  -7.8211  -7.6965  -7.3302  -5.5029

     occupation numbers 
     1.0000   1.0000   1.0000   1.0000   1.0000   1.0000   1.0000   1.0000
     1.0000   1.0000   1.0000   1.0000   1.0000   1.0000   1.0000   1.0000
     1.0000   1.0000   1.0000   1.0000   1.0000

          k =-0.0909 0.1575 0.0000 ( 14793 PWs)   bands (ev):

   -77.8431 -49.1196 -49.0748 -48.9980 -24.1109 -24.0354 -21.4624 -20.2069
   -13.6876 -11.2604 -10.8288 -10.7941  -9.8364  -9.7180  -9.3988  -9.0559
    -8.6122  -8.0936  -7.9713  -7.3178  -5.7484

     occupation numbers 
     1.0000   1.0000   1.0000   1.0000   1.0000   1.0000   1.0000   1.0000
     1.0000   1.0000   1.0000   1.0000   1.0000   1.0000   1.0000   1.0000
     1.0000   1.0000   1.0000   1.0000   1.0000

          k =-0.0909 0.2624 0.0000 ( 14738 PWs)   bands (ev):

   -77.8345 -49.1825 -49.0932 -48.9859 -23.5802 -23.5120 -21.1092 -20.0245
   -13.4861 -12.2881 -11.9882 -11.0126 -10.4686 -10.2571  -9.8874  -8.8420
    -8.7265  -8.3375  -8.1081  -7.4960  -6.1382

     occupation numbers 
     1.0000   1.0000   1.0000   1.0000   1.0000   1.0000   1.0000   1.0000
     1.0000   1.0000   1.0000   1.0000   1.0000   1.0000   1.0000   1.0000
     1.0000   1.0000   1.0000   1.0000   1.0000

          k =-0.0909 0.3674 0.0000 ( 14715 PWs)   bands (ev):

   -77.8252 -49.2503 -49.1133 -48.9727 -22.8647 -22.8063 -20.7251 -19.8485
   -14.0868 -13.7237 -12.4172 -11.1334 -10.8599 -10.6882 -10.4129  -9.3508
    -8.5998  -8.3127  -8.0522  -7.6571  -6.3739

     occupation numbers 
     1.0000   1.0000   1.0000   1.0000   1.0000   1.0000   1.0000   1.0000
     1.0000   1.0000   1.0000   1.0000   1.0000   1.0000   1.0000   1.0000
     1.0000   1.0000   1.0000   1.0000   1.0000

          k =-0.0909 0.4724 0.0000 ( 14702 PWs)   bands (ev):

   -77.8181 -49.3016 -49.1287 -48.9626 -22.1275 -22.0805 -20.4834 -19.7878
   -15.0953 -14.8420 -12.2528 -11.5325 -11.1126 -10.8678 -10.7793  -9.5702
    -8.7728  -8.2244  -7.9217  -7.6065  -6.3414

     occupation numbers 
     1.0000   1.0000   1.0000   1.0000   1.0000   1.0000   1.0000   1.0000
     1.0000   1.0000   1.0000   1.0000   1.0000   1.0000   1.0000   1.0000
     1.0000   1.0000   1.0000   1.0000   1.0000

          k =-0.0909-0.5774 0.0000 ( 14712 PWs)   bands (ev):

   -77.8154 -49.3207 -49.1344 -48.9589 -21.7597 -21.7181 -20.4472 -19.8209
   -15.5208 -15.2725 -12.1473 -11.7196 -11.1660 -11.0892 -10.8579  -9.5271
    -8.9622  -8.0956  -7.8649  -7.5723  -6.2737

     occupation numbers 
     1.0000   1.0000   1.0000   1.0000   1.0000   1.0000   1.0000   1.0000
     1.0000   1.0000   1.0000   1.0000   1.0000   1.0000   1.0000   1.0000
     1.0000   1.0000   1.0000   1.0000   1.0000

          k =-0.0909-0.4724 0.0000 ( 14702 PWs)   bands (ev):

   -77.8181 -49.3016 -49.1287 -48.9626 -22.1276 -22.0805 -20.4833 -19.7878
   -15.0953 -14.8420 -12.2528 -11.5326 -11.1128 -10.8677 -10.7791  -9.5707
    -8.7726  -8.2244  -7.9215  -7.6063  -6.3416

     occupation numbers 
     1.0000   1.0000   1.0000   1.0000   1.0000   1.0000   1.0000   1.0000
     1.0000   1.0000   1.0000   1.0000   1.0000   1.0000   1.0000   1.0000
     1.0000   1.0000   1.0000   1.0000   1.0000

          k =-0.0909-0.3674 0.0000 ( 14715 PWs)   bands (ev):

   -77.8252 -49.2503 -49.1133 -48.9727 -22.8648 -22.8064 -20.7251 -19.8484
   -14.0867 -13.7236 -12.4172 -11.1336 -10.8601 -10.6884 -10.4127  -9.3510
    -8.5999  -8.3127  -8.0520  -7.6567  -6.3742

     occupation numbers 
     1.0000   1.0000   1.0000   1.0000   1.0000   1.0000   1.0000   1.0000
     1.0000   1.0000   1.0000   1.0000   1.0000   1.0000   1.0000   1.0000
     1.0000   1.0000   1.0000   1.0000   1.0000

          k =-0.0909-0.2624 0.0000 ( 14738 PWs)   bands (ev):

   -77.8345 -49.1825 -49.0932 -48.9859 -23.5802 -23.5120 -21.1092 -20.0245
   -13.4860 -12.2879 -11.9880 -11.0127 -10.4689 -10.2575  -9.8872  -8.8421
    -8.7262  -8.3375  -8.1087  -7.4954  -6.1385

     occupation numbers 
     1.0000   1.0000   1.0000   1.0000   1.0000   1.0000   1.0000   1.0000
     1.0000   1.0000   1.0000   1.0000   1.0000   1.0000   1.0000   1.0000
     1.0000   1.0000   1.0000   1.0000   1.0000

          k =-0.0909-0.1575 0.0000 ( 14793 PWs)   bands (ev):

   -77.8431 -49.1195 -49.0749 -48.9980 -24.1109 -24.0354 -21.4623 -20.2069
   -13.6876 -11.2604 -10.8279 -10.7941  -9.8369  -9.7185  -9.3987  -9.0559
    -8.6124  -8.0931  -7.9720  -7.3173  -5.7486

     occupation numbers 
     1.0000   1.0000   1.0000   1.0000   1.0000   1.0000   1.0000   1.0000
     1.0000   1.0000   1.0000   1.0000   1.0000   1.0000   1.0000   1.0000
     1.0000   1.0000   1.0000   1.0000   1.0000

     highest occupied level (ev):    -5.3960

!    total energy              =    -263.34840810 Ry
     estimated scf accuracy    <          5.8E-12 Ry

     The total energy is the sum of the following terms:
     one-electron contribution =   -6599.22565697 Ry
     hartree contribution      =    3296.18120202 Ry
     xc contribution           =     -44.72331145 Ry
     ewald contribution        =    3084.41935830 Ry

     convergence has been achieved in  27 iterations

     Writing all to output data dir ./tmp/crsi2n4.save/ :
     XML data file, charge density, pseudopotentials, collected wavefunctions
 
     init_run     :      6.44s CPU      6.65s WALL (       1 calls)
     electrons    :    374.90s CPU    375.53s WALL (       1 calls)

     Called by init_run:
     wfcinit      :      5.15s CPU      5.31s WALL (       1 calls)
     wfcinit:atom :      0.08s CPU      0.08s WALL (     121 calls)
     wfcinit:wfcr :      4.86s CPU      4.90s WALL (     121 calls)
     potinit      :      0.94s CPU      0.97s WALL (       1 calls)
     hinit0       :      0.17s CPU      0.18s WALL (       1 calls)

     Called by electrons:
     c_bands      :    344.78s CPU    345.34s WALL (      27 calls)
     sum_band     :     28.84s CPU     28.86s WALL (      27 calls)
     v_of_rho     :      0.40s CPU      0.44s WALL (      28 calls)
     v_h          :      0.10s CPU      0.11s WALL (      28 calls)
     v_xc         :      0.30s CPU      0.33s WALL (      28 calls)
     mix_rho      :      0.55s CPU      0.57s WALL (      27 calls)

     Called by c_bands:
     init_us_2    :      4.58s CPU      4.60s WALL (    6655 calls)
     cegterg      :    329.65s CPU    330.17s WALL (    3267 calls)

     Called by sum_band:
     sum_band:wei :      0.00s CPU      0.00s WALL (      27 calls)
     sum_band:loo :     28.74s CPU     28.76s WALL (      27 calls)
     sum_band:buf :      3.91s CPU      3.92s WALL (    3267 calls)
     sum_band:ini :      2.27s CPU      2.27s WALL (    3267 calls)

     Called by *egterg:
     cdiaghg      :     37.31s CPU     37.44s WALL (   18333 calls)
                                       37.38s GPU  (   18333 calls)
     cegterg:over :     69.60s CPU     69.64s WALL (   15066 calls)
     cegterg:upda :     16.12s CPU     16.14s WALL (   15066 calls)
     cegterg:last :     14.43s CPU     14.44s WALL (    7705 calls)
     h_psi        :    184.76s CPU    185.31s WALL (   18454 calls)
                                      185.15s GPU  (   18454 calls)
     g_psi        :      0.05s CPU      1.53s WALL (   15066 calls)
                                        1.47s GPU  (   15066 calls)

     Called by h_psi:
     h_psi:calbec :      0.51s CPU     32.98s WALL (   18454 calls)
                                       32.91s GPU  (   18454 calls)
     vloc_psi     :    123.95s CPU    124.44s WALL (   18454 calls)
                                      124.38s GPU  (   18454 calls)
     add_vuspsi   :      3.35s CPU     26.89s WALL (   18454 calls)
                                       26.82s GPU  (   18454 calls)

     General routines
     calbec       :      0.47s CPU      0.50s WALL (   18454 calls)
     fft          :      0.53s CPU      0.68s WALL (     333 calls)
                                        0.15s GPU  (     305 calls)
     ffts         :      0.53s CPU      0.54s WALL (      55 calls)
                                        0.01s GPU  (      27 calls)
     fftw         :      0.57s CPU    125.36s WALL (   57656 calls)
                                      125.15s GPU  (   57656 calls)
     interpolate  :      1.11s CPU      1.12s WALL (      28 calls)
 
     Parallel routines
 
     PWSCF        :   6m21.63s CPU   6m22.66s WALL

 
   This run was terminated on:  20:54:59  28Apr2026            

=------------------------------------------------------------------------------=
   JOB DONE.
=------------------------------------------------------------------------------=
