
     Program PWSCF v.7.4.1 starts on 28Apr2026 at 21:17:27 

     This program is part of the open-source Quantum ESPRESSO suite
     for quantum simulation of materials; please cite
         "P. Giannozzi et al., J. Phys.:Condens. Matter 21 395502 (2009);
         "P. Giannozzi et al., J. Phys.:Condens. Matter 29 465901 (2017);
         "P. Giannozzi et al., J. Chem. Phys. 152 154105 (2020);
          URL http://www.quantum-espresso.org", 
     in publications or presentations arising from this work. More details at
     http://www.quantum-espresso.org/quote

     Parallel version (MPI), running on     1 processors

     MPI processes distributed on     1 nodes
     13774 MiB available memory on the printing compute node when the environment starts
 
     Reading input from crsi2n4_bi_0.010.in
Warning: card &CELL ignored
Warning: card / ignored
Warning: card &FCP ignored
Warning: card / ignored
Warning: card &RISM ignored
Warning: card / ignored

     Current dimensions of program PWSCF are:
     Max number of different atomic species (ntypx) = 10
     Max number of k-points (npk) =  40000
     Max angular momentum in pseudopotentials (lmaxx) =  4
     Message from routine setup:
     no reason to have ecutrho>4*ecutwfc
 
     Subspace diagonalization in iterative solution of the eigenvalue problem:
     a serial algorithm will be used

 
     G-vector sticks info
     --------------------
     sticks:   dense  smooth     PW     G-vecs:    dense   smooth      PW
     Sum         817     649    199               167793   120229   20969
 
     Using Slab Decomposition
 


     bravais-lattice index     =            0
     lattice parameter (alat)  =       5.4281  a.u.
     unit-cell volume          =    1242.4468 (a.u.)^3
     number of atoms/cell      =            7
     number of atomic types    =            3
     number of electrons       =        42.00
     number of Kohn-Sham states=           21
     kinetic-energy cutoff     =      80.0000  Ry
     charge density cutoff     =     400.0000  Ry
     scf convergence threshold =      1.0E-10
     mixing beta               =       0.4000
     number of iterations used =            8  plain     mixing
     Exchange-correlation= PBE
                           (   1   4   3   4   0   0   0)

     GPU acceleration is ACTIVE.  1 visible GPUs per MPI rank
     GPU-aware MPI enabled


     GPU used by master process:

        Device Number: 0
        Device name: NVIDIA RTX A2000 12GB
        Compute capability : 86
        Ratio of single to double precision performance  : 64
        Memory Clock Rate (KHz): 6001000
        Memory Bus Width (bits): 192
        Peak Memory Bandwidth (GB/s): 288.05

     celldm(1)=   5.428125  celldm(2)=   0.000000  celldm(3)=   0.000000
     celldm(4)=   0.000000  celldm(5)=   0.000000  celldm(6)=   0.000000

     crystal axes: (cart. coord. in units of alat)
               a(1) = (   1.000000   0.000000   0.000000 )  
               a(2) = (  -0.500000   0.866025   0.000000 )  
               a(3) = (   0.000000   0.000000   8.970109 )  

     reciprocal axes: (cart. coord. in units 2 pi/alat)
               b(1) = (  1.000000  0.577350 -0.000000 )  
               b(2) = (  0.000000  1.154701  0.000000 )  
               b(3) = (  0.000000 -0.000000  0.111481 )  


     PseudoPot. # 1 for Cr read from file:
     /home/rao/Desktop/pseudo/ONCVPSP/sg15/Cr_ONCV_PBE_sr.upf
     MD5 check sum: 8c25700f94aee329d8014e8d8708abb4
     Pseudo is Norm-conserving, Zval = 14.0
     Generated using ONCVPSP code by D. R. Hamann
     Using radial grid of 1490 points,  6 beta functions with: 
                l(1) =   0
                l(2) =   0
                l(3) =   1
                l(4) =   1
                l(5) =   2
                l(6) =   2

     PseudoPot. # 2 for N  read from file:
     /home/rao/Desktop/pseudo/ONCVPSP/sg15/N_ONCV_PBE_sr.upf
     MD5 check sum: 584dff68b02d160f04ff099e3496afa1
     Pseudo is Norm-conserving, Zval =  5.0
     Generated using ONCVPSP code by D. R. Hamann
     Using radial grid of 1058 points,  4 beta functions with: 
                l(1) =   0
                l(2) =   0
                l(3) =   1
                l(4) =   1

     PseudoPot. # 3 for Si read from file:
     /home/rao/Desktop/pseudo/ONCVPSP/sg15/Si_ONCV_PBE_sr.upf
     MD5 check sum: 8553c464762ac42b85b1eed164b4d029
     Pseudo is Norm-conserving, Zval =  4.0
     Generated using ONCVPSP code by D. R. Hamann
     Using radial grid of 1510 points,  4 beta functions with: 
                l(1) =   0
                l(2) =   0
                l(3) =   1
                l(4) =   1

     atomic species   valence    mass     pseudopotential
     Cr               14.00    51.99610     Cr( 1.00)
     N                 5.00    14.00700     N ( 1.00)
     Si                4.00    28.08500     Si( 1.00)

     No symmetry found


                                    s                        frac. trans.

      isym =  1     identity                                     

 cryst.   s( 1) = (     1          0          0      )
                  (     0          1          0      )
                  (     0          0          1      )

 cart.    s( 1) = (  1.0000000  0.0000000  0.0000000 )
                  (  0.0000000  1.0000000  0.0000000 )
                  (  0.0000000  0.0000000  1.0000000 )


   Cartesian axes

     site n.     atom                  positions (alat units)
         1        Cr     tau(   1) = (   0.7856969   0.1237173   3.8380015  )
         2        N      tau(   2) = (   0.2856664   0.4124115   3.4404778  )
         3        N      tau(   3) = (   0.2856176   0.4124364   4.2411186  )
         4        N      tau(   4) = (   0.7855969   0.1237698   5.0400282  )
         5        N      tau(   5) = (  -0.2141309   0.7009726   2.6498753  )
         6        Si     tau(   6) = (   0.2858853   0.4122882   2.8315836  )
         7        Si     tau(   7) = (   0.2856349   0.4124231   4.8545671  )

   Crystallographic axes

     site n.     atom                  positions (cryst. coord.)
         1        Cr     tau(   1) = (  0.8571251  0.1428564  0.4278656  )
         2        N      tau(   2) = (  0.5237723  0.4762118  0.3835492  )
         3        N      tau(   3) = (  0.5237379  0.4762406  0.4728057  )
         4        N      tau(   4) = (  0.8570554  0.1429171  0.5618692  )
         5        N      tau(   5) = (  0.1905758  0.8094136  0.2954117  )
         6        Si     tau(   6) = (  0.5239200  0.4760694  0.3156688  )
         7        Si     tau(   7) = (  0.5237475  0.4762252  0.5411938  )

     number of k points=   121
                       cart. coord. in units 2pi/alat
        k(    1) = (   0.0000000   0.0000000   0.0000000), wk =   0.0165289
        k(    2) = (   0.0000000   0.1049728   0.0000000), wk =   0.0165289
        k(    3) = (   0.0000000   0.2099456   0.0000000), wk =   0.0165289
        k(    4) = (   0.0000000   0.3149184   0.0000000), wk =   0.0165289
        k(    5) = (   0.0000000   0.4198911   0.0000000), wk =   0.0165289
        k(    6) = (   0.0000000   0.5248639   0.0000000), wk =   0.0165289
        k(    7) = (   0.0000000  -0.5248639   0.0000000), wk =   0.0165289
        k(    8) = (   0.0000000  -0.4198911   0.0000000), wk =   0.0165289
        k(    9) = (   0.0000000  -0.3149184   0.0000000), wk =   0.0165289
        k(   10) = (   0.0000000  -0.2099456   0.0000000), wk =   0.0165289
        k(   11) = (   0.0000000  -0.1049728   0.0000000), wk =   0.0165289
        k(   12) = (   0.0909091   0.0524864   0.0000000), wk =   0.0165289
        k(   13) = (   0.0909091   0.1574592   0.0000000), wk =   0.0165289
        k(   14) = (   0.0909091   0.2624320   0.0000000), wk =   0.0165289
        k(   15) = (   0.0909091   0.3674048   0.0000000), wk =   0.0165289
        k(   16) = (   0.0909091   0.4723775   0.0000000), wk =   0.0165289
        k(   17) = (   0.0909091   0.5773503   0.0000000), wk =   0.0165289
        k(   18) = (   0.0909091  -0.4723775   0.0000000), wk =   0.0165289
        k(   19) = (   0.0909091  -0.3674048   0.0000000), wk =   0.0165289
        k(   20) = (   0.0909091  -0.2624320   0.0000000), wk =   0.0165289
        k(   21) = (   0.0909091  -0.1574592   0.0000000), wk =   0.0165289
        k(   22) = (   0.0909091  -0.0524864   0.0000000), wk =   0.0165289
        k(   23) = (   0.1818182   0.1049728   0.0000000), wk =   0.0165289
        k(   24) = (   0.1818182   0.2099456   0.0000000), wk =   0.0165289
        k(   25) = (   0.1818182   0.3149184   0.0000000), wk =   0.0165289
        k(   26) = (   0.1818182   0.4198911   0.0000000), wk =   0.0165289
        k(   27) = (   0.1818182   0.5248639   0.0000000), wk =   0.0165289
        k(   28) = (   0.1818182   0.6298367   0.0000000), wk =   0.0165289
        k(   29) = (   0.1818182  -0.4198911   0.0000000), wk =   0.0165289
        k(   30) = (   0.1818182  -0.3149184   0.0000000), wk =   0.0165289
        k(   31) = (   0.1818182  -0.2099456   0.0000000), wk =   0.0165289
        k(   32) = (   0.1818182  -0.1049728   0.0000000), wk =   0.0165289
        k(   33) = (   0.1818182  -0.0000000   0.0000000), wk =   0.0165289
        k(   34) = (   0.2727273   0.1574592   0.0000000), wk =   0.0165289
        k(   35) = (   0.2727273   0.2624320   0.0000000), wk =   0.0165289
        k(   36) = (   0.2727273   0.3674048   0.0000000), wk =   0.0165289
        k(   37) = (   0.2727273   0.4723775   0.0000000), wk =   0.0165289
        k(   38) = (   0.2727273   0.5773503   0.0000000), wk =   0.0165289
        k(   39) = (   0.2727273   0.6823231   0.0000000), wk =   0.0165289
        k(   40) = (   0.2727273  -0.3674048   0.0000000), wk =   0.0165289
        k(   41) = (   0.2727273  -0.2624320   0.0000000), wk =   0.0165289
        k(   42) = (   0.2727273  -0.1574592   0.0000000), wk =   0.0165289
        k(   43) = (   0.2727273  -0.0524864   0.0000000), wk =   0.0165289
        k(   44) = (   0.2727273   0.0524864   0.0000000), wk =   0.0165289
        k(   45) = (   0.3636364   0.2099456   0.0000000), wk =   0.0165289
        k(   46) = (   0.3636364   0.3149184   0.0000000), wk =   0.0165289
        k(   47) = (   0.3636364   0.4198911   0.0000000), wk =   0.0165289
        k(   48) = (   0.3636364   0.5248639   0.0000000), wk =   0.0165289
        k(   49) = (   0.3636364   0.6298367   0.0000000), wk =   0.0165289
        k(   50) = (   0.3636364   0.7348095   0.0000000), wk =   0.0165289
        k(   51) = (   0.3636364  -0.3149184   0.0000000), wk =   0.0165289
        k(   52) = (   0.3636364  -0.2099456   0.0000000), wk =   0.0165289
        k(   53) = (   0.3636364  -0.1049728   0.0000000), wk =   0.0165289
        k(   54) = (   0.3636364   0.0000000   0.0000000), wk =   0.0165289
        k(   55) = (   0.3636364   0.1049728   0.0000000), wk =   0.0165289
        k(   56) = (   0.4545455   0.2624320   0.0000000), wk =   0.0165289
        k(   57) = (   0.4545455   0.3674048   0.0000000), wk =   0.0165289
        k(   58) = (   0.4545455   0.4723775   0.0000000), wk =   0.0165289
        k(   59) = (   0.4545455   0.5773503   0.0000000), wk =   0.0165289
        k(   60) = (   0.4545455   0.6823231   0.0000000), wk =   0.0165289
        k(   61) = (   0.4545455   0.7872959   0.0000000), wk =   0.0165289
        k(   62) = (   0.4545455  -0.2624320   0.0000000), wk =   0.0165289
        k(   63) = (   0.4545455  -0.1574592   0.0000000), wk =   0.0165289
        k(   64) = (   0.4545455  -0.0524864   0.0000000), wk =   0.0165289
        k(   65) = (   0.4545455   0.0524864   0.0000000), wk =   0.0165289
        k(   66) = (   0.4545455   0.1574592   0.0000000), wk =   0.0165289
        k(   67) = (  -0.4545455  -0.2624320   0.0000000), wk =   0.0165289
        k(   68) = (  -0.4545455  -0.1574592   0.0000000), wk =   0.0165289
        k(   69) = (  -0.4545455  -0.0524864   0.0000000), wk =   0.0165289
        k(   70) = (  -0.4545455   0.0524864   0.0000000), wk =   0.0165289
        k(   71) = (  -0.4545455   0.1574592   0.0000000), wk =   0.0165289
        k(   72) = (  -0.4545455   0.2624320   0.0000000), wk =   0.0165289
        k(   73) = (  -0.4545455  -0.7872959   0.0000000), wk =   0.0165289
        k(   74) = (  -0.4545455  -0.6823231   0.0000000), wk =   0.0165289
        k(   75) = (  -0.4545455  -0.5773503   0.0000000), wk =   0.0165289
        k(   76) = (  -0.4545455  -0.4723775   0.0000000), wk =   0.0165289
        k(   77) = (  -0.4545455  -0.3674048   0.0000000), wk =   0.0165289
        k(   78) = (  -0.3636364  -0.2099456   0.0000000), wk =   0.0165289
        k(   79) = (  -0.3636364  -0.1049728   0.0000000), wk =   0.0165289
        k(   80) = (  -0.3636364   0.0000000   0.0000000), wk =   0.0165289
        k(   81) = (  -0.3636364   0.1049728   0.0000000), wk =   0.0165289
        k(   82) = (  -0.3636364   0.2099456   0.0000000), wk =   0.0165289
        k(   83) = (  -0.3636364   0.3149184   0.0000000), wk =   0.0165289
        k(   84) = (  -0.3636364  -0.7348095   0.0000000), wk =   0.0165289
        k(   85) = (  -0.3636364  -0.6298367   0.0000000), wk =   0.0165289
        k(   86) = (  -0.3636364  -0.5248639   0.0000000), wk =   0.0165289
        k(   87) = (  -0.3636364  -0.4198911   0.0000000), wk =   0.0165289
        k(   88) = (  -0.3636364  -0.3149184   0.0000000), wk =   0.0165289
        k(   89) = (  -0.2727273  -0.1574592   0.0000000), wk =   0.0165289
        k(   90) = (  -0.2727273  -0.0524864   0.0000000), wk =   0.0165289
        k(   91) = (  -0.2727273   0.0524864   0.0000000), wk =   0.0165289
        k(   92) = (  -0.2727273   0.1574592   0.0000000), wk =   0.0165289
        k(   93) = (  -0.2727273   0.2624320   0.0000000), wk =   0.0165289
        k(   94) = (  -0.2727273   0.3674048   0.0000000), wk =   0.0165289
        k(   95) = (  -0.2727273  -0.6823231   0.0000000), wk =   0.0165289
        k(   96) = (  -0.2727273  -0.5773503   0.0000000), wk =   0.0165289
        k(   97) = (  -0.2727273  -0.4723775   0.0000000), wk =   0.0165289
        k(   98) = (  -0.2727273  -0.3674048   0.0000000), wk =   0.0165289
        k(   99) = (  -0.2727273  -0.2624320   0.0000000), wk =   0.0165289
        k(  100) = (  -0.1818182  -0.1049728   0.0000000), wk =   0.0165289
        k(  101) = (  -0.1818182   0.0000000   0.0000000), wk =   0.0165289
        k(  102) = (  -0.1818182   0.1049728   0.0000000), wk =   0.0165289
        k(  103) = (  -0.1818182   0.2099456   0.0000000), wk =   0.0165289
        k(  104) = (  -0.1818182   0.3149184   0.0000000), wk =   0.0165289
        k(  105) = (  -0.1818182   0.4198911   0.0000000), wk =   0.0165289
        k(  106) = (  -0.1818182  -0.6298367   0.0000000), wk =   0.0165289
        k(  107) = (  -0.1818182  -0.5248639   0.0000000), wk =   0.0165289
        k(  108) = (  -0.1818182  -0.4198911   0.0000000), wk =   0.0165289
        k(  109) = (  -0.1818182  -0.3149184   0.0000000), wk =   0.0165289
        k(  110) = (  -0.1818182  -0.2099456   0.0000000), wk =   0.0165289
        k(  111) = (  -0.0909091  -0.0524864   0.0000000), wk =   0.0165289
        k(  112) = (  -0.0909091   0.0524864   0.0000000), wk =   0.0165289
        k(  113) = (  -0.0909091   0.1574592   0.0000000), wk =   0.0165289
        k(  114) = (  -0.0909091   0.2624320   0.0000000), wk =   0.0165289
        k(  115) = (  -0.0909091   0.3674048   0.0000000), wk =   0.0165289
        k(  116) = (  -0.0909091   0.4723775   0.0000000), wk =   0.0165289
        k(  117) = (  -0.0909091  -0.5773503   0.0000000), wk =   0.0165289
        k(  118) = (  -0.0909091  -0.4723775   0.0000000), wk =   0.0165289
        k(  119) = (  -0.0909091  -0.3674048   0.0000000), wk =   0.0165289
        k(  120) = (  -0.0909091  -0.2624320   0.0000000), wk =   0.0165289
        k(  121) = (  -0.0909091  -0.1574592   0.0000000), wk =   0.0165289

                       cryst. coord.
        k(    1) = (   0.0000000   0.0000000   0.0000000), wk =   0.0165289
        k(    2) = (   0.0000000   0.0909091   0.0000000), wk =   0.0165289
        k(    3) = (   0.0000000   0.1818182   0.0000000), wk =   0.0165289
        k(    4) = (   0.0000000   0.2727273   0.0000000), wk =   0.0165289
        k(    5) = (   0.0000000   0.3636364   0.0000000), wk =   0.0165289
        k(    6) = (   0.0000000   0.4545455   0.0000000), wk =   0.0165289
        k(    7) = (   0.0000000  -0.4545455   0.0000000), wk =   0.0165289
        k(    8) = (   0.0000000  -0.3636364   0.0000000), wk =   0.0165289
        k(    9) = (   0.0000000  -0.2727273   0.0000000), wk =   0.0165289
        k(   10) = (   0.0000000  -0.1818182   0.0000000), wk =   0.0165289
        k(   11) = (   0.0000000  -0.0909091   0.0000000), wk =   0.0165289
        k(   12) = (   0.0909091  -0.0000000   0.0000000), wk =   0.0165289
        k(   13) = (   0.0909091   0.0909091   0.0000000), wk =   0.0165289
        k(   14) = (   0.0909091   0.1818182   0.0000000), wk =   0.0165289
        k(   15) = (   0.0909091   0.2727273   0.0000000), wk =   0.0165289
        k(   16) = (   0.0909091   0.3636364   0.0000000), wk =   0.0165289
        k(   17) = (   0.0909091   0.4545455   0.0000000), wk =   0.0165289
        k(   18) = (   0.0909091  -0.4545455   0.0000000), wk =   0.0165289
        k(   19) = (   0.0909091  -0.3636364   0.0000000), wk =   0.0165289
        k(   20) = (   0.0909091  -0.2727273   0.0000000), wk =   0.0165289
        k(   21) = (   0.0909091  -0.1818182   0.0000000), wk =   0.0165289
        k(   22) = (   0.0909091  -0.0909091   0.0000000), wk =   0.0165289
        k(   23) = (   0.1818182  -0.0000000   0.0000000), wk =   0.0165289
        k(   24) = (   0.1818182   0.0909091   0.0000000), wk =   0.0165289
        k(   25) = (   0.1818182   0.1818182   0.0000000), wk =   0.0165289
        k(   26) = (   0.1818182   0.2727273   0.0000000), wk =   0.0165289
        k(   27) = (   0.1818182   0.3636364   0.0000000), wk =   0.0165289
        k(   28) = (   0.1818182   0.4545455   0.0000000), wk =   0.0165289
        k(   29) = (   0.1818182  -0.4545455   0.0000000), wk =   0.0165289
        k(   30) = (   0.1818182  -0.3636364   0.0000000), wk =   0.0165289
        k(   31) = (   0.1818182  -0.2727273   0.0000000), wk =   0.0165289
        k(   32) = (   0.1818182  -0.1818182   0.0000000), wk =   0.0165289
        k(   33) = (   0.1818182  -0.0909091   0.0000000), wk =   0.0165289
        k(   34) = (   0.2727273  -0.0000000   0.0000000), wk =   0.0165289
        k(   35) = (   0.2727273   0.0909091   0.0000000), wk =   0.0165289
        k(   36) = (   0.2727273   0.1818182   0.0000000), wk =   0.0165289
        k(   37) = (   0.2727273   0.2727273   0.0000000), wk =   0.0165289
        k(   38) = (   0.2727273   0.3636364   0.0000000), wk =   0.0165289
        k(   39) = (   0.2727273   0.4545455   0.0000000), wk =   0.0165289
        k(   40) = (   0.2727273  -0.4545455   0.0000000), wk =   0.0165289
        k(   41) = (   0.2727273  -0.3636364   0.0000000), wk =   0.0165289
        k(   42) = (   0.2727273  -0.2727273   0.0000000), wk =   0.0165289
        k(   43) = (   0.2727273  -0.1818182   0.0000000), wk =   0.0165289
        k(   44) = (   0.2727273  -0.0909091   0.0000000), wk =   0.0165289
        k(   45) = (   0.3636364  -0.0000000   0.0000000), wk =   0.0165289
        k(   46) = (   0.3636364   0.0909091   0.0000000), wk =   0.0165289
        k(   47) = (   0.3636364   0.1818182   0.0000000), wk =   0.0165289
        k(   48) = (   0.3636364   0.2727273   0.0000000), wk =   0.0165289
        k(   49) = (   0.3636364   0.3636364   0.0000000), wk =   0.0165289
        k(   50) = (   0.3636364   0.4545455   0.0000000), wk =   0.0165289
        k(   51) = (   0.3636364  -0.4545455   0.0000000), wk =   0.0165289
        k(   52) = (   0.3636364  -0.3636364   0.0000000), wk =   0.0165289
        k(   53) = (   0.3636364  -0.2727273   0.0000000), wk =   0.0165289
        k(   54) = (   0.3636364  -0.1818182   0.0000000), wk =   0.0165289
        k(   55) = (   0.3636364  -0.0909091   0.0000000), wk =   0.0165289
        k(   56) = (   0.4545455   0.0000000   0.0000000), wk =   0.0165289
        k(   57) = (   0.4545455   0.0909091   0.0000000), wk =   0.0165289
        k(   58) = (   0.4545455   0.1818182   0.0000000), wk =   0.0165289
        k(   59) = (   0.4545455   0.2727273   0.0000000), wk =   0.0165289
        k(   60) = (   0.4545455   0.3636364   0.0000000), wk =   0.0165289
        k(   61) = (   0.4545455   0.4545455   0.0000000), wk =   0.0165289
        k(   62) = (   0.4545455  -0.4545455   0.0000000), wk =   0.0165289
        k(   63) = (   0.4545455  -0.3636364   0.0000000), wk =   0.0165289
        k(   64) = (   0.4545455  -0.2727273   0.0000000), wk =   0.0165289
        k(   65) = (   0.4545455  -0.1818182   0.0000000), wk =   0.0165289
        k(   66) = (   0.4545455  -0.0909091   0.0000000), wk =   0.0165289
        k(   67) = (  -0.4545455  -0.0000000   0.0000000), wk =   0.0165289
        k(   68) = (  -0.4545455   0.0909091   0.0000000), wk =   0.0165289
        k(   69) = (  -0.4545455   0.1818182   0.0000000), wk =   0.0165289
        k(   70) = (  -0.4545455   0.2727273   0.0000000), wk =   0.0165289
        k(   71) = (  -0.4545455   0.3636364   0.0000000), wk =   0.0165289
        k(   72) = (  -0.4545455   0.4545455   0.0000000), wk =   0.0165289
        k(   73) = (  -0.4545455  -0.4545455   0.0000000), wk =   0.0165289
        k(   74) = (  -0.4545455  -0.3636364   0.0000000), wk =   0.0165289
        k(   75) = (  -0.4545455  -0.2727273   0.0000000), wk =   0.0165289
        k(   76) = (  -0.4545455  -0.1818182   0.0000000), wk =   0.0165289
        k(   77) = (  -0.4545455  -0.0909091   0.0000000), wk =   0.0165289
        k(   78) = (  -0.3636364   0.0000000   0.0000000), wk =   0.0165289
        k(   79) = (  -0.3636364   0.0909091   0.0000000), wk =   0.0165289
        k(   80) = (  -0.3636364   0.1818182   0.0000000), wk =   0.0165289
        k(   81) = (  -0.3636364   0.2727273   0.0000000), wk =   0.0165289
        k(   82) = (  -0.3636364   0.3636364   0.0000000), wk =   0.0165289
        k(   83) = (  -0.3636364   0.4545455   0.0000000), wk =   0.0165289
        k(   84) = (  -0.3636364  -0.4545455   0.0000000), wk =   0.0165289
        k(   85) = (  -0.3636364  -0.3636364   0.0000000), wk =   0.0165289
        k(   86) = (  -0.3636364  -0.2727273   0.0000000), wk =   0.0165289
        k(   87) = (  -0.3636364  -0.1818182   0.0000000), wk =   0.0165289
        k(   88) = (  -0.3636364  -0.0909091   0.0000000), wk =   0.0165289
        k(   89) = (  -0.2727273   0.0000000   0.0000000), wk =   0.0165289
        k(   90) = (  -0.2727273   0.0909091   0.0000000), wk =   0.0165289
        k(   91) = (  -0.2727273   0.1818182   0.0000000), wk =   0.0165289
        k(   92) = (  -0.2727273   0.2727273   0.0000000), wk =   0.0165289
        k(   93) = (  -0.2727273   0.3636364   0.0000000), wk =   0.0165289
        k(   94) = (  -0.2727273   0.4545455   0.0000000), wk =   0.0165289
        k(   95) = (  -0.2727273  -0.4545455   0.0000000), wk =   0.0165289
        k(   96) = (  -0.2727273  -0.3636364   0.0000000), wk =   0.0165289
        k(   97) = (  -0.2727273  -0.2727273   0.0000000), wk =   0.0165289
        k(   98) = (  -0.2727273  -0.1818182   0.0000000), wk =   0.0165289
        k(   99) = (  -0.2727273  -0.0909091   0.0000000), wk =   0.0165289
        k(  100) = (  -0.1818182  -0.0000000   0.0000000), wk =   0.0165289
        k(  101) = (  -0.1818182   0.0909091   0.0000000), wk =   0.0165289
        k(  102) = (  -0.1818182   0.1818182   0.0000000), wk =   0.0165289
        k(  103) = (  -0.1818182   0.2727273   0.0000000), wk =   0.0165289
        k(  104) = (  -0.1818182   0.3636364   0.0000000), wk =   0.0165289
        k(  105) = (  -0.1818182   0.4545455   0.0000000), wk =   0.0165289
        k(  106) = (  -0.1818182  -0.4545455   0.0000000), wk =   0.0165289
        k(  107) = (  -0.1818182  -0.3636364   0.0000000), wk =   0.0165289
        k(  108) = (  -0.1818182  -0.2727273   0.0000000), wk =   0.0165289
        k(  109) = (  -0.1818182  -0.1818182   0.0000000), wk =   0.0165289
        k(  110) = (  -0.1818182  -0.0909091   0.0000000), wk =   0.0165289
        k(  111) = (  -0.0909091  -0.0000000   0.0000000), wk =   0.0165289
        k(  112) = (  -0.0909091   0.0909091   0.0000000), wk =   0.0165289
        k(  113) = (  -0.0909091   0.1818182   0.0000000), wk =   0.0165289
        k(  114) = (  -0.0909091   0.2727273   0.0000000), wk =   0.0165289
        k(  115) = (  -0.0909091   0.3636364   0.0000000), wk =   0.0165289
        k(  116) = (  -0.0909091   0.4545455   0.0000000), wk =   0.0165289
        k(  117) = (  -0.0909091  -0.4545455   0.0000000), wk =   0.0165289
        k(  118) = (  -0.0909091  -0.3636364   0.0000000), wk =   0.0165289
        k(  119) = (  -0.0909091  -0.2727273   0.0000000), wk =   0.0165289
        k(  120) = (  -0.0909091  -0.1818182   0.0000000), wk =   0.0165289
        k(  121) = (  -0.0909091  -0.0909091   0.0000000), wk =   0.0165289

     Dense  grid:   167793 G-vectors     FFT dimensions: (  36,  36, 320)

     Smooth grid:   120229 G-vectors     FFT dimensions: (  32,  32, 288)

     Dynamical RAM for                 wfc:       4.81 MB

     Dynamical RAM for     wfc (w. buffer):     586.90 MB

     Dynamical RAM for           str. fact:       7.68 MB

     Dynamical RAM for           local pot:       0.00 MB

     Dynamical RAM for          nlocal pot:      15.12 MB

     Dynamical RAM for                qrad:       4.82 MB

     Dynamical RAM for          rho,v,vnew:      17.17 MB

     Dynamical RAM for               rhoin:       5.72 MB

     Dynamical RAM for            rho*nmix:      40.97 MB

     Dynamical RAM for           G-vectors:      10.52 MB

     Dynamical RAM for          h,s,v(r/c):       0.08 MB

     Dynamical RAM for          <psi|beta>:       0.02 MB

     Dynamical RAM for                 psi:       9.62 MB

     Dynamical RAM for                hpsi:       9.62 MB

     Dynamical RAM for      wfcinit/wfcrot:       9.63 MB

     Estimated static dynamical RAM per process >     674.00 MB

     Estimated max dynamical RAM per process >     734.31 MB
 ----2D----2D----2D----2D----2D----2D----2D----2D----2D----2D----2D----2D
  The code is running with the 2D cutoff
  Please refer to:
  Sohier, T., Calandra, M., & Mauri, F. (2017), 
  Density functional perturbation theory for gated two-dimensional heterostructures:
  Theoretical developments and application to flexural phonons in graphene.
  Physical Review B, 96(7), 75448. https://doi.org/10.1103/PhysRevB.96.075448
 ----2D----2D----2D----2D----2D----2D----2D----2D----2D----2D----2D----2D

     Initial potential from superposition of free atoms

     starting charge      41.9980, renormalised to      42.0000

     negative rho (up, down):  1.983E-06 0.000E+00
     Starting wfcs are   34 randomized atomic wfcs

     total cpu time spent up to now is        7.2 secs

     Self-consistent Calculation
[tb_dev] Currently allocated     1.51E+00 Mbytes, locked:    0 /   5
[tb_pin] Currently allocated     0.00E+00 Mbytes, locked:    0 /   0

     iteration #  1     ecut=    80.00 Ry     beta= 0.40
     Davidson diagonalization with overlap

---- Real-time Memory Report at c_bands before calling an iterative solver
          1285 MiB given to the printing process from OS
             0 MiB allocation reported by mallinfo(arena+hblkhd)
         12905 MiB available memory on the node where the printing process lives
     GPU memory used/free/total (MiB): 1395 / 10518 / 11914
------------------
     ethr =  1.00E-02,  avg # of iterations =  2.0

     total cpu time spent up to now is       18.8 secs

     total energy              =    -262.68271724 Ry
     estimated scf accuracy    <       2.27630150 Ry
[tb_dev] Currently allocated     2.67E-05 Mbytes, locked:    0 /   1
[tb_pin] Currently allocated     0.00E+00 Mbytes, locked:    0 /   0

     iteration #  2     ecut=    80.00 Ry     beta= 0.40
     Davidson diagonalization with overlap

---- Real-time Memory Report at c_bands before calling an iterative solver
          1301 MiB given to the printing process from OS
             0 MiB allocation reported by mallinfo(arena+hblkhd)
         12896 MiB available memory on the node where the printing process lives
     GPU memory used/free/total (MiB): 1419 / 10494 / 11914
------------------
     ethr =  5.42E-03,  avg # of iterations =  5.6

     total cpu time spent up to now is       37.7 secs

     total energy              =    -263.17326881 Ry
     estimated scf accuracy    <       0.79013616 Ry
[tb_dev] Currently allocated     2.67E-05 Mbytes, locked:    0 /   1
[tb_pin] Currently allocated     0.00E+00 Mbytes, locked:    0 /   0

     iteration #  3     ecut=    80.00 Ry     beta= 0.40
     Davidson diagonalization with overlap

---- Real-time Memory Report at c_bands before calling an iterative solver
          1328 MiB given to the printing process from OS
             0 MiB allocation reported by mallinfo(arena+hblkhd)
         12881 MiB available memory on the node where the printing process lives
     GPU memory used/free/total (MiB): 1419 / 10494 / 11914
------------------
     ethr =  1.88E-03,  avg # of iterations =  4.6

     total cpu time spent up to now is       52.4 secs

     total energy              =    -263.33334672 Ry
     estimated scf accuracy    <       0.03993403 Ry
[tb_dev] Currently allocated     2.67E-05 Mbytes, locked:    0 /   1
[tb_pin] Currently allocated     0.00E+00 Mbytes, locked:    0 /   0

     iteration #  4     ecut=    80.00 Ry     beta= 0.40
     Davidson diagonalization with overlap

---- Real-time Memory Report at c_bands before calling an iterative solver
          1333 MiB given to the printing process from OS
             0 MiB allocation reported by mallinfo(arena+hblkhd)
         12872 MiB available memory on the node where the printing process lives
     GPU memory used/free/total (MiB): 1419 / 10494 / 11914
------------------
     ethr =  9.51E-05,  avg # of iterations =  4.7

     total cpu time spent up to now is       68.0 secs

     total energy              =    -263.34266348 Ry
     estimated scf accuracy    <       0.01197936 Ry
[tb_dev] Currently allocated     2.67E-05 Mbytes, locked:    0 /   1
[tb_pin] Currently allocated     0.00E+00 Mbytes, locked:    0 /   0

     iteration #  5     ecut=    80.00 Ry     beta= 0.40
     Davidson diagonalization with overlap

---- Real-time Memory Report at c_bands before calling an iterative solver
          1339 MiB given to the printing process from OS
             0 MiB allocation reported by mallinfo(arena+hblkhd)
         12867 MiB available memory on the node where the printing process lives
     GPU memory used/free/total (MiB): 1421 / 10492 / 11914
------------------
     ethr =  2.85E-05,  avg # of iterations =  7.4

     total cpu time spent up to now is       88.0 secs

     total energy              =    -263.34282820 Ry
     estimated scf accuracy    <       0.02887770 Ry
[tb_dev] Currently allocated     2.67E-05 Mbytes, locked:    0 /   1
[tb_pin] Currently allocated     0.00E+00 Mbytes, locked:    0 /   0

     iteration #  6     ecut=    80.00 Ry     beta= 0.40
     Davidson diagonalization with overlap

---- Real-time Memory Report at c_bands before calling an iterative solver
          1345 MiB given to the printing process from OS
             0 MiB allocation reported by mallinfo(arena+hblkhd)
         12857 MiB available memory on the node where the printing process lives
     GPU memory used/free/total (MiB): 1421 / 10492 / 11914
------------------
     ethr =  2.85E-05,  avg # of iterations =  5.7

     total cpu time spent up to now is      104.6 secs

     total energy              =    -263.34480917 Ry
     estimated scf accuracy    <       0.00376260 Ry
[tb_dev] Currently allocated     2.67E-05 Mbytes, locked:    0 /   1
[tb_pin] Currently allocated     0.00E+00 Mbytes, locked:    0 /   0

     iteration #  7     ecut=    80.00 Ry     beta= 0.40
     Davidson diagonalization with overlap

---- Real-time Memory Report at c_bands before calling an iterative solver
          1352 MiB given to the printing process from OS
             0 MiB allocation reported by mallinfo(arena+hblkhd)
         12850 MiB available memory on the node where the printing process lives
     GPU memory used/free/total (MiB): 1421 / 10492 / 11914
------------------
     ethr =  8.96E-06,  avg # of iterations =  6.9

     total cpu time spent up to now is      123.2 secs

     total energy              =    -263.34476842 Ry
     estimated scf accuracy    <       0.00723615 Ry
[tb_dev] Currently allocated     2.67E-05 Mbytes, locked:    0 /   1
[tb_pin] Currently allocated     0.00E+00 Mbytes, locked:    0 /   0

     iteration #  8     ecut=    80.00 Ry     beta= 0.40
     Davidson diagonalization with overlap

---- Real-time Memory Report at c_bands before calling an iterative solver
          1358 MiB given to the printing process from OS
             0 MiB allocation reported by mallinfo(arena+hblkhd)
         12845 MiB available memory on the node where the printing process lives
     GPU memory used/free/total (MiB): 1421 / 10492 / 11914
------------------
     ethr =  8.96E-06,  avg # of iterations =  5.7

     total cpu time spent up to now is      139.8 secs

     total energy              =    -263.34600233 Ry
     estimated scf accuracy    <       0.00027428 Ry
[tb_dev] Currently allocated     2.67E-05 Mbytes, locked:    0 /   1
[tb_pin] Currently allocated     0.00E+00 Mbytes, locked:    0 /   0

     iteration #  9     ecut=    80.00 Ry     beta= 0.40
     Davidson diagonalization with overlap

---- Real-time Memory Report at c_bands before calling an iterative solver
          1360 MiB given to the printing process from OS
             0 MiB allocation reported by mallinfo(arena+hblkhd)
         12846 MiB available memory on the node where the printing process lives
     GPU memory used/free/total (MiB): 1421 / 10492 / 11914
------------------
     ethr =  6.53E-07,  avg # of iterations =  4.5

     total cpu time spent up to now is      154.6 secs

     total energy              =    -263.34605577 Ry
     estimated scf accuracy    <       0.00006419 Ry
[tb_dev] Currently allocated     2.67E-05 Mbytes, locked:    0 /   1
[tb_pin] Currently allocated     0.00E+00 Mbytes, locked:    0 /   0

     iteration # 10     ecut=    80.00 Ry     beta= 0.40
     Davidson diagonalization with overlap

---- Real-time Memory Report at c_bands before calling an iterative solver
          1366 MiB given to the printing process from OS
             0 MiB allocation reported by mallinfo(arena+hblkhd)
         12838 MiB available memory on the node where the printing process lives
     GPU memory used/free/total (MiB): 1421 / 10492 / 11914
------------------
     ethr =  1.53E-07,  avg # of iterations =  5.6

     total cpu time spent up to now is      170.4 secs

     total energy              =    -263.34607843 Ry
     estimated scf accuracy    <       0.00001860 Ry
[tb_dev] Currently allocated     2.67E-05 Mbytes, locked:    0 /   1
[tb_pin] Currently allocated     0.00E+00 Mbytes, locked:    0 /   0

     iteration # 11     ecut=    80.00 Ry     beta= 0.40
     Davidson diagonalization with overlap

---- Real-time Memory Report at c_bands before calling an iterative solver
          1366 MiB given to the printing process from OS
             0 MiB allocation reported by mallinfo(arena+hblkhd)
         12848 MiB available memory on the node where the printing process lives
     GPU memory used/free/total (MiB): 1421 / 10492 / 11914
------------------
     ethr =  4.43E-08,  avg # of iterations =  3.6

     total cpu time spent up to now is      183.4 secs

     total energy              =    -263.34607920 Ry
     estimated scf accuracy    <       0.00000303 Ry
[tb_dev] Currently allocated     2.67E-05 Mbytes, locked:    0 /   1
[tb_pin] Currently allocated     0.00E+00 Mbytes, locked:    0 /   0

     iteration # 12     ecut=    80.00 Ry     beta= 0.40
     Davidson diagonalization with overlap

---- Real-time Memory Report at c_bands before calling an iterative solver
          1366 MiB given to the printing process from OS
             0 MiB allocation reported by mallinfo(arena+hblkhd)
         12846 MiB available memory on the node where the printing process lives
     GPU memory used/free/total (MiB): 1421 / 10492 / 11914
------------------
     ethr =  7.21E-09,  avg # of iterations =  7.5

     total cpu time spent up to now is      204.0 secs

     total energy              =    -263.34608127 Ry
     estimated scf accuracy    <       0.00000364 Ry
[tb_dev] Currently allocated     2.67E-05 Mbytes, locked:    0 /   1
[tb_pin] Currently allocated     0.00E+00 Mbytes, locked:    0 /   0

     iteration # 13     ecut=    80.00 Ry     beta= 0.40
     Davidson diagonalization with overlap

---- Real-time Memory Report at c_bands before calling an iterative solver
          1367 MiB given to the printing process from OS
             0 MiB allocation reported by mallinfo(arena+hblkhd)
         12846 MiB available memory on the node where the printing process lives
     GPU memory used/free/total (MiB): 1421 / 10492 / 11914
------------------
     ethr =  7.21E-09,  avg # of iterations =  1.0

     total cpu time spent up to now is      212.6 secs

     total energy              =    -263.34608050 Ry
     estimated scf accuracy    <       0.00000315 Ry
[tb_dev] Currently allocated     2.67E-05 Mbytes, locked:    0 /   1
[tb_pin] Currently allocated     0.00E+00 Mbytes, locked:    0 /   0

     iteration # 14     ecut=    80.00 Ry     beta= 0.40
     Davidson diagonalization with overlap

---- Real-time Memory Report at c_bands before calling an iterative solver
          1367 MiB given to the printing process from OS
             0 MiB allocation reported by mallinfo(arena+hblkhd)
         12848 MiB available memory on the node where the printing process lives
     GPU memory used/free/total (MiB): 1421 / 10492 / 11914
------------------
     ethr =  7.21E-09,  avg # of iterations =  4.1

     total cpu time spent up to now is      226.2 secs

     total energy              =    -263.34608087 Ry
     estimated scf accuracy    <       0.00000007 Ry
[tb_dev] Currently allocated     2.67E-05 Mbytes, locked:    0 /   1
[tb_pin] Currently allocated     0.00E+00 Mbytes, locked:    0 /   0

     iteration # 15     ecut=    80.00 Ry     beta= 0.40
     Davidson diagonalization with overlap

---- Real-time Memory Report at c_bands before calling an iterative solver
          1367 MiB given to the printing process from OS
             0 MiB allocation reported by mallinfo(arena+hblkhd)
         12858 MiB available memory on the node where the printing process lives
     GPU memory used/free/total (MiB): 1421 / 10492 / 11914
------------------
     ethr =  1.78E-10,  avg # of iterations =  9.1

     total cpu time spent up to now is      250.1 secs

     total energy              =    -263.34608099 Ry
     estimated scf accuracy    <       0.00000025 Ry
[tb_dev] Currently allocated     2.67E-05 Mbytes, locked:    0 /   1
[tb_pin] Currently allocated     0.00E+00 Mbytes, locked:    0 /   0

     iteration # 16     ecut=    80.00 Ry     beta= 0.40
     Davidson diagonalization with overlap

---- Real-time Memory Report at c_bands before calling an iterative solver
          1368 MiB given to the printing process from OS
             0 MiB allocation reported by mallinfo(arena+hblkhd)
         12857 MiB available memory on the node where the printing process lives
     GPU memory used/free/total (MiB): 1421 / 10492 / 11914
------------------
     ethr =  1.78E-10,  avg # of iterations =  2.0

     total cpu time spent up to now is      260.7 secs

     total energy              =    -263.34608094 Ry
     estimated scf accuracy    <       0.00000015 Ry
[tb_dev] Currently allocated     2.67E-05 Mbytes, locked:    0 /   1
[tb_pin] Currently allocated     0.00E+00 Mbytes, locked:    0 /   0

     iteration # 17     ecut=    80.00 Ry     beta= 0.40
     Davidson diagonalization with overlap

---- Real-time Memory Report at c_bands before calling an iterative solver
          1368 MiB given to the printing process from OS
             0 MiB allocation reported by mallinfo(arena+hblkhd)
         12854 MiB available memory on the node where the printing process lives
     GPU memory used/free/total (MiB): 1421 / 10492 / 11914
------------------
     ethr =  1.78E-10,  avg # of iterations =  7.2

     total cpu time spent up to now is      279.4 secs

     total energy              =    -263.34608099 Ry
     estimated scf accuracy    <       0.00000006 Ry
[tb_dev] Currently allocated     2.67E-05 Mbytes, locked:    0 /   1
[tb_pin] Currently allocated     0.00E+00 Mbytes, locked:    0 /   0

     iteration # 18     ecut=    80.00 Ry     beta= 0.40
     Davidson diagonalization with overlap

---- Real-time Memory Report at c_bands before calling an iterative solver
          1369 MiB given to the printing process from OS
             0 MiB allocation reported by mallinfo(arena+hblkhd)
         12855 MiB available memory on the node where the printing process lives
     GPU memory used/free/total (MiB): 1421 / 10492 / 11914
------------------
     ethr =  1.48E-10,  avg # of iterations =  1.0

     total cpu time spent up to now is      288.0 secs

     total energy              =    -263.34608098 Ry
     estimated scf accuracy    <       0.00000005 Ry
[tb_dev] Currently allocated     2.67E-05 Mbytes, locked:    0 /   1
[tb_pin] Currently allocated     0.00E+00 Mbytes, locked:    0 /   0

     iteration # 19     ecut=    80.00 Ry     beta= 0.40
     Davidson diagonalization with overlap

---- Real-time Memory Report at c_bands before calling an iterative solver
          1369 MiB given to the printing process from OS
             0 MiB allocation reported by mallinfo(arena+hblkhd)
         12848 MiB available memory on the node where the printing process lives
     GPU memory used/free/total (MiB): 1421 / 10492 / 11914
------------------
     ethr =  1.12E-10,  avg # of iterations =  2.5

     total cpu time spent up to now is      299.8 secs

     total energy              =    -263.34608098 Ry
     estimated scf accuracy    <       0.00000002 Ry
[tb_dev] Currently allocated     2.67E-05 Mbytes, locked:    0 /   1
[tb_pin] Currently allocated     0.00E+00 Mbytes, locked:    0 /   0

     iteration # 20     ecut=    80.00 Ry     beta= 0.40
     Davidson diagonalization with overlap

---- Real-time Memory Report at c_bands before calling an iterative solver
          1369 MiB given to the printing process from OS
             0 MiB allocation reported by mallinfo(arena+hblkhd)
         12848 MiB available memory on the node where the printing process lives
     GPU memory used/free/total (MiB): 1421 / 10492 / 11914
------------------
     ethr =  4.34E-11,  avg # of iterations =  5.0

     total cpu time spent up to now is      315.1 secs

     total energy              =    -263.34608099 Ry
     estimated scf accuracy    <          2.6E-09 Ry
[tb_dev] Currently allocated     2.67E-05 Mbytes, locked:    0 /   1
[tb_pin] Currently allocated     0.00E+00 Mbytes, locked:    0 /   0

     iteration # 21     ecut=    80.00 Ry     beta= 0.40
     Davidson diagonalization with overlap

---- Real-time Memory Report at c_bands before calling an iterative solver
          1369 MiB given to the printing process from OS
             0 MiB allocation reported by mallinfo(arena+hblkhd)
         12862 MiB available memory on the node where the printing process lives
     GPU memory used/free/total (MiB): 1421 / 10492 / 11914
------------------
     ethr =  6.11E-12,  avg # of iterations =  4.2

     total cpu time spent up to now is      329.2 secs

     total energy              =    -263.34608099 Ry
     estimated scf accuracy    <          4.5E-09 Ry
[tb_dev] Currently allocated     2.67E-05 Mbytes, locked:    0 /   1
[tb_pin] Currently allocated     0.00E+00 Mbytes, locked:    0 /   0

     iteration # 22     ecut=    80.00 Ry     beta= 0.40
     Davidson diagonalization with overlap

---- Real-time Memory Report at c_bands before calling an iterative solver
          1370 MiB given to the printing process from OS
             0 MiB allocation reported by mallinfo(arena+hblkhd)
         12869 MiB available memory on the node where the printing process lives
     GPU memory used/free/total (MiB): 1421 / 10492 / 11914
------------------
     ethr =  6.11E-12,  avg # of iterations =  2.4

     total cpu time spent up to now is      340.5 secs

     total energy              =    -263.34608099 Ry
     estimated scf accuracy    <          2.2E-09 Ry
[tb_dev] Currently allocated     2.67E-05 Mbytes, locked:    0 /   1
[tb_pin] Currently allocated     0.00E+00 Mbytes, locked:    0 /   0

     iteration # 23     ecut=    80.00 Ry     beta= 0.40
     Davidson diagonalization with overlap

---- Real-time Memory Report at c_bands before calling an iterative solver
          1370 MiB given to the printing process from OS
             0 MiB allocation reported by mallinfo(arena+hblkhd)
         12864 MiB available memory on the node where the printing process lives
     GPU memory used/free/total (MiB): 1421 / 10492 / 11914
------------------
     ethr =  5.34E-12,  avg # of iterations =  4.0

     total cpu time spent up to now is      354.2 secs

     total energy              =    -263.34608099 Ry
     estimated scf accuracy    <          3.3E-10 Ry
[tb_dev] Currently allocated     2.67E-05 Mbytes, locked:    0 /   1
[tb_pin] Currently allocated     0.00E+00 Mbytes, locked:    0 /   0

     iteration # 24     ecut=    80.00 Ry     beta= 0.40
     Davidson diagonalization with overlap

---- Real-time Memory Report at c_bands before calling an iterative solver
          1370 MiB given to the printing process from OS
             0 MiB allocation reported by mallinfo(arena+hblkhd)
         12855 MiB available memory on the node where the printing process lives
     GPU memory used/free/total (MiB): 1421 / 10492 / 11914
------------------
     ethr =  7.85E-13,  avg # of iterations =  8.3

     total cpu time spent up to now is      376.5 secs

     total energy              =    -263.34608099 Ry
     estimated scf accuracy    <          1.2E-09 Ry
[tb_dev] Currently allocated     2.67E-05 Mbytes, locked:    0 /   1
[tb_pin] Currently allocated     0.00E+00 Mbytes, locked:    0 /   0

     iteration # 25     ecut=    80.00 Ry     beta= 0.40
     Davidson diagonalization with overlap

---- Real-time Memory Report at c_bands before calling an iterative solver
          1370 MiB given to the printing process from OS
             0 MiB allocation reported by mallinfo(arena+hblkhd)
         12864 MiB available memory on the node where the printing process lives
     GPU memory used/free/total (MiB): 1421 / 10492 / 11914
------------------
     ethr =  7.85E-13,  avg # of iterations =  4.7

     total cpu time spent up to now is      391.2 secs

     total energy              =    -263.34608099 Ry
     estimated scf accuracy    <          2.0E-10 Ry
[tb_dev] Currently allocated     2.67E-05 Mbytes, locked:    0 /   1
[tb_pin] Currently allocated     0.00E+00 Mbytes, locked:    0 /   0

     iteration # 26     ecut=    80.00 Ry     beta= 0.40
     Davidson diagonalization with overlap

---- Real-time Memory Report at c_bands before calling an iterative solver
          1370 MiB given to the printing process from OS
             0 MiB allocation reported by mallinfo(arena+hblkhd)
         12856 MiB available memory on the node where the printing process lives
     GPU memory used/free/total (MiB): 1421 / 10492 / 11914
------------------
     ethr =  4.77E-13,  avg # of iterations =  4.5

     total cpu time spent up to now is      405.3 secs

     End of self-consistent calculation

          k = 0.0000 0.0000 0.0000 ( 15061 PWs)   bands (ev):

   -77.8283 -49.0470 -49.0470 -48.9702 -24.3265 -24.2380 -21.6194 -20.2192
   -13.8337 -11.1819  -9.2799  -9.2792  -9.2764  -9.2247  -9.2245  -8.8080
    -8.8078  -7.5180  -7.5163  -7.3903  -5.3331

     occupation numbers 
     1.0000   1.0000   1.0000   1.0000   1.0000   1.0000   1.0000   1.0000
     1.0000   1.0000   1.0000   1.0000   1.0000   1.0000   1.0000   1.0000
     1.0000   1.0000   1.0000   1.0000   1.0000

          k = 0.0000 0.1050 0.0000 ( 15059 PWs)   bands (ev):

   -77.8259 -49.0665 -49.0515 -48.9667 -24.1884 -24.1018 -21.5159 -20.1641
   -13.7270 -11.1340  -9.9427  -9.8699  -9.4074  -9.3635  -9.1156  -9.0261
    -8.7222  -7.7467  -7.6546  -7.2365  -5.4400

     occupation numbers 
     1.0000   1.0000   1.0000   1.0000   1.0000   1.0000   1.0000   1.0000
     1.0000   1.0000   1.0000   1.0000   1.0000   1.0000   1.0000   1.0000
     1.0000   1.0000   1.0000   1.0000   1.0000

          k = 0.0000 0.2099 0.0000 ( 15035 PWs)   bands (ev):

   -77.8194 -49.1183 -49.0633 -48.9574 -23.7858 -23.7046 -21.2321 -20.0160
   -13.4756 -11.3851 -11.2095 -10.9126  -9.7367  -9.7052  -9.6560  -8.8507
    -8.4718  -8.1288  -7.9854  -7.3206  -5.8002

     occupation numbers 
     1.0000   1.0000   1.0000   1.0000   1.0000   1.0000   1.0000   1.0000
     1.0000   1.0000   1.0000   1.0000   1.0000   1.0000   1.0000   1.0000
     1.0000   1.0000   1.0000   1.0000   1.0000

          k = 0.0000 0.3149 0.0000 ( 14973 PWs)   bands (ev):

   -77.8109 -49.1858 -49.0788 -48.9451 -23.1608 -23.0876 -20.8520 -19.8318
   -13.5544 -12.9209 -12.2757 -10.8426 -10.3061 -10.1306 -10.0969  -8.7307
    -8.5290  -8.3729  -8.1024  -7.4941  -6.1752

     occupation numbers 
     1.0000   1.0000   1.0000   1.0000   1.0000   1.0000   1.0000   1.0000
     1.0000   1.0000   1.0000   1.0000   1.0000   1.0000   1.0000   1.0000
     1.0000   1.0000   1.0000   1.0000   1.0000

          k = 0.0000 0.4199 0.0000 ( 14988 PWs)   bands (ev):

   -77.8030 -49.2472 -49.0930 -48.9338 -22.4149 -22.3514 -20.5254 -19.7125
   -14.5861 -14.2949 -12.2623 -11.0949 -10.6435 -10.4581 -10.4169  -9.1347
    -8.6745  -8.3025  -7.7471  -7.5750  -6.2993

     occupation numbers 
     1.0000   1.0000   1.0000   1.0000   1.0000   1.0000   1.0000   1.0000
     1.0000   1.0000   1.0000   1.0000   1.0000   1.0000   1.0000   1.0000
     1.0000   1.0000   1.0000   1.0000   1.0000

          k = 0.0000 0.5249 0.0000 ( 15032 PWs)   bands (ev):

   -77.7984 -49.2835 -49.1014 -48.9271 -21.8017 -21.7472 -20.4075 -19.7319
   -15.3842 -15.1205 -12.0880 -11.4824 -10.7684 -10.6392 -10.5933  -9.2839
    -8.8422  -8.0673  -7.5916  -7.5161  -6.2619

     occupation numbers 
     1.0000   1.0000   1.0000   1.0000   1.0000   1.0000   1.0000   1.0000
     1.0000   1.0000   1.0000   1.0000   1.0000   1.0000   1.0000   1.0000
     1.0000   1.0000   1.0000   1.0000   1.0000

          k = 0.0000-0.5249 0.0000 ( 15032 PWs)   bands (ev):

   -77.7984 -49.2835 -49.1014 -48.9271 -21.8017 -21.7472 -20.4075 -19.7319
   -15.3842 -15.1205 -12.0880 -11.4824 -10.7684 -10.6392 -10.5933  -9.2839
    -8.8422  -8.0673  -7.5916  -7.5161  -6.2619

     occupation numbers 
     1.0000   1.0000   1.0000   1.0000   1.0000   1.0000   1.0000   1.0000
     1.0000   1.0000   1.0000   1.0000   1.0000   1.0000   1.0000   1.0000
     1.0000   1.0000   1.0000   1.0000   1.0000

          k = 0.0000-0.4199 0.0000 ( 14988 PWs)   bands (ev):

   -77.8030 -49.2472 -49.0930 -48.9338 -22.4149 -22.3514 -20.5254 -19.7125
   -14.5861 -14.2949 -12.2623 -11.0949 -10.6435 -10.4581 -10.4169  -9.1347
    -8.6745  -8.3025  -7.7471  -7.5750  -6.2993

     occupation numbers 
     1.0000   1.0000   1.0000   1.0000   1.0000   1.0000   1.0000   1.0000
     1.0000   1.0000   1.0000   1.0000   1.0000   1.0000   1.0000   1.0000
     1.0000   1.0000   1.0000   1.0000   1.0000

          k = 0.0000-0.3149 0.0000 ( 14973 PWs)   bands (ev):

   -77.8109 -49.1858 -49.0788 -48.9451 -23.1608 -23.0876 -20.8520 -19.8318
   -13.5544 -12.9209 -12.2757 -10.8426 -10.3061 -10.1306 -10.0969  -8.7307
    -8.5290  -8.3729  -8.1024  -7.4941  -6.1752

     occupation numbers 
     1.0000   1.0000   1.0000   1.0000   1.0000   1.0000   1.0000   1.0000
     1.0000   1.0000   1.0000   1.0000   1.0000   1.0000   1.0000   1.0000
     1.0000   1.0000   1.0000   1.0000   1.0000

          k = 0.0000-0.2099 0.0000 ( 15035 PWs)   bands (ev):

   -77.8194 -49.1183 -49.0633 -48.9574 -23.7858 -23.7046 -21.2321 -20.0160
   -13.4756 -11.3851 -11.2095 -10.9126  -9.7367  -9.7052  -9.6560  -8.8507
    -8.4718  -8.1288  -7.9854  -7.3206  -5.8002

     occupation numbers 
     1.0000   1.0000   1.0000   1.0000   1.0000   1.0000   1.0000   1.0000
     1.0000   1.0000   1.0000   1.0000   1.0000   1.0000   1.0000   1.0000
     1.0000   1.0000   1.0000   1.0000   1.0000

          k = 0.0000-0.1050 0.0000 ( 15059 PWs)   bands (ev):

   -77.8259 -49.0665 -49.0515 -48.9667 -24.1884 -24.1018 -21.5159 -20.1641
   -13.7270 -11.1340  -9.9427  -9.8699  -9.4074  -9.3635  -9.1156  -9.0261
    -8.7222  -7.7467  -7.6546  -7.2365  -5.4400

     occupation numbers 
     1.0000   1.0000   1.0000   1.0000   1.0000   1.0000   1.0000   1.0000
     1.0000   1.0000   1.0000   1.0000   1.0000   1.0000   1.0000   1.0000
     1.0000   1.0000   1.0000   1.0000   1.0000

          k = 0.0909 0.0525 0.0000 ( 15059 PWs)   bands (ev):

   -77.8259 -49.0665 -49.0515 -48.9667 -24.1884 -24.1018 -21.5159 -20.1641
   -13.7270 -11.1340  -9.9427  -9.8699  -9.4074  -9.3635  -9.1156  -9.0261
    -8.7222  -7.7467  -7.6546  -7.2365  -5.4400

     occupation numbers 
     1.0000   1.0000   1.0000   1.0000   1.0000   1.0000   1.0000   1.0000
     1.0000   1.0000   1.0000   1.0000   1.0000   1.0000   1.0000   1.0000
     1.0000   1.0000   1.0000   1.0000   1.0000

          k = 0.0909 0.1575 0.0000 ( 15029 PWs)   bands (ev):

   -77.8214 -49.1009 -49.0608 -48.9603 -23.9179 -23.8350 -21.3220 -20.0622
   -13.5442 -11.1098 -10.7937 -10.7369  -9.8120  -9.7042  -9.3532  -8.9126
    -8.5799  -8.0355  -7.8828  -7.2291  -5.6833

     occupation numbers 
     1.0000   1.0000   1.0000   1.0000   1.0000   1.0000   1.0000   1.0000
     1.0000   1.0000   1.0000   1.0000   1.0000   1.0000   1.0000   1.0000
     1.0000   1.0000   1.0000   1.0000   1.0000

          k = 0.0909 0.2624 0.0000 ( 14987 PWs)   bands (ev):

   -77.8139 -49.1577 -49.0774 -48.9495 -23.4025 -23.3262 -20.9882 -19.8937
   -13.3808 -12.2338 -11.9032 -10.8495 -10.4257 -10.2286  -9.8305  -8.7231
    -8.6268  -8.3086  -8.0176  -7.4001  -6.0639

     occupation numbers 
     1.0000   1.0000   1.0000   1.0000   1.0000   1.0000   1.0000   1.0000
     1.0000   1.0000   1.0000   1.0000   1.0000   1.0000   1.0000   1.0000
     1.0000   1.0000   1.0000   1.0000   1.0000

          k = 0.0909 0.3674 0.0000 ( 15001 PWs)   bands (ev):

   -77.8057 -49.2188 -49.0955 -48.9377 -22.7086 -22.6410 -20.6293 -19.7360
   -14.0106 -13.6349 -12.2834 -11.0500 -10.7843 -10.5943 -10.3413  -9.2362
    -8.4854  -8.2243  -8.0190  -7.5475  -6.2949

     occupation numbers 
     1.0000   1.0000   1.0000   1.0000   1.0000   1.0000   1.0000   1.0000
     1.0000   1.0000   1.0000   1.0000   1.0000   1.0000   1.0000   1.0000
     1.0000   1.0000   1.0000   1.0000   1.0000

          k = 0.0909 0.4724 0.0000 ( 15030 PWs)   bands (ev):

   -77.7995 -49.2651 -49.1094 -48.9287 -21.9953 -21.9376 -20.4107 -19.6916
   -14.9884 -14.7185 -12.1251 -11.4399 -11.0505 -10.8036 -10.6424  -9.4374
    -8.6753  -8.1235  -7.8721  -7.5078  -6.2715

     occupation numbers 
     1.0000   1.0000   1.0000   1.0000   1.0000   1.0000   1.0000   1.0000
     1.0000   1.0000   1.0000   1.0000   1.0000   1.0000   1.0000   1.0000
     1.0000   1.0000   1.0000   1.0000   1.0000

          k = 0.0909 0.5774 0.0000 ( 15006 PWs)   bands (ev):

   -77.7971 -49.2823 -49.1145 -48.9254 -21.6400 -21.5866 -20.3839 -19.7302
   -15.3984 -15.1335 -12.0262 -11.6123 -11.0918 -11.0282 -10.7240  -9.3892
    -8.8624  -8.0075  -7.8043  -7.4765  -6.2099

     occupation numbers 
     1.0000   1.0000   1.0000   1.0000   1.0000   1.0000   1.0000   1.0000
     1.0000   1.0000   1.0000   1.0000   1.0000   1.0000   1.0000   1.0000
     1.0000   1.0000   1.0000   1.0000   1.0000

          k = 0.0909-0.4724 0.0000 ( 15030 PWs)   bands (ev):

   -77.7995 -49.2651 -49.1094 -48.9287 -21.9953 -21.9375 -20.4107 -19.6916
   -14.9885 -14.7185 -12.1251 -11.4399 -11.0503 -10.8037 -10.6427  -9.4367
    -8.6758  -8.1236  -7.8723  -7.5078  -6.2712

     occupation numbers 
     1.0000   1.0000   1.0000   1.0000   1.0000   1.0000   1.0000   1.0000
     1.0000   1.0000   1.0000   1.0000   1.0000   1.0000   1.0000   1.0000
     1.0000   1.0000   1.0000   1.0000   1.0000

          k = 0.0909-0.3674 0.0000 ( 15001 PWs)   bands (ev):

   -77.8057 -49.2188 -49.0955 -48.9377 -22.7086 -22.6410 -20.6293 -19.7360
   -14.0107 -13.6349 -12.2833 -11.0500 -10.7841 -10.5942 -10.3416  -9.2360
    -8.4853  -8.2245  -8.0193  -7.5478  -6.2946

     occupation numbers 
     1.0000   1.0000   1.0000   1.0000   1.0000   1.0000   1.0000   1.0000
     1.0000   1.0000   1.0000   1.0000   1.0000   1.0000   1.0000   1.0000
     1.0000   1.0000   1.0000   1.0000   1.0000

          k = 0.0909-0.2624 0.0000 ( 14987 PWs)   bands (ev):

   -77.8139 -49.1577 -49.0773 -48.9495 -23.4025 -23.3262 -20.9882 -19.8937
   -13.3809 -12.2339 -11.9033 -10.8494 -10.4255 -10.2284  -9.8307  -8.7231
    -8.6270  -8.3086  -8.0169  -7.4008  -6.0636

     occupation numbers 
     1.0000   1.0000   1.0000   1.0000   1.0000   1.0000   1.0000   1.0000
     1.0000   1.0000   1.0000   1.0000   1.0000   1.0000   1.0000   1.0000
     1.0000   1.0000   1.0000   1.0000   1.0000

          k = 0.0909-0.1575 0.0000 ( 15029 PWs)   bands (ev):

   -77.8214 -49.1010 -49.0607 -48.9603 -23.9179 -23.8350 -21.3220 -20.0621
   -13.5442 -11.1098 -10.7942 -10.7369  -9.8116  -9.7039  -9.3534  -8.9126
    -8.5797  -8.0361  -7.8819  -7.2297  -5.6831

     occupation numbers 
     1.0000   1.0000   1.0000   1.0000   1.0000   1.0000   1.0000   1.0000
     1.0000   1.0000   1.0000   1.0000   1.0000   1.0000   1.0000   1.0000
     1.0000   1.0000   1.0000   1.0000   1.0000

          k = 0.0909-0.0525 0.0000 ( 15059 PWs)   bands (ev):

   -77.8259 -49.0665 -49.0514 -48.9667 -24.1884 -24.1018 -21.5159 -20.1641
   -13.7271 -11.1340  -9.9431  -9.8700  -9.4068  -9.3635  -9.1157  -9.0261
    -8.7220  -7.7455  -7.6558  -7.2366  -5.4399

     occupation numbers 
     1.0000   1.0000   1.0000   1.0000   1.0000   1.0000   1.0000   1.0000
     1.0000   1.0000   1.0000   1.0000   1.0000   1.0000   1.0000   1.0000
     1.0000   1.0000   1.0000   1.0000   1.0000

          k = 0.1818 0.1050 0.0000 ( 15035 PWs)   bands (ev):

   -77.8194 -49.1183 -49.0633 -48.9574 -23.7858 -23.7046 -21.2321 -20.0160
   -13.4756 -11.3851 -11.2095 -10.9126  -9.7367  -9.7052  -9.6560  -8.8507
    -8.4718  -8.1288  -7.9854  -7.3206  -5.8002

     occupation numbers 
     1.0000   1.0000   1.0000   1.0000   1.0000   1.0000   1.0000   1.0000
     1.0000   1.0000   1.0000   1.0000   1.0000   1.0000   1.0000   1.0000
     1.0000   1.0000   1.0000   1.0000   1.0000

          k = 0.1818 0.2099 0.0000 ( 14987 PWs)   bands (ev):

   -77.8139 -49.1577 -49.0774 -48.9495 -23.4025 -23.3262 -20.9882 -19.8937
   -13.3808 -12.2338 -11.9032 -10.8495 -10.4257 -10.2286  -9.8305  -8.7231
    -8.6268  -8.3086  -8.0176  -7.4001  -6.0639

     occupation numbers 
     1.0000   1.0000   1.0000   1.0000   1.0000   1.0000   1.0000   1.0000
     1.0000   1.0000   1.0000   1.0000   1.0000   1.0000   1.0000   1.0000
     1.0000   1.0000   1.0000   1.0000   1.0000

          k = 0.1818 0.3149 0.0000 ( 15012 PWs)   bands (ev):

   -77.8067 -49.2027 -49.1020 -48.9392 -22.8129 -22.7439 -20.6709 -19.7464
   -13.7014 -13.2060 -12.1826 -11.3253 -11.1691 -10.6183 -10.1766  -9.3656
    -8.4928  -8.2823  -7.8619  -7.6079  -6.2955

     occupation numbers 
     1.0000   1.0000   1.0000   1.0000   1.0000   1.0000   1.0000   1.0000
     1.0000   1.0000   1.0000   1.0000   1.0000   1.0000   1.0000   1.0000
     1.0000   1.0000   1.0000   1.0000   1.0000

          k = 0.1818 0.4199 0.0000 ( 15012 PWs)   bands (ev):

   -77.8001 -49.2407 -49.1277 -48.9297 -22.1216 -22.0614 -20.4132 -19.6583
   -14.4510 -14.1414 -12.1872 -11.9576 -11.7687 -10.6188 -10.5071  -9.7558
    -8.5244  -8.3824  -7.9485  -7.5454  -6.2928

     occupation numbers 
     1.0000   1.0000   1.0000   1.0000   1.0000   1.0000   1.0000   1.0000
     1.0000   1.0000   1.0000   1.0000   1.0000   1.0000   1.0000   1.0000
     1.0000   1.0000   1.0000   1.0000   1.0000

          k = 0.1818 0.5249 0.0000 ( 15036 PWs)   bands (ev):

   -77.7962 -49.2623 -49.1439 -48.9241 -21.5688 -21.5149 -20.3334 -19.6795
   -15.0327 -14.7585 -12.4657 -12.2975 -11.5492 -10.9994 -10.7394  -9.5723
    -8.8694  -8.5231  -7.8943  -7.3824  -6.1430

     occupation numbers 
     1.0000   1.0000   1.0000   1.0000   1.0000   1.0000   1.0000   1.0000
     1.0000   1.0000   1.0000   1.0000   1.0000   1.0000   1.0000   1.0000
     1.0000   1.0000   1.0000   1.0000   1.0000

          k = 0.1818 0.6298 0.0000 ( 15036 PWs)   bands (ev):

   -77.7962 -49.2623 -49.1439 -48.9241 -21.5688 -21.5149 -20.3335 -19.6795
   -15.0328 -14.7585 -12.4656 -12.2975 -11.5492 -10.9995 -10.7397  -9.5717
    -8.8697  -8.5231  -7.8947  -7.3823  -6.1429

     occupation numbers 
     1.0000   1.0000   1.0000   1.0000   1.0000   1.0000   1.0000   1.0000
     1.0000   1.0000   1.0000   1.0000   1.0000   1.0000   1.0000   1.0000
     1.0000   1.0000   1.0000   1.0000   1.0000

          k = 0.1818-0.4199 0.0000 ( 15012 PWs)   bands (ev):

   -77.8001 -49.2408 -49.1277 -48.9297 -22.1216 -22.0613 -20.4133 -19.6583
   -14.4511 -14.1414 -12.1870 -11.9575 -11.7686 -10.6190 -10.5075  -9.7551
    -8.5243  -8.3823  -7.9496  -7.5453  -6.2923

     occupation numbers 
     1.0000   1.0000   1.0000   1.0000   1.0000   1.0000   1.0000   1.0000
     1.0000   1.0000   1.0000   1.0000   1.0000   1.0000   1.0000   1.0000
     1.0000   1.0000   1.0000   1.0000   1.0000

          k = 0.1818-0.3149 0.0000 ( 15012 PWs)   bands (ev):

   -77.8067 -49.2028 -49.1019 -48.9392 -22.8129 -22.7439 -20.6710 -19.7464
   -13.7016 -13.2060 -12.1826 -11.3250 -11.1689 -10.6181 -10.1770  -9.3656
    -8.4928  -8.2821  -7.8618  -7.6088  -6.2950

     occupation numbers 
     1.0000   1.0000   1.0000   1.0000   1.0000   1.0000   1.0000   1.0000
     1.0000   1.0000   1.0000   1.0000   1.0000   1.0000   1.0000   1.0000
     1.0000   1.0000   1.0000   1.0000   1.0000

          k = 0.1818-0.2099 0.0000 ( 14987 PWs)   bands (ev):

   -77.8139 -49.1577 -49.0773 -48.9495 -23.4025 -23.3262 -20.9883 -19.8937
   -13.3810 -12.2340 -11.9033 -10.8493 -10.4254 -10.2283  -9.8307  -8.7230
    -8.6271  -8.3086  -8.0172  -7.4009  -6.0634

     occupation numbers 
     1.0000   1.0000   1.0000   1.0000   1.0000   1.0000   1.0000   1.0000
     1.0000   1.0000   1.0000   1.0000   1.0000   1.0000   1.0000   1.0000
     1.0000   1.0000   1.0000   1.0000   1.0000

          k = 0.1818-0.1050 0.0000 ( 15035 PWs)   bands (ev):

   -77.8194 -49.1184 -49.0633 -48.9574 -23.7858 -23.7046 -21.2321 -20.0160
   -13.4757 -11.3852 -11.2097 -10.9125  -9.7360  -9.7054  -9.6562  -8.8507
    -8.4716  -8.1279  -7.9863  -7.3209  -5.7999

     occupation numbers 
     1.0000   1.0000   1.0000   1.0000   1.0000   1.0000   1.0000   1.0000
     1.0000   1.0000   1.0000   1.0000   1.0000   1.0000   1.0000   1.0000
     1.0000   1.0000   1.0000   1.0000   1.0000

          k = 0.1818-0.0000 0.0000 ( 15029 PWs)   bands (ev):

   -77.8214 -49.1010 -49.0607 -48.9603 -23.9179 -23.8350 -21.3220 -20.0621
   -13.5442 -11.1098 -10.7942 -10.7369  -9.8116  -9.7039  -9.3534  -8.9126
    -8.5797  -8.0361  -7.8819  -7.2297  -5.6831

     occupation numbers 
     1.0000   1.0000   1.0000   1.0000   1.0000   1.0000   1.0000   1.0000
     1.0000   1.0000   1.0000   1.0000   1.0000   1.0000   1.0000   1.0000
     1.0000   1.0000   1.0000   1.0000   1.0000

          k = 0.2727 0.1575 0.0000 ( 14973 PWs)   bands (ev):

   -77.8109 -49.1858 -49.0788 -48.9451 -23.1608 -23.0876 -20.8520 -19.8318
   -13.5544 -12.9209 -12.2757 -10.8426 -10.3061 -10.1306 -10.0969  -8.7307
    -8.5290  -8.3729  -8.1024  -7.4941  -6.1752

     occupation numbers 
     1.0000   1.0000   1.0000   1.0000   1.0000   1.0000   1.0000   1.0000
     1.0000   1.0000   1.0000   1.0000   1.0000   1.0000   1.0000   1.0000
     1.0000   1.0000   1.0000   1.0000   1.0000

          k = 0.2727 0.2624 0.0000 ( 15001 PWs)   bands (ev):

   -77.8057 -49.2188 -49.0955 -48.9377 -22.7086 -22.6410 -20.6293 -19.7360
   -14.0106 -13.6349 -12.2834 -11.0500 -10.7843 -10.5943 -10.3413  -9.2362
    -8.4854  -8.2243  -8.0190  -7.5475  -6.2949

     occupation numbers 
     1.0000   1.0000   1.0000   1.0000   1.0000   1.0000   1.0000   1.0000
     1.0000   1.0000   1.0000   1.0000   1.0000   1.0000   1.0000   1.0000
     1.0000   1.0000   1.0000   1.0000   1.0000

          k = 0.2727 0.3674 0.0000 ( 15012 PWs)   bands (ev):

   -77.8001 -49.2407 -49.1277 -48.9297 -22.1216 -22.0614 -20.4132 -19.6583
   -14.4510 -14.1414 -12.1872 -11.9576 -11.7687 -10.6188 -10.5071  -9.7558
    -8.5244  -8.3824  -7.9485  -7.5454  -6.2928

     occupation numbers 
     1.0000   1.0000   1.0000   1.0000   1.0000   1.0000   1.0000   1.0000
     1.0000   1.0000   1.0000   1.0000   1.0000   1.0000   1.0000   1.0000
     1.0000   1.0000   1.0000   1.0000   1.0000

          k = 0.2727 0.4724 0.0000 ( 14996 PWs)   bands (ev):

   -77.7959 -49.2451 -49.1647 -48.9236 -21.5558 -21.5016 -20.3058 -19.6480
   -14.6794 -14.3708 -13.0320 -12.8972 -11.5976 -10.7941 -10.5906  -9.7557
    -9.1565  -8.5928  -7.9071  -7.3631  -6.1141

     occupation numbers 
     1.0000   1.0000   1.0000   1.0000   1.0000   1.0000   1.0000   1.0000
     1.0000   1.0000   1.0000   1.0000   1.0000   1.0000   1.0000   1.0000
     1.0000   1.0000   1.0000   1.0000   1.0000

          k = 0.2727 0.5774 0.0000 ( 15020 PWs)   bands (ev):

   -77.7943 -49.2405 -49.1846 -48.9213 -21.2962 -21.2394 -20.3039 -19.6709
   -14.7178 -14.3967 -13.4380 -13.3466 -11.3248 -10.9558 -10.6424  -9.7329
    -9.3077  -8.8901  -7.8427  -7.2664  -5.9810

     occupation numbers 
     1.0000   1.0000   1.0000   1.0000   1.0000   1.0000   1.0000   1.0000
     1.0000   1.0000   1.0000   1.0000   1.0000   1.0000   1.0000   1.0000
     1.0000   1.0000   1.0000   1.0000   1.0000

          k = 0.2727 0.6823 0.0000 ( 14996 PWs)   bands (ev):

   -77.7959 -49.2451 -49.1647 -48.9236 -21.5557 -21.5015 -20.3060 -19.6481
   -14.6796 -14.3707 -13.0317 -12.8972 -11.5977 -10.7945 -10.5909  -9.7551
    -9.1561  -8.5931  -7.9079  -7.3630  -6.1138

     occupation numbers 
     1.0000   1.0000   1.0000   1.0000   1.0000   1.0000   1.0000   1.0000
     1.0000   1.0000   1.0000   1.0000   1.0000   1.0000   1.0000   1.0000
     1.0000   1.0000   1.0000   1.0000   1.0000

          k = 0.2727-0.3674 0.0000 ( 15012 PWs)   bands (ev):

   -77.8001 -49.2408 -49.1276 -48.9297 -22.1215 -22.0613 -20.4134 -19.6583
   -14.4512 -14.1413 -12.1870 -11.9574 -11.7687 -10.6191 -10.5071  -9.7554
    -8.5241  -8.3824  -7.9497  -7.5454  -6.2923

     occupation numbers 
     1.0000   1.0000   1.0000   1.0000   1.0000   1.0000   1.0000   1.0000
     1.0000   1.0000   1.0000   1.0000   1.0000   1.0000   1.0000   1.0000
     1.0000   1.0000   1.0000   1.0000   1.0000

          k = 0.2727-0.2624 0.0000 ( 15001 PWs)   bands (ev):

   -77.8057 -49.2188 -49.0955 -48.9377 -22.7086 -22.6410 -20.6295 -19.7360
   -14.0109 -13.6349 -12.2834 -11.0499 -10.7842 -10.5939 -10.3415  -9.2362
    -8.4854  -8.2246  -8.0192  -7.5479  -6.2943

     occupation numbers 
     1.0000   1.0000   1.0000   1.0000   1.0000   1.0000   1.0000   1.0000
     1.0000   1.0000   1.0000   1.0000   1.0000   1.0000   1.0000   1.0000
     1.0000   1.0000   1.0000   1.0000   1.0000

          k = 0.2727-0.1575 0.0000 ( 14973 PWs)   bands (ev):

   -77.8109 -49.1858 -49.0788 -48.9451 -23.1608 -23.0876 -20.8521 -19.8318
   -13.5546 -12.9209 -12.2758 -10.8424 -10.3062 -10.1299 -10.0971  -8.7302
    -8.5291  -8.3736  -8.1024  -7.4944  -6.1748

     occupation numbers 
     1.0000   1.0000   1.0000   1.0000   1.0000   1.0000   1.0000   1.0000
     1.0000   1.0000   1.0000   1.0000   1.0000   1.0000   1.0000   1.0000
     1.0000   1.0000   1.0000   1.0000   1.0000

          k = 0.2727-0.0525 0.0000 ( 14987 PWs)   bands (ev):

   -77.8139 -49.1577 -49.0773 -48.9495 -23.4025 -23.3262 -20.9883 -19.8937
   -13.3810 -12.2340 -11.9033 -10.8493 -10.4254 -10.2283  -9.8307  -8.7230
    -8.6271  -8.3086  -8.0172  -7.4009  -6.0634

     occupation numbers 
     1.0000   1.0000   1.0000   1.0000   1.0000   1.0000   1.0000   1.0000
     1.0000   1.0000   1.0000   1.0000   1.0000   1.0000   1.0000   1.0000
     1.0000   1.0000   1.0000   1.0000   1.0000

          k = 0.2727 0.0525 0.0000 ( 14987 PWs)   bands (ev):

   -77.8139 -49.1577 -49.0773 -48.9495 -23.4025 -23.3262 -20.9882 -19.8937
   -13.3809 -12.2339 -11.9033 -10.8494 -10.4255 -10.2284  -9.8307  -8.7231
    -8.6270  -8.3086  -8.0169  -7.4008  -6.0636

     occupation numbers 
     1.0000   1.0000   1.0000   1.0000   1.0000   1.0000   1.0000   1.0000
     1.0000   1.0000   1.0000   1.0000   1.0000   1.0000   1.0000   1.0000
     1.0000   1.0000   1.0000   1.0000   1.0000

          k = 0.3636 0.2099 0.0000 ( 14988 PWs)   bands (ev):

   -77.8030 -49.2472 -49.0930 -48.9338 -22.4149 -22.3514 -20.5254 -19.7125
   -14.5861 -14.2949 -12.2623 -11.0949 -10.6435 -10.4581 -10.4169  -9.1347
    -8.6745  -8.3025  -7.7471  -7.5750  -6.2993

     occupation numbers 
     1.0000   1.0000   1.0000   1.0000   1.0000   1.0000   1.0000   1.0000
     1.0000   1.0000   1.0000   1.0000   1.0000   1.0000   1.0000   1.0000
     1.0000   1.0000   1.0000   1.0000   1.0000

          k = 0.3636 0.3149 0.0000 ( 15030 PWs)   bands (ev):

   -77.7995 -49.2651 -49.1094 -48.9287 -21.9953 -21.9376 -20.4106 -19.6916
   -14.9884 -14.7185 -12.1251 -11.4399 -11.0505 -10.8036 -10.6424  -9.4374
    -8.6753  -8.1235  -7.8721  -7.5078  -6.2715

     occupation numbers 
     1.0000   1.0000   1.0000   1.0000   1.0000   1.0000   1.0000   1.0000
     1.0000   1.0000   1.0000   1.0000   1.0000   1.0000   1.0000   1.0000
     1.0000   1.0000   1.0000   1.0000   1.0000

          k = 0.3636 0.4199 0.0000 ( 15036 PWs)   bands (ev):

   -77.7962 -49.2623 -49.1439 -48.9241 -21.5688 -21.5149 -20.3334 -19.6795
   -15.0327 -14.7585 -12.4657 -12.2975 -11.5492 -10.9994 -10.7394  -9.5723
    -8.8694  -8.5231  -7.8943  -7.3824  -6.1431

     occupation numbers 
     1.0000   1.0000   1.0000   1.0000   1.0000   1.0000   1.0000   1.0000
     1.0000   1.0000   1.0000   1.0000   1.0000   1.0000   1.0000   1.0000
     1.0000   1.0000   1.0000   1.0000   1.0000

          k = 0.3636 0.5249 0.0000 ( 15020 PWs)   bands (ev):

   -77.7943 -49.2405 -49.1846 -48.9213 -21.2962 -21.2394 -20.3039 -19.6709
   -14.7178 -14.3967 -13.4380 -13.3466 -11.3248 -10.9558 -10.6424  -9.7329
    -9.3077  -8.8901  -7.8427  -7.2664  -5.9810

     occupation numbers 
     1.0000   1.0000   1.0000   1.0000   1.0000   1.0000   1.0000   1.0000
     1.0000   1.0000   1.0000   1.0000   1.0000   1.0000   1.0000   1.0000
     1.0000   1.0000   1.0000   1.0000   1.0000

          k = 0.3636 0.6298 0.0000 ( 15020 PWs)   bands (ev):

   -77.7943 -49.2405 -49.1846 -48.9213 -21.2961 -21.2393 -20.3040 -19.6710
   -14.7179 -14.3966 -13.4378 -13.3466 -11.3249 -10.9558 -10.6426  -9.7328
    -9.3071  -8.8905  -7.8430  -7.2664  -5.9809

     occupation numbers 
     1.0000   1.0000   1.0000   1.0000   1.0000   1.0000   1.0000   1.0000
     1.0000   1.0000   1.0000   1.0000   1.0000   1.0000   1.0000   1.0000
     1.0000   1.0000   1.0000   1.0000   1.0000

          k = 0.3636 0.7348 0.0000 ( 15036 PWs)   bands (ev):

   -77.7962 -49.2623 -49.1439 -48.9241 -21.5687 -21.5147 -20.3338 -19.6796
   -15.0329 -14.7583 -12.4655 -12.2974 -11.5494 -10.9995 -10.7395  -9.5717
    -8.8693  -8.5234  -7.8950  -7.3824  -6.1428

     occupation numbers 
     1.0000   1.0000   1.0000   1.0000   1.0000   1.0000   1.0000   1.0000
     1.0000   1.0000   1.0000   1.0000   1.0000   1.0000   1.0000   1.0000
     1.0000   1.0000   1.0000   1.0000   1.0000

          k = 0.3636-0.3149 0.0000 ( 15030 PWs)   bands (ev):

   -77.7995 -49.2651 -49.1093 -48.9288 -21.9952 -21.9374 -20.4110 -19.6917
   -14.9886 -14.7183 -12.1253 -11.4398 -11.0503 -10.8036 -10.6422  -9.4370
    -8.6758  -8.1237  -7.8725  -7.5081  -6.2710

     occupation numbers 
     1.0000   1.0000   1.0000   1.0000   1.0000   1.0000   1.0000   1.0000
     1.0000   1.0000   1.0000   1.0000   1.0000   1.0000   1.0000   1.0000
     1.0000   1.0000   1.0000   1.0000   1.0000

          k = 0.3636-0.2099 0.0000 ( 14988 PWs)   bands (ev):

   -77.8030 -49.2473 -49.0930 -48.9338 -22.4148 -22.3514 -20.5256 -19.7125
   -14.5863 -14.2948 -12.2624 -11.0949 -10.6431 -10.4576 -10.4170  -9.1344
    -8.6751  -8.3026  -7.7473  -7.5752  -6.2988

     occupation numbers 
     1.0000   1.0000   1.0000   1.0000   1.0000   1.0000   1.0000   1.0000
     1.0000   1.0000   1.0000   1.0000   1.0000   1.0000   1.0000   1.0000
     1.0000   1.0000   1.0000   1.0000   1.0000

          k = 0.3636-0.1050 0.0000 ( 15001 PWs)   bands (ev):

   -77.8057 -49.2188 -49.0955 -48.9377 -22.7086 -22.6410 -20.6294 -19.7360
   -14.0109 -13.6349 -12.2834 -11.0499 -10.7842 -10.5939 -10.3415  -9.2362
    -8.4854  -8.2246  -8.0192  -7.5479  -6.2943

     occupation numbers 
     1.0000   1.0000   1.0000   1.0000   1.0000   1.0000   1.0000   1.0000
     1.0000   1.0000   1.0000   1.0000   1.0000   1.0000   1.0000   1.0000
     1.0000   1.0000   1.0000   1.0000   1.0000

          k = 0.3636 0.0000 0.0000 ( 15012 PWs)   bands (ev):

   -77.8067 -49.2028 -49.1019 -48.9392 -22.8129 -22.7439 -20.6710 -19.7464
   -13.7016 -13.2060 -12.1826 -11.3250 -11.1689 -10.6181 -10.1770  -9.3656
    -8.4928  -8.2821  -7.8618  -7.6088  -6.2950

     occupation numbers 
     1.0000   1.0000   1.0000   1.0000   1.0000   1.0000   1.0000   1.0000
     1.0000   1.0000   1.0000   1.0000   1.0000   1.0000   1.0000   1.0000
     1.0000   1.0000   1.0000   1.0000   1.0000

          k = 0.3636 0.1050 0.0000 ( 15001 PWs)   bands (ev):

   -77.8057 -49.2188 -49.0955 -48.9377 -22.7086 -22.6410 -20.6293 -19.7360
   -14.0107 -13.6350 -12.2833 -11.0500 -10.7841 -10.5942 -10.3416  -9.2360
    -8.4853  -8.2245  -8.0193  -7.5478  -6.2946

     occupation numbers 
     1.0000   1.0000   1.0000   1.0000   1.0000   1.0000   1.0000   1.0000
     1.0000   1.0000   1.0000   1.0000   1.0000   1.0000   1.0000   1.0000
     1.0000   1.0000   1.0000   1.0000   1.0000

          k = 0.4545 0.2624 0.0000 ( 15032 PWs)   bands (ev):

   -77.7984 -49.2835 -49.1014 -48.9271 -21.8017 -21.7472 -20.4075 -19.7318
   -15.3842 -15.1205 -12.0880 -11.4824 -10.7684 -10.6392 -10.5933  -9.2839
    -8.8422  -8.0673  -7.5916  -7.5161  -6.2619

     occupation numbers 
     1.0000   1.0000   1.0000   1.0000   1.0000   1.0000   1.0000   1.0000
     1.0000   1.0000   1.0000   1.0000   1.0000   1.0000   1.0000   1.0000
     1.0000   1.0000   1.0000   1.0000   1.0000

          k = 0.4545 0.3674 0.0000 ( 15006 PWs)   bands (ev):

   -77.7971 -49.2823 -49.1145 -48.9254 -21.6400 -21.5866 -20.3839 -19.7301
   -15.3984 -15.1335 -12.0262 -11.6123 -11.0918 -11.0282 -10.7240  -9.3892
    -8.8624  -8.0075  -7.8043  -7.4765  -6.2099

     occupation numbers 
     1.0000   1.0000   1.0000   1.0000   1.0000   1.0000   1.0000   1.0000
     1.0000   1.0000   1.0000   1.0000   1.0000   1.0000   1.0000   1.0000
     1.0000   1.0000   1.0000   1.0000   1.0000

          k = 0.4545 0.4724 0.0000 ( 15036 PWs)   bands (ev):

   -77.7962 -49.2623 -49.1439 -48.9241 -21.5688 -21.5149 -20.3335 -19.6795
   -15.0328 -14.7585 -12.4657 -12.2975 -11.5492 -10.9995 -10.7397  -9.5717
    -8.8697  -8.5231  -7.8947  -7.3823  -6.1429

     occupation numbers 
     1.0000   1.0000   1.0000   1.0000   1.0000   1.0000   1.0000   1.0000
     1.0000   1.0000   1.0000   1.0000   1.0000   1.0000   1.0000   1.0000
     1.0000   1.0000   1.0000   1.0000   1.0000

          k = 0.4545 0.5774 0.0000 ( 14996 PWs)   bands (ev):

   -77.7959 -49.2451 -49.1647 -48.9236 -21.5557 -21.5015 -20.3060 -19.6481
   -14.6796 -14.3707 -13.0317 -12.8972 -11.5977 -10.7945 -10.5909  -9.7551
    -9.1561  -8.5931  -7.9078  -7.3630  -6.1138

     occupation numbers 
     1.0000   1.0000   1.0000   1.0000   1.0000   1.0000   1.0000   1.0000
     1.0000   1.0000   1.0000   1.0000   1.0000   1.0000   1.0000   1.0000
     1.0000   1.0000   1.0000   1.0000   1.0000

          k = 0.4545 0.6823 0.0000 ( 15036 PWs)   bands (ev):

   -77.7962 -49.2623 -49.1439 -48.9241 -21.5687 -21.5147 -20.3338 -19.6796
   -15.0329 -14.7583 -12.4655 -12.2974 -11.5494 -10.9995 -10.7395  -9.5717
    -8.8693  -8.5234  -7.8950  -7.3824  -6.1428

     occupation numbers 
     1.0000   1.0000   1.0000   1.0000   1.0000   1.0000   1.0000   1.0000
     1.0000   1.0000   1.0000   1.0000   1.0000   1.0000   1.0000   1.0000
     1.0000   1.0000   1.0000   1.0000   1.0000

          k = 0.4545 0.7873 0.0000 ( 15006 PWs)   bands (ev):

   -77.7971 -49.2823 -49.1145 -48.9254 -21.6398 -21.5863 -20.3843 -19.7303
   -15.3985 -15.1333 -12.0266 -11.6122 -11.0916 -11.0282 -10.7238  -9.3889
    -8.8627  -8.0076  -7.8047  -7.4767  -6.2096

     occupation numbers 
     1.0000   1.0000   1.0000   1.0000   1.0000   1.0000   1.0000   1.0000
     1.0000   1.0000   1.0000   1.0000   1.0000   1.0000   1.0000   1.0000
     1.0000   1.0000   1.0000   1.0000   1.0000

          k = 0.4545-0.2624 0.0000 ( 15032 PWs)   bands (ev):

   -77.7984 -49.2836 -49.1014 -48.9271 -21.8015 -21.7470 -20.4079 -19.7320
   -15.3844 -15.1202 -12.0885 -11.4824 -10.7681 -10.6387 -10.5934  -9.2835
    -8.8427  -8.0674  -7.5921  -7.5164  -6.2615

     occupation numbers 
     1.0000   1.0000   1.0000   1.0000   1.0000   1.0000   1.0000   1.0000
     1.0000   1.0000   1.0000   1.0000   1.0000   1.0000   1.0000   1.0000
     1.0000   1.0000   1.0000   1.0000   1.0000

          k = 0.4545-0.1575 0.0000 ( 15030 PWs)   bands (ev):

   -77.7995 -49.2651 -49.1093 -48.9288 -21.9952 -21.9374 -20.4110 -19.6917
   -14.9886 -14.7183 -12.1253 -11.4398 -11.0503 -10.8036 -10.6422  -9.4370
    -8.6758  -8.1237  -7.8725  -7.5081  -6.2710

     occupation numbers 
     1.0000   1.0000   1.0000   1.0000   1.0000   1.0000   1.0000   1.0000
     1.0000   1.0000   1.0000   1.0000   1.0000   1.0000   1.0000   1.0000
     1.0000   1.0000   1.0000   1.0000   1.0000

          k = 0.4545-0.0525 0.0000 ( 15012 PWs)   bands (ev):

   -77.8001 -49.2408 -49.1276 -48.9297 -22.1215 -22.0613 -20.4134 -19.6583
   -14.4512 -14.1413 -12.1870 -11.9574 -11.7687 -10.6191 -10.5071  -9.7554
    -8.5241  -8.3824  -7.9497  -7.5454  -6.2923

     occupation numbers 
     1.0000   1.0000   1.0000   1.0000   1.0000   1.0000   1.0000   1.0000
     1.0000   1.0000   1.0000   1.0000   1.0000   1.0000   1.0000   1.0000
     1.0000   1.0000   1.0000   1.0000   1.0000

          k = 0.4545 0.0525 0.0000 ( 15012 PWs)   bands (ev):

   -77.8001 -49.2408 -49.1277 -48.9297 -22.1216 -22.0613 -20.4133 -19.6583
   -14.4511 -14.1414 -12.1870 -11.9575 -11.7686 -10.6190 -10.5075  -9.7551
    -8.5243  -8.3823  -7.9496  -7.5453  -6.2923

     occupation numbers 
     1.0000   1.0000   1.0000   1.0000   1.0000   1.0000   1.0000   1.0000
     1.0000   1.0000   1.0000   1.0000   1.0000   1.0000   1.0000   1.0000
     1.0000   1.0000   1.0000   1.0000   1.0000

          k = 0.4545 0.1575 0.0000 ( 15030 PWs)   bands (ev):

   -77.7995 -49.2651 -49.1094 -48.9287 -21.9953 -21.9375 -20.4107 -19.6916
   -14.9885 -14.7185 -12.1251 -11.4399 -11.0503 -10.8037 -10.6427  -9.4367
    -8.6758  -8.1236  -7.8723  -7.5078  -6.2712

     occupation numbers 
     1.0000   1.0000   1.0000   1.0000   1.0000   1.0000   1.0000   1.0000
     1.0000   1.0000   1.0000   1.0000   1.0000   1.0000   1.0000   1.0000
     1.0000   1.0000   1.0000   1.0000   1.0000

          k =-0.4545-0.2624 0.0000 ( 15032 PWs)   bands (ev):

   -77.7984 -49.2835 -49.1014 -48.9271 -21.8017 -21.7472 -20.4075 -19.7318
   -15.3842 -15.1205 -12.0880 -11.4824 -10.7684 -10.6392 -10.5933  -9.2839
    -8.8422  -8.0673  -7.5916  -7.5161  -6.2619

     occupation numbers 
     1.0000   1.0000   1.0000   1.0000   1.0000   1.0000   1.0000   1.0000
     1.0000   1.0000   1.0000   1.0000   1.0000   1.0000   1.0000   1.0000
     1.0000   1.0000   1.0000   1.0000   1.0000

          k =-0.4545-0.1575 0.0000 ( 15030 PWs)   bands (ev):

   -77.7995 -49.2651 -49.1094 -48.9287 -21.9953 -21.9375 -20.4107 -19.6916
   -14.9885 -14.7185 -12.1251 -11.4399 -11.0503 -10.8037 -10.6427  -9.4367
    -8.6758  -8.1236  -7.8723  -7.5078  -6.2712

     occupation numbers 
     1.0000   1.0000   1.0000   1.0000   1.0000   1.0000   1.0000   1.0000
     1.0000   1.0000   1.0000   1.0000   1.0000   1.0000   1.0000   1.0000
     1.0000   1.0000   1.0000   1.0000   1.0000

          k =-0.4545-0.0525 0.0000 ( 15012 PWs)   bands (ev):

   -77.8001 -49.2408 -49.1277 -48.9297 -22.1216 -22.0613 -20.4133 -19.6583
   -14.4511 -14.1414 -12.1870 -11.9575 -11.7686 -10.6190 -10.5075  -9.7551
    -8.5243  -8.3823  -7.9496  -7.5453  -6.2923

     occupation numbers 
     1.0000   1.0000   1.0000   1.0000   1.0000   1.0000   1.0000   1.0000
     1.0000   1.0000   1.0000   1.0000   1.0000   1.0000   1.0000   1.0000
     1.0000   1.0000   1.0000   1.0000   1.0000

          k =-0.4545 0.0525 0.0000 ( 15012 PWs)   bands (ev):

   -77.8001 -49.2408 -49.1276 -48.9297 -22.1215 -22.0613 -20.4134 -19.6583
   -14.4512 -14.1413 -12.1870 -11.9574 -11.7687 -10.6191 -10.5071  -9.7554
    -8.5241  -8.3824  -7.9497  -7.5454  -6.2923

     occupation numbers 
     1.0000   1.0000   1.0000   1.0000   1.0000   1.0000   1.0000   1.0000
     1.0000   1.0000   1.0000   1.0000   1.0000   1.0000   1.0000   1.0000
     1.0000   1.0000   1.0000   1.0000   1.0000

          k =-0.4545 0.1575 0.0000 ( 15030 PWs)   bands (ev):

   -77.7995 -49.2651 -49.1093 -48.9288 -21.9952 -21.9374 -20.4110 -19.6917
   -14.9886 -14.7183 -12.1253 -11.4398 -11.0503 -10.8036 -10.6422  -9.4370
    -8.6758  -8.1237  -7.8725  -7.5081  -6.2710

     occupation numbers 
     1.0000   1.0000   1.0000   1.0000   1.0000   1.0000   1.0000   1.0000
     1.0000   1.0000   1.0000   1.0000   1.0000   1.0000   1.0000   1.0000
     1.0000   1.0000   1.0000   1.0000   1.0000

          k =-0.4545 0.2624 0.0000 ( 15032 PWs)   bands (ev):

   -77.7984 -49.2836 -49.1014 -48.9271 -21.8015 -21.7470 -20.4079 -19.7320
   -15.3844 -15.1202 -12.0885 -11.4824 -10.7681 -10.6387 -10.5934  -9.2835
    -8.8427  -8.0674  -7.5921  -7.5164  -6.2615

     occupation numbers 
     1.0000   1.0000   1.0000   1.0000   1.0000   1.0000   1.0000   1.0000
     1.0000   1.0000   1.0000   1.0000   1.0000   1.0000   1.0000   1.0000
     1.0000   1.0000   1.0000   1.0000   1.0000

          k =-0.4545-0.7873 0.0000 ( 15006 PWs)   bands (ev):

   -77.7971 -49.2823 -49.1145 -48.9254 -21.6398 -21.5863 -20.3843 -19.7303
   -15.3985 -15.1333 -12.0266 -11.6122 -11.0916 -11.0282 -10.7238  -9.3889
    -8.8627  -8.0076  -7.8047  -7.4767  -6.2096

     occupation numbers 
     1.0000   1.0000   1.0000   1.0000   1.0000   1.0000   1.0000   1.0000
     1.0000   1.0000   1.0000   1.0000   1.0000   1.0000   1.0000   1.0000
     1.0000   1.0000   1.0000   1.0000   1.0000

          k =-0.4545-0.6823 0.0000 ( 15036 PWs)   bands (ev):

   -77.7962 -49.2623 -49.1439 -48.9241 -21.5687 -21.5147 -20.3338 -19.6796
   -15.0329 -14.7583 -12.4655 -12.2974 -11.5494 -10.9995 -10.7395  -9.5717
    -8.8693  -8.5234  -7.8950  -7.3824  -6.1428

     occupation numbers 
     1.0000   1.0000   1.0000   1.0000   1.0000   1.0000   1.0000   1.0000
     1.0000   1.0000   1.0000   1.0000   1.0000   1.0000   1.0000   1.0000
     1.0000   1.0000   1.0000   1.0000   1.0000

          k =-0.4545-0.5774 0.0000 ( 14996 PWs)   bands (ev):

   -77.7959 -49.2451 -49.1647 -48.9236 -21.5557 -21.5015 -20.3060 -19.6481
   -14.6796 -14.3707 -13.0317 -12.8972 -11.5977 -10.7945 -10.5909  -9.7551
    -9.1561  -8.5931  -7.9078  -7.3630  -6.1138

     occupation numbers 
     1.0000   1.0000   1.0000   1.0000   1.0000   1.0000   1.0000   1.0000
     1.0000   1.0000   1.0000   1.0000   1.0000   1.0000   1.0000   1.0000
     1.0000   1.0000   1.0000   1.0000   1.0000

          k =-0.4545-0.4724 0.0000 ( 15036 PWs)   bands (ev):

   -77.7962 -49.2623 -49.1439 -48.9241 -21.5688 -21.5149 -20.3335 -19.6795
   -15.0328 -14.7585 -12.4657 -12.2975 -11.5492 -10.9995 -10.7397  -9.5717
    -8.8697  -8.5231  -7.8947  -7.3823  -6.1429

     occupation numbers 
     1.0000   1.0000   1.0000   1.0000   1.0000   1.0000   1.0000   1.0000
     1.0000   1.0000   1.0000   1.0000   1.0000   1.0000   1.0000   1.0000
     1.0000   1.0000   1.0000   1.0000   1.0000

          k =-0.4545-0.3674 0.0000 ( 15006 PWs)   bands (ev):

   -77.7971 -49.2823 -49.1145 -48.9254 -21.6400 -21.5866 -20.3839 -19.7301
   -15.3984 -15.1335 -12.0262 -11.6123 -11.0918 -11.0282 -10.7240  -9.3892
    -8.8624  -8.0075  -7.8043  -7.4765  -6.2099

     occupation numbers 
     1.0000   1.0000   1.0000   1.0000   1.0000   1.0000   1.0000   1.0000
     1.0000   1.0000   1.0000   1.0000   1.0000   1.0000   1.0000   1.0000
     1.0000   1.0000   1.0000   1.0000   1.0000

          k =-0.3636-0.2099 0.0000 ( 14988 PWs)   bands (ev):

   -77.8030 -49.2472 -49.0930 -48.9338 -22.4149 -22.3514 -20.5254 -19.7125
   -14.5861 -14.2949 -12.2623 -11.0949 -10.6435 -10.4581 -10.4169  -9.1347
    -8.6745  -8.3025  -7.7471  -7.5750  -6.2993

     occupation numbers 
     1.0000   1.0000   1.0000   1.0000   1.0000   1.0000   1.0000   1.0000
     1.0000   1.0000   1.0000   1.0000   1.0000   1.0000   1.0000   1.0000
     1.0000   1.0000   1.0000   1.0000   1.0000

          k =-0.3636-0.1050 0.0000 ( 15001 PWs)   bands (ev):

   -77.8057 -49.2188 -49.0955 -48.9377 -22.7086 -22.6410 -20.6293 -19.7360
   -14.0107 -13.6350 -12.2833 -11.0500 -10.7841 -10.5942 -10.3416  -9.2360
    -8.4853  -8.2245  -8.0193  -7.5478  -6.2946

     occupation numbers 
     1.0000   1.0000   1.0000   1.0000   1.0000   1.0000   1.0000   1.0000
     1.0000   1.0000   1.0000   1.0000   1.0000   1.0000   1.0000   1.0000
     1.0000   1.0000   1.0000   1.0000   1.0000

          k =-0.3636 0.0000 0.0000 ( 15012 PWs)   bands (ev):

   -77.8067 -49.2028 -49.1019 -48.9392 -22.8129 -22.7439 -20.6710 -19.7464
   -13.7016 -13.2060 -12.1826 -11.3250 -11.1689 -10.6181 -10.1770  -9.3656
    -8.4928  -8.2821  -7.8618  -7.6088  -6.2950

     occupation numbers 
     1.0000   1.0000   1.0000   1.0000   1.0000   1.0000   1.0000   1.0000
     1.0000   1.0000   1.0000   1.0000   1.0000   1.0000   1.0000   1.0000
     1.0000   1.0000   1.0000   1.0000   1.0000

          k =-0.3636 0.1050 0.0000 ( 15001 PWs)   bands (ev):

   -77.8057 -49.2188 -49.0955 -48.9377 -22.7086 -22.6410 -20.6294 -19.7360
   -14.0109 -13.6349 -12.2834 -11.0499 -10.7842 -10.5939 -10.3415  -9.2362
    -8.4854  -8.2246  -8.0192  -7.5479  -6.2943

     occupation numbers 
     1.0000   1.0000   1.0000   1.0000   1.0000   1.0000   1.0000   1.0000
     1.0000   1.0000   1.0000   1.0000   1.0000   1.0000   1.0000   1.0000
     1.0000   1.0000   1.0000   1.0000   1.0000

          k =-0.3636 0.2099 0.0000 ( 14988 PWs)   bands (ev):

   -77.8030 -49.2473 -49.0930 -48.9338 -22.4148 -22.3514 -20.5256 -19.7125
   -14.5863 -14.2948 -12.2624 -11.0949 -10.6431 -10.4576 -10.4170  -9.1344
    -8.6751  -8.3026  -7.7473  -7.5752  -6.2988

     occupation numbers 
     1.0000   1.0000   1.0000   1.0000   1.0000   1.0000   1.0000   1.0000
     1.0000   1.0000   1.0000   1.0000   1.0000   1.0000   1.0000   1.0000
     1.0000   1.0000   1.0000   1.0000   1.0000

          k =-0.3636 0.3149 0.0000 ( 15030 PWs)   bands (ev):

   -77.7995 -49.2651 -49.1093 -48.9288 -21.9952 -21.9374 -20.4110 -19.6917
   -14.9886 -14.7183 -12.1253 -11.4398 -11.0503 -10.8036 -10.6422  -9.4370
    -8.6758  -8.1237  -7.8725  -7.5081  -6.2710

     occupation numbers 
     1.0000   1.0000   1.0000   1.0000   1.0000   1.0000   1.0000   1.0000
     1.0000   1.0000   1.0000   1.0000   1.0000   1.0000   1.0000   1.0000
     1.0000   1.0000   1.0000   1.0000   1.0000

          k =-0.3636-0.7348 0.0000 ( 15036 PWs)   bands (ev):

   -77.7962 -49.2623 -49.1439 -48.9241 -21.5687 -21.5147 -20.3338 -19.6796
   -15.0329 -14.7583 -12.4655 -12.2974 -11.5494 -10.9995 -10.7395  -9.5717
    -8.8693  -8.5234  -7.8950  -7.3824  -6.1428

     occupation numbers 
     1.0000   1.0000   1.0000   1.0000   1.0000   1.0000   1.0000   1.0000
     1.0000   1.0000   1.0000   1.0000   1.0000   1.0000   1.0000   1.0000
     1.0000   1.0000   1.0000   1.0000   1.0000

          k =-0.3636-0.6298 0.0000 ( 15020 PWs)   bands (ev):

   -77.7943 -49.2405 -49.1846 -48.9213 -21.2961 -21.2393 -20.3040 -19.6710
   -14.7179 -14.3966 -13.4378 -13.3466 -11.3249 -10.9558 -10.6426  -9.7328
    -9.3071  -8.8905  -7.8430  -7.2664  -5.9809

     occupation numbers 
     1.0000   1.0000   1.0000   1.0000   1.0000   1.0000   1.0000   1.0000
     1.0000   1.0000   1.0000   1.0000   1.0000   1.0000   1.0000   1.0000
     1.0000   1.0000   1.0000   1.0000   1.0000

          k =-0.3636-0.5249 0.0000 ( 15020 PWs)   bands (ev):

   -77.7943 -49.2405 -49.1846 -48.9213 -21.2962 -21.2394 -20.3039 -19.6709
   -14.7178 -14.3967 -13.4380 -13.3466 -11.3248 -10.9558 -10.6424  -9.7329
    -9.3077  -8.8901  -7.8427  -7.2664  -5.9810

     occupation numbers 
     1.0000   1.0000   1.0000   1.0000   1.0000   1.0000   1.0000   1.0000
     1.0000   1.0000   1.0000   1.0000   1.0000   1.0000   1.0000   1.0000
     1.0000   1.0000   1.0000   1.0000   1.0000

          k =-0.3636-0.4199 0.0000 ( 15036 PWs)   bands (ev):

   -77.7962 -49.2623 -49.1439 -48.9241 -21.5688 -21.5149 -20.3334 -19.6795
   -15.0327 -14.7585 -12.4657 -12.2975 -11.5492 -10.9994 -10.7394  -9.5723
    -8.8694  -8.5231  -7.8943  -7.3824  -6.1431

     occupation numbers 
     1.0000   1.0000   1.0000   1.0000   1.0000   1.0000   1.0000   1.0000
     1.0000   1.0000   1.0000   1.0000   1.0000   1.0000   1.0000   1.0000
     1.0000   1.0000   1.0000   1.0000   1.0000

          k =-0.3636-0.3149 0.0000 ( 15030 PWs)   bands (ev):

   -77.7995 -49.2651 -49.1094 -48.9287 -21.9953 -21.9376 -20.4106 -19.6916
   -14.9884 -14.7185 -12.1251 -11.4399 -11.0505 -10.8036 -10.6424  -9.4374
    -8.6753  -8.1235  -7.8721  -7.5078  -6.2715

     occupation numbers 
     1.0000   1.0000   1.0000   1.0000   1.0000   1.0000   1.0000   1.0000
     1.0000   1.0000   1.0000   1.0000   1.0000   1.0000   1.0000   1.0000
     1.0000   1.0000   1.0000   1.0000   1.0000

          k =-0.2727-0.1575 0.0000 ( 14973 PWs)   bands (ev):

   -77.8109 -49.1858 -49.0788 -48.9451 -23.1608 -23.0876 -20.8520 -19.8318
   -13.5544 -12.9209 -12.2757 -10.8426 -10.3061 -10.1306 -10.0969  -8.7307
    -8.5290  -8.3729  -8.1024  -7.4941  -6.1752

     occupation numbers 
     1.0000   1.0000   1.0000   1.0000   1.0000   1.0000   1.0000   1.0000
     1.0000   1.0000   1.0000   1.0000   1.0000   1.0000   1.0000   1.0000
     1.0000   1.0000   1.0000   1.0000   1.0000

          k =-0.2727-0.0525 0.0000 ( 14987 PWs)   bands (ev):

   -77.8139 -49.1577 -49.0773 -48.9495 -23.4025 -23.3262 -20.9882 -19.8937
   -13.3809 -12.2339 -11.9033 -10.8494 -10.4255 -10.2284  -9.8307  -8.7231
    -8.6270  -8.3086  -8.0169  -7.4008  -6.0636

     occupation numbers 
     1.0000   1.0000   1.0000   1.0000   1.0000   1.0000   1.0000   1.0000
     1.0000   1.0000   1.0000   1.0000   1.0000   1.0000   1.0000   1.0000
     1.0000   1.0000   1.0000   1.0000   1.0000

          k =-0.2727 0.0525 0.0000 ( 14987 PWs)   bands (ev):

   -77.8139 -49.1577 -49.0773 -48.9495 -23.4025 -23.3262 -20.9883 -19.8937
   -13.3810 -12.2340 -11.9033 -10.8493 -10.4254 -10.2283  -9.8307  -8.7230
    -8.6271  -8.3086  -8.0172  -7.4009  -6.0634

     occupation numbers 
     1.0000   1.0000   1.0000   1.0000   1.0000   1.0000   1.0000   1.0000
     1.0000   1.0000   1.0000   1.0000   1.0000   1.0000   1.0000   1.0000
     1.0000   1.0000   1.0000   1.0000   1.0000

          k =-0.2727 0.1575 0.0000 ( 14973 PWs)   bands (ev):

   -77.8109 -49.1858 -49.0788 -48.9451 -23.1608 -23.0876 -20.8521 -19.8318
   -13.5546 -12.9209 -12.2758 -10.8424 -10.3062 -10.1299 -10.0971  -8.7302
    -8.5291  -8.3736  -8.1024  -7.4944  -6.1748

     occupation numbers 
     1.0000   1.0000   1.0000   1.0000   1.0000   1.0000   1.0000   1.0000
     1.0000   1.0000   1.0000   1.0000   1.0000   1.0000   1.0000   1.0000
     1.0000   1.0000   1.0000   1.0000   1.0000

          k =-0.2727 0.2624 0.0000 ( 15001 PWs)   bands (ev):

   -77.8057 -49.2188 -49.0955 -48.9377 -22.7086 -22.6410 -20.6295 -19.7360
   -14.0109 -13.6349 -12.2834 -11.0499 -10.7842 -10.5939 -10.3415  -9.2362
    -8.4854  -8.2246  -8.0192  -7.5479  -6.2943

     occupation numbers 
     1.0000   1.0000   1.0000   1.0000   1.0000   1.0000   1.0000   1.0000
     1.0000   1.0000   1.0000   1.0000   1.0000   1.0000   1.0000   1.0000
     1.0000   1.0000   1.0000   1.0000   1.0000

          k =-0.2727 0.3674 0.0000 ( 15012 PWs)   bands (ev):

   -77.8001 -49.2408 -49.1276 -48.9297 -22.1215 -22.0613 -20.4134 -19.6583
   -14.4512 -14.1413 -12.1870 -11.9574 -11.7687 -10.6191 -10.5071  -9.7554
    -8.5241  -8.3824  -7.9497  -7.5454  -6.2923

     occupation numbers 
     1.0000   1.0000   1.0000   1.0000   1.0000   1.0000   1.0000   1.0000
     1.0000   1.0000   1.0000   1.0000   1.0000   1.0000   1.0000   1.0000
     1.0000   1.0000   1.0000   1.0000   1.0000

          k =-0.2727-0.6823 0.0000 ( 14996 PWs)   bands (ev):

   -77.7959 -49.2451 -49.1647 -48.9236 -21.5557 -21.5015 -20.3060 -19.6481
   -14.6796 -14.3707 -13.0317 -12.8972 -11.5977 -10.7945 -10.5909  -9.7551
    -9.1561  -8.5931  -7.9079  -7.3630  -6.1138

     occupation numbers 
     1.0000   1.0000   1.0000   1.0000   1.0000   1.0000   1.0000   1.0000
     1.0000   1.0000   1.0000   1.0000   1.0000   1.0000   1.0000   1.0000
     1.0000   1.0000   1.0000   1.0000   1.0000

          k =-0.2727-0.5774 0.0000 ( 15020 PWs)   bands (ev):

   -77.7943 -49.2405 -49.1846 -48.9213 -21.2962 -21.2394 -20.3039 -19.6709
   -14.7178 -14.3967 -13.4380 -13.3466 -11.3248 -10.9558 -10.6424  -9.7329
    -9.3077  -8.8901  -7.8427  -7.2664  -5.9810

     occupation numbers 
     1.0000   1.0000   1.0000   1.0000   1.0000   1.0000   1.0000   1.0000
     1.0000   1.0000   1.0000   1.0000   1.0000   1.0000   1.0000   1.0000
     1.0000   1.0000   1.0000   1.0000   1.0000

          k =-0.2727-0.4724 0.0000 ( 14996 PWs)   bands (ev):

   -77.7959 -49.2451 -49.1647 -48.9236 -21.5558 -21.5016 -20.3058 -19.6480
   -14.6794 -14.3708 -13.0320 -12.8972 -11.5976 -10.7941 -10.5906  -9.7557
    -9.1565  -8.5928  -7.9071  -7.3631  -6.1141

     occupation numbers 
     1.0000   1.0000   1.0000   1.0000   1.0000   1.0000   1.0000   1.0000
     1.0000   1.0000   1.0000   1.0000   1.0000   1.0000   1.0000   1.0000
     1.0000   1.0000   1.0000   1.0000   1.0000

          k =-0.2727-0.3674 0.0000 ( 15012 PWs)   bands (ev):

   -77.8001 -49.2407 -49.1277 -48.9297 -22.1216 -22.0614 -20.4132 -19.6583
   -14.4510 -14.1414 -12.1872 -11.9576 -11.7687 -10.6188 -10.5071  -9.7558
    -8.5244  -8.3824  -7.9485  -7.5454  -6.2928

     occupation numbers 
     1.0000   1.0000   1.0000   1.0000   1.0000   1.0000   1.0000   1.0000
     1.0000   1.0000   1.0000   1.0000   1.0000   1.0000   1.0000   1.0000
     1.0000   1.0000   1.0000   1.0000   1.0000

          k =-0.2727-0.2624 0.0000 ( 15001 PWs)   bands (ev):

   -77.8057 -49.2188 -49.0955 -48.9377 -22.7086 -22.6410 -20.6293 -19.7360
   -14.0106 -13.6349 -12.2834 -11.0500 -10.7843 -10.5943 -10.3413  -9.2362
    -8.4854  -8.2243  -8.0190  -7.5475  -6.2949

     occupation numbers 
     1.0000   1.0000   1.0000   1.0000   1.0000   1.0000   1.0000   1.0000
     1.0000   1.0000   1.0000   1.0000   1.0000   1.0000   1.0000   1.0000
     1.0000   1.0000   1.0000   1.0000   1.0000

          k =-0.1818-0.1050 0.0000 ( 15035 PWs)   bands (ev):

   -77.8194 -49.1183 -49.0633 -48.9574 -23.7858 -23.7046 -21.2321 -20.0160
   -13.4756 -11.3851 -11.2095 -10.9126  -9.7367  -9.7052  -9.6560  -8.8507
    -8.4718  -8.1288  -7.9854  -7.3206  -5.8002

     occupation numbers 
     1.0000   1.0000   1.0000   1.0000   1.0000   1.0000   1.0000   1.0000
     1.0000   1.0000   1.0000   1.0000   1.0000   1.0000   1.0000   1.0000
     1.0000   1.0000   1.0000   1.0000   1.0000

          k =-0.1818 0.0000 0.0000 ( 15029 PWs)   bands (ev):

   -77.8214 -49.1010 -49.0607 -48.9603 -23.9179 -23.8350 -21.3220 -20.0621
   -13.5442 -11.1098 -10.7942 -10.7369  -9.8116  -9.7039  -9.3534  -8.9126
    -8.5797  -8.0361  -7.8819  -7.2297  -5.6831

     occupation numbers 
     1.0000   1.0000   1.0000   1.0000   1.0000   1.0000   1.0000   1.0000
     1.0000   1.0000   1.0000   1.0000   1.0000   1.0000   1.0000   1.0000
     1.0000   1.0000   1.0000   1.0000   1.0000

          k =-0.1818 0.1050 0.0000 ( 15035 PWs)   bands (ev):

   -77.8194 -49.1184 -49.0633 -48.9574 -23.7858 -23.7046 -21.2321 -20.0160
   -13.4757 -11.3852 -11.2097 -10.9125  -9.7360  -9.7054  -9.6562  -8.8507
    -8.4716  -8.1279  -7.9863  -7.3209  -5.7999

     occupation numbers 
     1.0000   1.0000   1.0000   1.0000   1.0000   1.0000   1.0000   1.0000
     1.0000   1.0000   1.0000   1.0000   1.0000   1.0000   1.0000   1.0000
     1.0000   1.0000   1.0000   1.0000   1.0000

          k =-0.1818 0.2099 0.0000 ( 14987 PWs)   bands (ev):

   -77.8139 -49.1577 -49.0773 -48.9495 -23.4025 -23.3262 -20.9883 -19.8937
   -13.3810 -12.2340 -11.9033 -10.8493 -10.4254 -10.2283  -9.8307  -8.7230
    -8.6271  -8.3086  -8.0172  -7.4009  -6.0634

     occupation numbers 
     1.0000   1.0000   1.0000   1.0000   1.0000   1.0000   1.0000   1.0000
     1.0000   1.0000   1.0000   1.0000   1.0000   1.0000   1.0000   1.0000
     1.0000   1.0000   1.0000   1.0000   1.0000

          k =-0.1818 0.3149 0.0000 ( 15012 PWs)   bands (ev):

   -77.8067 -49.2028 -49.1019 -48.9392 -22.8129 -22.7439 -20.6710 -19.7464
   -13.7016 -13.2060 -12.1826 -11.3250 -11.1689 -10.6181 -10.1770  -9.3656
    -8.4928  -8.2821  -7.8618  -7.6088  -6.2950

     occupation numbers 
     1.0000   1.0000   1.0000   1.0000   1.0000   1.0000   1.0000   1.0000
     1.0000   1.0000   1.0000   1.0000   1.0000   1.0000   1.0000   1.0000
     1.0000   1.0000   1.0000   1.0000   1.0000

          k =-0.1818 0.4199 0.0000 ( 15012 PWs)   bands (ev):

   -77.8001 -49.2408 -49.1277 -48.9297 -22.1216 -22.0613 -20.4133 -19.6583
   -14.4511 -14.1414 -12.1870 -11.9575 -11.7686 -10.6190 -10.5075  -9.7551
    -8.5243  -8.3823  -7.9496  -7.5453  -6.2923

     occupation numbers 
     1.0000   1.0000   1.0000   1.0000   1.0000   1.0000   1.0000   1.0000
     1.0000   1.0000   1.0000   1.0000   1.0000   1.0000   1.0000   1.0000
     1.0000   1.0000   1.0000   1.0000   1.0000

          k =-0.1818-0.6298 0.0000 ( 15036 PWs)   bands (ev):

   -77.7962 -49.2623 -49.1439 -48.9241 -21.5688 -21.5149 -20.3335 -19.6795
   -15.0328 -14.7585 -12.4656 -12.2975 -11.5492 -10.9995 -10.7397  -9.5717
    -8.8697  -8.5231  -7.8947  -7.3823  -6.1429

     occupation numbers 
     1.0000   1.0000   1.0000   1.0000   1.0000   1.0000   1.0000   1.0000
     1.0000   1.0000   1.0000   1.0000   1.0000   1.0000   1.0000   1.0000
     1.0000   1.0000   1.0000   1.0000   1.0000

          k =-0.1818-0.5249 0.0000 ( 15036 PWs)   bands (ev):

   -77.7962 -49.2623 -49.1439 -48.9241 -21.5688 -21.5149 -20.3334 -19.6795
   -15.0327 -14.7585 -12.4657 -12.2975 -11.5492 -10.9994 -10.7394  -9.5723
    -8.8694  -8.5231  -7.8943  -7.3824  -6.1430

     occupation numbers 
     1.0000   1.0000   1.0000   1.0000   1.0000   1.0000   1.0000   1.0000
     1.0000   1.0000   1.0000   1.0000   1.0000   1.0000   1.0000   1.0000
     1.0000   1.0000   1.0000   1.0000   1.0000

          k =-0.1818-0.4199 0.0000 ( 15012 PWs)   bands (ev):

   -77.8001 -49.2407 -49.1277 -48.9297 -22.1216 -22.0614 -20.4132 -19.6583
   -14.4510 -14.1414 -12.1872 -11.9576 -11.7687 -10.6188 -10.5071  -9.7558
    -8.5244  -8.3824  -7.9485  -7.5454  -6.2928

     occupation numbers 
     1.0000   1.0000   1.0000   1.0000   1.0000   1.0000   1.0000   1.0000
     1.0000   1.0000   1.0000   1.0000   1.0000   1.0000   1.0000   1.0000
     1.0000   1.0000   1.0000   1.0000   1.0000

          k =-0.1818-0.3149 0.0000 ( 15012 PWs)   bands (ev):

   -77.8067 -49.2027 -49.1020 -48.9392 -22.8129 -22.7439 -20.6709 -19.7464
   -13.7014 -13.2060 -12.1826 -11.3253 -11.1691 -10.6183 -10.1766  -9.3656
    -8.4928  -8.2823  -7.8619  -7.6079  -6.2955

     occupation numbers 
     1.0000   1.0000   1.0000   1.0000   1.0000   1.0000   1.0000   1.0000
     1.0000   1.0000   1.0000   1.0000   1.0000   1.0000   1.0000   1.0000
     1.0000   1.0000   1.0000   1.0000   1.0000

          k =-0.1818-0.2099 0.0000 ( 14987 PWs)   bands (ev):

   -77.8139 -49.1577 -49.0774 -48.9495 -23.4025 -23.3262 -20.9882 -19.8937
   -13.3808 -12.2338 -11.9032 -10.8495 -10.4257 -10.2286  -9.8305  -8.7231
    -8.6268  -8.3086  -8.0176  -7.4001  -6.0639

     occupation numbers 
     1.0000   1.0000   1.0000   1.0000   1.0000   1.0000   1.0000   1.0000
     1.0000   1.0000   1.0000   1.0000   1.0000   1.0000   1.0000   1.0000
     1.0000   1.0000   1.0000   1.0000   1.0000

          k =-0.0909-0.0525 0.0000 ( 15059 PWs)   bands (ev):

   -77.8259 -49.0665 -49.0515 -48.9667 -24.1884 -24.1018 -21.5159 -20.1641
   -13.7270 -11.1340  -9.9427  -9.8699  -9.4074  -9.3635  -9.1156  -9.0261
    -8.7222  -7.7467  -7.6546  -7.2365  -5.4400

     occupation numbers 
     1.0000   1.0000   1.0000   1.0000   1.0000   1.0000   1.0000   1.0000
     1.0000   1.0000   1.0000   1.0000   1.0000   1.0000   1.0000   1.0000
     1.0000   1.0000   1.0000   1.0000   1.0000

          k =-0.0909 0.0525 0.0000 ( 15059 PWs)   bands (ev):

   -77.8259 -49.0665 -49.0514 -48.9667 -24.1884 -24.1018 -21.5159 -20.1641
   -13.7271 -11.1340  -9.9431  -9.8700  -9.4068  -9.3635  -9.1157  -9.0261
    -8.7220  -7.7455  -7.6558  -7.2366  -5.4399

     occupation numbers 
     1.0000   1.0000   1.0000   1.0000   1.0000   1.0000   1.0000   1.0000
     1.0000   1.0000   1.0000   1.0000   1.0000   1.0000   1.0000   1.0000
     1.0000   1.0000   1.0000   1.0000   1.0000

          k =-0.0909 0.1575 0.0000 ( 15029 PWs)   bands (ev):

   -77.8214 -49.1010 -49.0607 -48.9603 -23.9179 -23.8350 -21.3220 -20.0621
   -13.5442 -11.1098 -10.7942 -10.7369  -9.8116  -9.7039  -9.3534  -8.9126
    -8.5797  -8.0361  -7.8819  -7.2297  -5.6831

     occupation numbers 
     1.0000   1.0000   1.0000   1.0000   1.0000   1.0000   1.0000   1.0000
     1.0000   1.0000   1.0000   1.0000   1.0000   1.0000   1.0000   1.0000
     1.0000   1.0000   1.0000   1.0000   1.0000

          k =-0.0909 0.2624 0.0000 ( 14987 PWs)   bands (ev):

   -77.8139 -49.1577 -49.0773 -48.9495 -23.4025 -23.3262 -20.9882 -19.8937
   -13.3809 -12.2339 -11.9033 -10.8494 -10.4255 -10.2284  -9.8307  -8.7231
    -8.6270  -8.3086  -8.0169  -7.4008  -6.0636

     occupation numbers 
     1.0000   1.0000   1.0000   1.0000   1.0000   1.0000   1.0000   1.0000
     1.0000   1.0000   1.0000   1.0000   1.0000   1.0000   1.0000   1.0000
     1.0000   1.0000   1.0000   1.0000   1.0000

          k =-0.0909 0.3674 0.0000 ( 15001 PWs)   bands (ev):

   -77.8057 -49.2188 -49.0955 -48.9377 -22.7086 -22.6410 -20.6293 -19.7360
   -14.0107 -13.6349 -12.2833 -11.0500 -10.7841 -10.5942 -10.3416  -9.2360
    -8.4853  -8.2245  -8.0193  -7.5478  -6.2946

     occupation numbers 
     1.0000   1.0000   1.0000   1.0000   1.0000   1.0000   1.0000   1.0000
     1.0000   1.0000   1.0000   1.0000   1.0000   1.0000   1.0000   1.0000
     1.0000   1.0000   1.0000   1.0000   1.0000

          k =-0.0909 0.4724 0.0000 ( 15030 PWs)   bands (ev):

   -77.7995 -49.2651 -49.1094 -48.9287 -21.9953 -21.9375 -20.4107 -19.6916
   -14.9885 -14.7185 -12.1251 -11.4399 -11.0503 -10.8037 -10.6427  -9.4367
    -8.6758  -8.1236  -7.8723  -7.5078  -6.2712

     occupation numbers 
     1.0000   1.0000   1.0000   1.0000   1.0000   1.0000   1.0000   1.0000
     1.0000   1.0000   1.0000   1.0000   1.0000   1.0000   1.0000   1.0000
     1.0000   1.0000   1.0000   1.0000   1.0000

          k =-0.0909-0.5774 0.0000 ( 15006 PWs)   bands (ev):

   -77.7971 -49.2823 -49.1145 -48.9254 -21.6400 -21.5866 -20.3839 -19.7302
   -15.3984 -15.1335 -12.0262 -11.6123 -11.0918 -11.0282 -10.7240  -9.3892
    -8.8624  -8.0075  -7.8043  -7.4765  -6.2099

     occupation numbers 
     1.0000   1.0000   1.0000   1.0000   1.0000   1.0000   1.0000   1.0000
     1.0000   1.0000   1.0000   1.0000   1.0000   1.0000   1.0000   1.0000
     1.0000   1.0000   1.0000   1.0000   1.0000

          k =-0.0909-0.4724 0.0000 ( 15030 PWs)   bands (ev):

   -77.7995 -49.2651 -49.1094 -48.9287 -21.9953 -21.9376 -20.4107 -19.6916
   -14.9884 -14.7185 -12.1251 -11.4399 -11.0505 -10.8036 -10.6424  -9.4374
    -8.6753  -8.1235  -7.8721  -7.5078  -6.2715

     occupation numbers 
     1.0000   1.0000   1.0000   1.0000   1.0000   1.0000   1.0000   1.0000
     1.0000   1.0000   1.0000   1.0000   1.0000   1.0000   1.0000   1.0000
     1.0000   1.0000   1.0000   1.0000   1.0000

          k =-0.0909-0.3674 0.0000 ( 15001 PWs)   bands (ev):

   -77.8057 -49.2188 -49.0955 -48.9377 -22.7086 -22.6410 -20.6293 -19.7360
   -14.0106 -13.6349 -12.2834 -11.0500 -10.7843 -10.5943 -10.3413  -9.2362
    -8.4854  -8.2243  -8.0190  -7.5475  -6.2949

     occupation numbers 
     1.0000   1.0000   1.0000   1.0000   1.0000   1.0000   1.0000   1.0000
     1.0000   1.0000   1.0000   1.0000   1.0000   1.0000   1.0000   1.0000
     1.0000   1.0000   1.0000   1.0000   1.0000

          k =-0.0909-0.2624 0.0000 ( 14987 PWs)   bands (ev):

   -77.8139 -49.1577 -49.0774 -48.9495 -23.4025 -23.3262 -20.9882 -19.8937
   -13.3808 -12.2338 -11.9032 -10.8495 -10.4257 -10.2286  -9.8305  -8.7231
    -8.6268  -8.3086  -8.0176  -7.4001  -6.0639

     occupation numbers 
     1.0000   1.0000   1.0000   1.0000   1.0000   1.0000   1.0000   1.0000
     1.0000   1.0000   1.0000   1.0000   1.0000   1.0000   1.0000   1.0000
     1.0000   1.0000   1.0000   1.0000   1.0000

          k =-0.0909-0.1575 0.0000 ( 15029 PWs)   bands (ev):

   -77.8214 -49.1009 -49.0608 -48.9603 -23.9179 -23.8350 -21.3220 -20.0622
   -13.5442 -11.1098 -10.7937 -10.7369  -9.8120  -9.7042  -9.3532  -8.9126
    -8.5799  -8.0355  -7.8828  -7.2291  -5.6833

     occupation numbers 
     1.0000   1.0000   1.0000   1.0000   1.0000   1.0000   1.0000   1.0000
     1.0000   1.0000   1.0000   1.0000   1.0000   1.0000   1.0000   1.0000
     1.0000   1.0000   1.0000   1.0000   1.0000

     highest occupied level (ev):    -5.3331

!    total energy              =    -263.34608099 Ry
     estimated scf accuracy    <          1.1E-11 Ry

     The total energy is the sum of the following terms:
     one-electron contribution =   -6483.83509394 Ry
     hartree contribution      =    3238.55870080 Ry
     xc contribution           =     -44.63464621 Ry
     ewald contribution        =    3026.56495837 Ry

     convergence has been achieved in  26 iterations

     Writing all to output data dir ./tmp/crsi2n4.save/ :
     XML data file, charge density, pseudopotentials, collected wavefunctions
 
     init_run     :      6.91s CPU      7.12s WALL (       1 calls)
     electrons    :    397.53s CPU    398.10s WALL (       1 calls)

     Called by init_run:
     wfcinit      :      5.62s CPU      5.79s WALL (       1 calls)
     wfcinit:atom :      0.08s CPU      0.08s WALL (     121 calls)
     wfcinit:wfcr :      5.32s CPU      5.36s WALL (     121 calls)
     potinit      :      0.94s CPU      0.97s WALL (       1 calls)
     hinit0       :      0.17s CPU      0.17s WALL (       1 calls)

     Called by electrons:
     c_bands      :    366.84s CPU    367.37s WALL (      26 calls)
     sum_band     :     29.44s CPU     29.46s WALL (      26 calls)
     v_of_rho     :      0.40s CPU      0.43s WALL (      27 calls)
     v_h          :      0.09s CPU      0.10s WALL (      27 calls)
     v_xc         :      0.30s CPU      0.32s WALL (      27 calls)
     mix_rho      :      0.54s CPU      0.55s WALL (      26 calls)

     Called by c_bands:
     init_us_2    :      4.73s CPU      4.74s WALL (    6413 calls)
     cegterg      :    351.66s CPU    352.16s WALL (    3146 calls)

     Called by sum_band:
     sum_band:wei :      0.00s CPU      0.00s WALL (      26 calls)
     sum_band:loo :     29.34s CPU     29.36s WALL (      26 calls)
     sum_band:buf :      3.82s CPU      3.82s WALL (    3146 calls)
     sum_band:ini :      2.35s CPU      2.35s WALL (    3146 calls)

     Called by *egterg:
     cdiaghg      :     40.11s CPU     40.26s WALL (   18103 calls)
                                       40.19s GPU  (   18103 calls)
     cegterg:over :     74.47s CPU     74.50s WALL (   14957 calls)
     cegterg:upda :     18.10s CPU     18.12s WALL (   14957 calls)
     cegterg:last :     15.90s CPU     15.91s WALL (    7458 calls)
     h_psi        :    195.44s CPU    195.95s WALL (   18224 calls)
                                      195.80s GPU  (   18224 calls)
     g_psi        :      0.06s CPU      1.65s WALL (   14957 calls)
                                        1.59s GPU  (   14957 calls)

     Called by h_psi:
     h_psi:calbec :      0.50s CPU     35.39s WALL (   18224 calls)
                                       35.32s GPU  (   18224 calls)
     vloc_psi     :    129.29s CPU    129.76s WALL (   18224 calls)
                                      129.70s GPU  (   18224 calls)
     add_vuspsi   :      3.46s CPU     29.82s WALL (   18224 calls)
                                       29.74s GPU  (   18224 calls)

     General routines
     calbec       :      0.47s CPU      0.50s WALL (   18224 calls)
     fft          :      0.53s CPU      0.67s WALL (     321 calls)
                                        0.14s GPU  (     294 calls)
     ffts         :      0.52s CPU      0.53s WALL (      53 calls)
                                        0.01s GPU  (      26 calls)
     fftw         :      0.56s CPU    131.71s WALL (   56252 calls)
                                      131.50s GPU  (   56252 calls)
     interpolate  :      1.10s CPU      1.10s WALL (      27 calls)
 
     Parallel routines
 
     PWSCF        :   6m44.74s CPU   6m45.77s WALL

 
   This run was terminated on:  21:24:13  28Apr2026            

=------------------------------------------------------------------------------=
   JOB DONE.
=------------------------------------------------------------------------------=
