
     Program PWSCF v.7.4.1 starts on 28Apr2026 at 21: 8:10 

     This program is part of the open-source Quantum ESPRESSO suite
     for quantum simulation of materials; please cite
         "P. Giannozzi et al., J. Phys.:Condens. Matter 21 395502 (2009);
         "P. Giannozzi et al., J. Phys.:Condens. Matter 29 465901 (2017);
         "P. Giannozzi et al., J. Chem. Phys. 152 154105 (2020);
          URL http://www.quantum-espresso.org", 
     in publications or presentations arising from this work. More details at
     http://www.quantum-espresso.org/quote

     Parallel version (MPI), running on     1 processors

     MPI processes distributed on     1 nodes
     13715 MiB available memory on the printing compute node when the environment starts
 
     Reading input from crsi2n4_bi_-0.010.in
Warning: card &CELL ignored
Warning: card / ignored
Warning: card &FCP ignored
Warning: card / ignored
Warning: card &RISM ignored
Warning: card / ignored

     Current dimensions of program PWSCF are:
     Max number of different atomic species (ntypx) = 10
     Max number of k-points (npk) =  40000
     Max angular momentum in pseudopotentials (lmaxx) =  4
     Message from routine setup:
     no reason to have ecutrho>4*ecutwfc
 
     Subspace diagonalization in iterative solution of the eigenvalue problem:
     a serial algorithm will be used

 
     G-vector sticks info
     --------------------
     sticks:   dense  smooth     PW     G-vecs:    dense   smooth      PW
     Sum         769     637    199               160977   115249   20369
 
     Using Slab Decomposition
 


     bravais-lattice index     =            0
     lattice parameter (alat)  =       5.3206  a.u.
     unit-cell volume          =    1193.7282 (a.u.)^3
     number of atoms/cell      =            7
     number of atomic types    =            3
     number of electrons       =        42.00
     number of Kohn-Sham states=           21
     kinetic-energy cutoff     =      80.0000  Ry
     charge density cutoff     =     400.0000  Ry
     scf convergence threshold =      1.0E-10
     mixing beta               =       0.4000
     number of iterations used =            8  plain     mixing
     Exchange-correlation= PBE
                           (   1   4   3   4   0   0   0)

     GPU acceleration is ACTIVE.  1 visible GPUs per MPI rank
     GPU-aware MPI enabled


     GPU used by master process:

        Device Number: 0
        Device name: NVIDIA RTX A2000 12GB
        Compute capability : 86
        Ratio of single to double precision performance  : 64
        Memory Clock Rate (KHz): 6001000
        Memory Bus Width (bits): 192
        Peak Memory Bandwidth (GB/s): 288.05

     celldm(1)=   5.320637  celldm(2)=   0.000000  celldm(3)=   0.000000
     celldm(4)=   0.000000  celldm(5)=   0.000000  celldm(6)=   0.000000

     crystal axes: (cart. coord. in units of alat)
               a(1) = (   1.000000   0.000000   0.000000 )  
               a(2) = (  -0.500000   0.866025   0.000000 )  
               a(3) = (   0.000000   0.000000   9.151323 )  

     reciprocal axes: (cart. coord. in units 2 pi/alat)
               b(1) = (  1.000000  0.577350 -0.000000 )  
               b(2) = (  0.000000  1.154701  0.000000 )  
               b(3) = (  0.000000 -0.000000  0.109274 )  


     PseudoPot. # 1 for Cr read from file:
     /home/rao/Desktop/pseudo/ONCVPSP/sg15/Cr_ONCV_PBE_sr.upf
     MD5 check sum: 8c25700f94aee329d8014e8d8708abb4
     Pseudo is Norm-conserving, Zval = 14.0
     Generated using ONCVPSP code by D. R. Hamann
     Using radial grid of 1490 points,  6 beta functions with: 
                l(1) =   0
                l(2) =   0
                l(3) =   1
                l(4) =   1
                l(5) =   2
                l(6) =   2

     PseudoPot. # 2 for N  read from file:
     /home/rao/Desktop/pseudo/ONCVPSP/sg15/N_ONCV_PBE_sr.upf
     MD5 check sum: 584dff68b02d160f04ff099e3496afa1
     Pseudo is Norm-conserving, Zval =  5.0
     Generated using ONCVPSP code by D. R. Hamann
     Using radial grid of 1058 points,  4 beta functions with: 
                l(1) =   0
                l(2) =   0
                l(3) =   1
                l(4) =   1

     PseudoPot. # 3 for Si read from file:
     /home/rao/Desktop/pseudo/ONCVPSP/sg15/Si_ONCV_PBE_sr.upf
     MD5 check sum: 8553c464762ac42b85b1eed164b4d029
     Pseudo is Norm-conserving, Zval =  4.0
     Generated using ONCVPSP code by D. R. Hamann
     Using radial grid of 1510 points,  4 beta functions with: 
                l(1) =   0
                l(2) =   0
                l(3) =   1
                l(4) =   1

     atomic species   valence    mass     pseudopotential
     Cr               14.00    51.99610     Cr( 1.00)
     N                 5.00    14.00700     N ( 1.00)
     Si                4.00    28.08500     Si( 1.00)

     No symmetry found


                                    s                        frac. trans.

      isym =  1     identity                                     

 cryst.   s( 1) = (     1          0          0      )
                  (     0          1          0      )
                  (     0          0          1      )

 cart.    s( 1) = (  1.0000000  0.0000000  0.0000000 )
                  (  0.0000000  1.0000000  0.0000000 )
                  (  0.0000000  0.0000000  1.0000000 )


   Cartesian axes

     site n.     atom                  positions (alat units)
         1        Cr     tau(   1) = (   0.7857393   0.1236928   3.9158498  )
         2        N      tau(   2) = (   0.2857139   0.4123840   3.5072258  )
         3        N      tau(   3) = (   0.2856745   0.4124037   4.3295776  )
         4        N      tau(   4) = (   0.7856114   0.1237614   5.1526343  )
         5        N      tau(   5) = (  -0.2142408   0.7010360   2.6922855  )
         6        Si     tau(   6) = (   0.2858007   0.4123370   2.8868885  )
         7        Si     tau(   7) = (   0.2856681   0.4124039   4.9545369  )

   Crystallographic axes

     site n.     atom                  positions (cryst. coord.)
         1        Cr     tau(   1) = (  0.8571534  0.1428282  0.4278998  )
         2        N      tau(   2) = (  0.5238039  0.4761801  0.3832479  )
         3        N      tau(   3) = (  0.5237759  0.4762029  0.4731095  )
         4        N      tau(   4) = (  0.8570650  0.1429073  0.5630480  )
         5        N      tau(   5) = (  0.1905026  0.8094867  0.2941963  )
         6        Si     tau(   6) = (  0.5238636  0.4761258  0.3154613  )
         7        Si     tau(   7) = (  0.5237696  0.4762031  0.5414011  )

     number of k points=   121
                       cart. coord. in units 2pi/alat
        k(    1) = (   0.0000000   0.0000000   0.0000000), wk =   0.0165289
        k(    2) = (   0.0000000   0.1049728   0.0000000), wk =   0.0165289
        k(    3) = (   0.0000000   0.2099456   0.0000000), wk =   0.0165289
        k(    4) = (   0.0000000   0.3149184   0.0000000), wk =   0.0165289
        k(    5) = (   0.0000000   0.4198911   0.0000000), wk =   0.0165289
        k(    6) = (   0.0000000   0.5248639   0.0000000), wk =   0.0165289
        k(    7) = (   0.0000000  -0.5248639   0.0000000), wk =   0.0165289
        k(    8) = (   0.0000000  -0.4198911   0.0000000), wk =   0.0165289
        k(    9) = (   0.0000000  -0.3149184   0.0000000), wk =   0.0165289
        k(   10) = (   0.0000000  -0.2099456   0.0000000), wk =   0.0165289
        k(   11) = (   0.0000000  -0.1049728   0.0000000), wk =   0.0165289
        k(   12) = (   0.0909091   0.0524864   0.0000000), wk =   0.0165289
        k(   13) = (   0.0909091   0.1574592   0.0000000), wk =   0.0165289
        k(   14) = (   0.0909091   0.2624320   0.0000000), wk =   0.0165289
        k(   15) = (   0.0909091   0.3674048   0.0000000), wk =   0.0165289
        k(   16) = (   0.0909091   0.4723775   0.0000000), wk =   0.0165289
        k(   17) = (   0.0909091   0.5773503   0.0000000), wk =   0.0165289
        k(   18) = (   0.0909091  -0.4723775   0.0000000), wk =   0.0165289
        k(   19) = (   0.0909091  -0.3674048   0.0000000), wk =   0.0165289
        k(   20) = (   0.0909091  -0.2624320   0.0000000), wk =   0.0165289
        k(   21) = (   0.0909091  -0.1574592   0.0000000), wk =   0.0165289
        k(   22) = (   0.0909091  -0.0524864   0.0000000), wk =   0.0165289
        k(   23) = (   0.1818182   0.1049728   0.0000000), wk =   0.0165289
        k(   24) = (   0.1818182   0.2099456   0.0000000), wk =   0.0165289
        k(   25) = (   0.1818182   0.3149184   0.0000000), wk =   0.0165289
        k(   26) = (   0.1818182   0.4198911   0.0000000), wk =   0.0165289
        k(   27) = (   0.1818182   0.5248639   0.0000000), wk =   0.0165289
        k(   28) = (   0.1818182   0.6298367   0.0000000), wk =   0.0165289
        k(   29) = (   0.1818182  -0.4198911   0.0000000), wk =   0.0165289
        k(   30) = (   0.1818182  -0.3149184   0.0000000), wk =   0.0165289
        k(   31) = (   0.1818182  -0.2099456   0.0000000), wk =   0.0165289
        k(   32) = (   0.1818182  -0.1049728   0.0000000), wk =   0.0165289
        k(   33) = (   0.1818182  -0.0000000   0.0000000), wk =   0.0165289
        k(   34) = (   0.2727273   0.1574592   0.0000000), wk =   0.0165289
        k(   35) = (   0.2727273   0.2624320   0.0000000), wk =   0.0165289
        k(   36) = (   0.2727273   0.3674048   0.0000000), wk =   0.0165289
        k(   37) = (   0.2727273   0.4723775   0.0000000), wk =   0.0165289
        k(   38) = (   0.2727273   0.5773503   0.0000000), wk =   0.0165289
        k(   39) = (   0.2727273   0.6823231   0.0000000), wk =   0.0165289
        k(   40) = (   0.2727273  -0.3674048   0.0000000), wk =   0.0165289
        k(   41) = (   0.2727273  -0.2624320   0.0000000), wk =   0.0165289
        k(   42) = (   0.2727273  -0.1574592   0.0000000), wk =   0.0165289
        k(   43) = (   0.2727273  -0.0524864   0.0000000), wk =   0.0165289
        k(   44) = (   0.2727273   0.0524864   0.0000000), wk =   0.0165289
        k(   45) = (   0.3636364   0.2099456   0.0000000), wk =   0.0165289
        k(   46) = (   0.3636364   0.3149184   0.0000000), wk =   0.0165289
        k(   47) = (   0.3636364   0.4198911   0.0000000), wk =   0.0165289
        k(   48) = (   0.3636364   0.5248639   0.0000000), wk =   0.0165289
        k(   49) = (   0.3636364   0.6298367   0.0000000), wk =   0.0165289
        k(   50) = (   0.3636364   0.7348095   0.0000000), wk =   0.0165289
        k(   51) = (   0.3636364  -0.3149184   0.0000000), wk =   0.0165289
        k(   52) = (   0.3636364  -0.2099456   0.0000000), wk =   0.0165289
        k(   53) = (   0.3636364  -0.1049728   0.0000000), wk =   0.0165289
        k(   54) = (   0.3636364   0.0000000   0.0000000), wk =   0.0165289
        k(   55) = (   0.3636364   0.1049728   0.0000000), wk =   0.0165289
        k(   56) = (   0.4545455   0.2624320   0.0000000), wk =   0.0165289
        k(   57) = (   0.4545455   0.3674048   0.0000000), wk =   0.0165289
        k(   58) = (   0.4545455   0.4723775   0.0000000), wk =   0.0165289
        k(   59) = (   0.4545455   0.5773503   0.0000000), wk =   0.0165289
        k(   60) = (   0.4545455   0.6823231   0.0000000), wk =   0.0165289
        k(   61) = (   0.4545455   0.7872959   0.0000000), wk =   0.0165289
        k(   62) = (   0.4545455  -0.2624320   0.0000000), wk =   0.0165289
        k(   63) = (   0.4545455  -0.1574592   0.0000000), wk =   0.0165289
        k(   64) = (   0.4545455  -0.0524864   0.0000000), wk =   0.0165289
        k(   65) = (   0.4545455   0.0524864   0.0000000), wk =   0.0165289
        k(   66) = (   0.4545455   0.1574592   0.0000000), wk =   0.0165289
        k(   67) = (  -0.4545455  -0.2624320   0.0000000), wk =   0.0165289
        k(   68) = (  -0.4545455  -0.1574592   0.0000000), wk =   0.0165289
        k(   69) = (  -0.4545455  -0.0524864   0.0000000), wk =   0.0165289
        k(   70) = (  -0.4545455   0.0524864   0.0000000), wk =   0.0165289
        k(   71) = (  -0.4545455   0.1574592   0.0000000), wk =   0.0165289
        k(   72) = (  -0.4545455   0.2624320   0.0000000), wk =   0.0165289
        k(   73) = (  -0.4545455  -0.7872959   0.0000000), wk =   0.0165289
        k(   74) = (  -0.4545455  -0.6823231   0.0000000), wk =   0.0165289
        k(   75) = (  -0.4545455  -0.5773503   0.0000000), wk =   0.0165289
        k(   76) = (  -0.4545455  -0.4723775   0.0000000), wk =   0.0165289
        k(   77) = (  -0.4545455  -0.3674048   0.0000000), wk =   0.0165289
        k(   78) = (  -0.3636364  -0.2099456   0.0000000), wk =   0.0165289
        k(   79) = (  -0.3636364  -0.1049728   0.0000000), wk =   0.0165289
        k(   80) = (  -0.3636364   0.0000000   0.0000000), wk =   0.0165289
        k(   81) = (  -0.3636364   0.1049728   0.0000000), wk =   0.0165289
        k(   82) = (  -0.3636364   0.2099456   0.0000000), wk =   0.0165289
        k(   83) = (  -0.3636364   0.3149184   0.0000000), wk =   0.0165289
        k(   84) = (  -0.3636364  -0.7348095   0.0000000), wk =   0.0165289
        k(   85) = (  -0.3636364  -0.6298367   0.0000000), wk =   0.0165289
        k(   86) = (  -0.3636364  -0.5248639   0.0000000), wk =   0.0165289
        k(   87) = (  -0.3636364  -0.4198911   0.0000000), wk =   0.0165289
        k(   88) = (  -0.3636364  -0.3149184   0.0000000), wk =   0.0165289
        k(   89) = (  -0.2727273  -0.1574592   0.0000000), wk =   0.0165289
        k(   90) = (  -0.2727273  -0.0524864   0.0000000), wk =   0.0165289
        k(   91) = (  -0.2727273   0.0524864   0.0000000), wk =   0.0165289
        k(   92) = (  -0.2727273   0.1574592   0.0000000), wk =   0.0165289
        k(   93) = (  -0.2727273   0.2624320   0.0000000), wk =   0.0165289
        k(   94) = (  -0.2727273   0.3674048   0.0000000), wk =   0.0165289
        k(   95) = (  -0.2727273  -0.6823231   0.0000000), wk =   0.0165289
        k(   96) = (  -0.2727273  -0.5773503   0.0000000), wk =   0.0165289
        k(   97) = (  -0.2727273  -0.4723775   0.0000000), wk =   0.0165289
        k(   98) = (  -0.2727273  -0.3674048   0.0000000), wk =   0.0165289
        k(   99) = (  -0.2727273  -0.2624320   0.0000000), wk =   0.0165289
        k(  100) = (  -0.1818182  -0.1049728   0.0000000), wk =   0.0165289
        k(  101) = (  -0.1818182   0.0000000   0.0000000), wk =   0.0165289
        k(  102) = (  -0.1818182   0.1049728   0.0000000), wk =   0.0165289
        k(  103) = (  -0.1818182   0.2099456   0.0000000), wk =   0.0165289
        k(  104) = (  -0.1818182   0.3149184   0.0000000), wk =   0.0165289
        k(  105) = (  -0.1818182   0.4198911   0.0000000), wk =   0.0165289
        k(  106) = (  -0.1818182  -0.6298367   0.0000000), wk =   0.0165289
        k(  107) = (  -0.1818182  -0.5248639   0.0000000), wk =   0.0165289
        k(  108) = (  -0.1818182  -0.4198911   0.0000000), wk =   0.0165289
        k(  109) = (  -0.1818182  -0.3149184   0.0000000), wk =   0.0165289
        k(  110) = (  -0.1818182  -0.2099456   0.0000000), wk =   0.0165289
        k(  111) = (  -0.0909091  -0.0524864   0.0000000), wk =   0.0165289
        k(  112) = (  -0.0909091   0.0524864   0.0000000), wk =   0.0165289
        k(  113) = (  -0.0909091   0.1574592   0.0000000), wk =   0.0165289
        k(  114) = (  -0.0909091   0.2624320   0.0000000), wk =   0.0165289
        k(  115) = (  -0.0909091   0.3674048   0.0000000), wk =   0.0165289
        k(  116) = (  -0.0909091   0.4723775   0.0000000), wk =   0.0165289
        k(  117) = (  -0.0909091  -0.5773503   0.0000000), wk =   0.0165289
        k(  118) = (  -0.0909091  -0.4723775   0.0000000), wk =   0.0165289
        k(  119) = (  -0.0909091  -0.3674048   0.0000000), wk =   0.0165289
        k(  120) = (  -0.0909091  -0.2624320   0.0000000), wk =   0.0165289
        k(  121) = (  -0.0909091  -0.1574592   0.0000000), wk =   0.0165289

                       cryst. coord.
        k(    1) = (   0.0000000   0.0000000   0.0000000), wk =   0.0165289
        k(    2) = (   0.0000000   0.0909091   0.0000000), wk =   0.0165289
        k(    3) = (   0.0000000   0.1818182   0.0000000), wk =   0.0165289
        k(    4) = (   0.0000000   0.2727273   0.0000000), wk =   0.0165289
        k(    5) = (   0.0000000   0.3636364   0.0000000), wk =   0.0165289
        k(    6) = (   0.0000000   0.4545455   0.0000000), wk =   0.0165289
        k(    7) = (   0.0000000  -0.4545455   0.0000000), wk =   0.0165289
        k(    8) = (   0.0000000  -0.3636364   0.0000000), wk =   0.0165289
        k(    9) = (   0.0000000  -0.2727273   0.0000000), wk =   0.0165289
        k(   10) = (   0.0000000  -0.1818182   0.0000000), wk =   0.0165289
        k(   11) = (   0.0000000  -0.0909091   0.0000000), wk =   0.0165289
        k(   12) = (   0.0909091  -0.0000000   0.0000000), wk =   0.0165289
        k(   13) = (   0.0909091   0.0909091   0.0000000), wk =   0.0165289
        k(   14) = (   0.0909091   0.1818182   0.0000000), wk =   0.0165289
        k(   15) = (   0.0909091   0.2727273   0.0000000), wk =   0.0165289
        k(   16) = (   0.0909091   0.3636364   0.0000000), wk =   0.0165289
        k(   17) = (   0.0909091   0.4545455   0.0000000), wk =   0.0165289
        k(   18) = (   0.0909091  -0.4545455   0.0000000), wk =   0.0165289
        k(   19) = (   0.0909091  -0.3636364   0.0000000), wk =   0.0165289
        k(   20) = (   0.0909091  -0.2727273   0.0000000), wk =   0.0165289
        k(   21) = (   0.0909091  -0.1818182   0.0000000), wk =   0.0165289
        k(   22) = (   0.0909091  -0.0909091   0.0000000), wk =   0.0165289
        k(   23) = (   0.1818182  -0.0000000   0.0000000), wk =   0.0165289
        k(   24) = (   0.1818182   0.0909091   0.0000000), wk =   0.0165289
        k(   25) = (   0.1818182   0.1818182   0.0000000), wk =   0.0165289
        k(   26) = (   0.1818182   0.2727273   0.0000000), wk =   0.0165289
        k(   27) = (   0.1818182   0.3636364   0.0000000), wk =   0.0165289
        k(   28) = (   0.1818182   0.4545455   0.0000000), wk =   0.0165289
        k(   29) = (   0.1818182  -0.4545455   0.0000000), wk =   0.0165289
        k(   30) = (   0.1818182  -0.3636364   0.0000000), wk =   0.0165289
        k(   31) = (   0.1818182  -0.2727273   0.0000000), wk =   0.0165289
        k(   32) = (   0.1818182  -0.1818182   0.0000000), wk =   0.0165289
        k(   33) = (   0.1818182  -0.0909091   0.0000000), wk =   0.0165289
        k(   34) = (   0.2727273  -0.0000000   0.0000000), wk =   0.0165289
        k(   35) = (   0.2727273   0.0909091   0.0000000), wk =   0.0165289
        k(   36) = (   0.2727273   0.1818182   0.0000000), wk =   0.0165289
        k(   37) = (   0.2727273   0.2727273   0.0000000), wk =   0.0165289
        k(   38) = (   0.2727273   0.3636364   0.0000000), wk =   0.0165289
        k(   39) = (   0.2727273   0.4545455   0.0000000), wk =   0.0165289
        k(   40) = (   0.2727273  -0.4545455   0.0000000), wk =   0.0165289
        k(   41) = (   0.2727273  -0.3636364   0.0000000), wk =   0.0165289
        k(   42) = (   0.2727273  -0.2727273   0.0000000), wk =   0.0165289
        k(   43) = (   0.2727273  -0.1818182   0.0000000), wk =   0.0165289
        k(   44) = (   0.2727273  -0.0909091   0.0000000), wk =   0.0165289
        k(   45) = (   0.3636364  -0.0000000   0.0000000), wk =   0.0165289
        k(   46) = (   0.3636364   0.0909091   0.0000000), wk =   0.0165289
        k(   47) = (   0.3636364   0.1818182   0.0000000), wk =   0.0165289
        k(   48) = (   0.3636364   0.2727273   0.0000000), wk =   0.0165289
        k(   49) = (   0.3636364   0.3636364   0.0000000), wk =   0.0165289
        k(   50) = (   0.3636364   0.4545455   0.0000000), wk =   0.0165289
        k(   51) = (   0.3636364  -0.4545455   0.0000000), wk =   0.0165289
        k(   52) = (   0.3636364  -0.3636364   0.0000000), wk =   0.0165289
        k(   53) = (   0.3636364  -0.2727273   0.0000000), wk =   0.0165289
        k(   54) = (   0.3636364  -0.1818182   0.0000000), wk =   0.0165289
        k(   55) = (   0.3636364  -0.0909091   0.0000000), wk =   0.0165289
        k(   56) = (   0.4545455   0.0000000   0.0000000), wk =   0.0165289
        k(   57) = (   0.4545455   0.0909091   0.0000000), wk =   0.0165289
        k(   58) = (   0.4545455   0.1818182   0.0000000), wk =   0.0165289
        k(   59) = (   0.4545455   0.2727273   0.0000000), wk =   0.0165289
        k(   60) = (   0.4545455   0.3636364   0.0000000), wk =   0.0165289
        k(   61) = (   0.4545455   0.4545455   0.0000000), wk =   0.0165289
        k(   62) = (   0.4545455  -0.4545455   0.0000000), wk =   0.0165289
        k(   63) = (   0.4545455  -0.3636364   0.0000000), wk =   0.0165289
        k(   64) = (   0.4545455  -0.2727273   0.0000000), wk =   0.0165289
        k(   65) = (   0.4545455  -0.1818182   0.0000000), wk =   0.0165289
        k(   66) = (   0.4545455  -0.0909091   0.0000000), wk =   0.0165289
        k(   67) = (  -0.4545455  -0.0000000   0.0000000), wk =   0.0165289
        k(   68) = (  -0.4545455   0.0909091   0.0000000), wk =   0.0165289
        k(   69) = (  -0.4545455   0.1818182   0.0000000), wk =   0.0165289
        k(   70) = (  -0.4545455   0.2727273   0.0000000), wk =   0.0165289
        k(   71) = (  -0.4545455   0.3636364   0.0000000), wk =   0.0165289
        k(   72) = (  -0.4545455   0.4545455   0.0000000), wk =   0.0165289
        k(   73) = (  -0.4545455  -0.4545455   0.0000000), wk =   0.0165289
        k(   74) = (  -0.4545455  -0.3636364   0.0000000), wk =   0.0165289
        k(   75) = (  -0.4545455  -0.2727273   0.0000000), wk =   0.0165289
        k(   76) = (  -0.4545455  -0.1818182   0.0000000), wk =   0.0165289
        k(   77) = (  -0.4545455  -0.0909091   0.0000000), wk =   0.0165289
        k(   78) = (  -0.3636364   0.0000000   0.0000000), wk =   0.0165289
        k(   79) = (  -0.3636364   0.0909091   0.0000000), wk =   0.0165289
        k(   80) = (  -0.3636364   0.1818182   0.0000000), wk =   0.0165289
        k(   81) = (  -0.3636364   0.2727273   0.0000000), wk =   0.0165289
        k(   82) = (  -0.3636364   0.3636364   0.0000000), wk =   0.0165289
        k(   83) = (  -0.3636364   0.4545455   0.0000000), wk =   0.0165289
        k(   84) = (  -0.3636364  -0.4545455   0.0000000), wk =   0.0165289
        k(   85) = (  -0.3636364  -0.3636364   0.0000000), wk =   0.0165289
        k(   86) = (  -0.3636364  -0.2727273   0.0000000), wk =   0.0165289
        k(   87) = (  -0.3636364  -0.1818182   0.0000000), wk =   0.0165289
        k(   88) = (  -0.3636364  -0.0909091   0.0000000), wk =   0.0165289
        k(   89) = (  -0.2727273   0.0000000   0.0000000), wk =   0.0165289
        k(   90) = (  -0.2727273   0.0909091   0.0000000), wk =   0.0165289
        k(   91) = (  -0.2727273   0.1818182   0.0000000), wk =   0.0165289
        k(   92) = (  -0.2727273   0.2727273   0.0000000), wk =   0.0165289
        k(   93) = (  -0.2727273   0.3636364   0.0000000), wk =   0.0165289
        k(   94) = (  -0.2727273   0.4545455   0.0000000), wk =   0.0165289
        k(   95) = (  -0.2727273  -0.4545455   0.0000000), wk =   0.0165289
        k(   96) = (  -0.2727273  -0.3636364   0.0000000), wk =   0.0165289
        k(   97) = (  -0.2727273  -0.2727273   0.0000000), wk =   0.0165289
        k(   98) = (  -0.2727273  -0.1818182   0.0000000), wk =   0.0165289
        k(   99) = (  -0.2727273  -0.0909091   0.0000000), wk =   0.0165289
        k(  100) = (  -0.1818182  -0.0000000   0.0000000), wk =   0.0165289
        k(  101) = (  -0.1818182   0.0909091   0.0000000), wk =   0.0165289
        k(  102) = (  -0.1818182   0.1818182   0.0000000), wk =   0.0165289
        k(  103) = (  -0.1818182   0.2727273   0.0000000), wk =   0.0165289
        k(  104) = (  -0.1818182   0.3636364   0.0000000), wk =   0.0165289
        k(  105) = (  -0.1818182   0.4545455   0.0000000), wk =   0.0165289
        k(  106) = (  -0.1818182  -0.4545455   0.0000000), wk =   0.0165289
        k(  107) = (  -0.1818182  -0.3636364   0.0000000), wk =   0.0165289
        k(  108) = (  -0.1818182  -0.2727273   0.0000000), wk =   0.0165289
        k(  109) = (  -0.1818182  -0.1818182   0.0000000), wk =   0.0165289
        k(  110) = (  -0.1818182  -0.0909091   0.0000000), wk =   0.0165289
        k(  111) = (  -0.0909091  -0.0000000   0.0000000), wk =   0.0165289
        k(  112) = (  -0.0909091   0.0909091   0.0000000), wk =   0.0165289
        k(  113) = (  -0.0909091   0.1818182   0.0000000), wk =   0.0165289
        k(  114) = (  -0.0909091   0.2727273   0.0000000), wk =   0.0165289
        k(  115) = (  -0.0909091   0.3636364   0.0000000), wk =   0.0165289
        k(  116) = (  -0.0909091   0.4545455   0.0000000), wk =   0.0165289
        k(  117) = (  -0.0909091  -0.4545455   0.0000000), wk =   0.0165289
        k(  118) = (  -0.0909091  -0.3636364   0.0000000), wk =   0.0165289
        k(  119) = (  -0.0909091  -0.2727273   0.0000000), wk =   0.0165289
        k(  120) = (  -0.0909091  -0.1818182   0.0000000), wk =   0.0165289
        k(  121) = (  -0.0909091  -0.0909091   0.0000000), wk =   0.0165289

     Dense  grid:   160977 G-vectors     FFT dimensions: (  36,  36, 320)

     Smooth grid:   115249 G-vectors     FFT dimensions: (  32,  32, 288)

     Dynamical RAM for                 wfc:       4.62 MB

     Dynamical RAM for     wfc (w. buffer):     563.88 MB

     Dynamical RAM for           str. fact:       7.37 MB

     Dynamical RAM for           local pot:       0.00 MB

     Dynamical RAM for          nlocal pot:      14.53 MB

     Dynamical RAM for                qrad:       4.82 MB

     Dynamical RAM for          rho,v,vnew:      16.86 MB

     Dynamical RAM for               rhoin:       5.62 MB

     Dynamical RAM for            rho*nmix:      39.30 MB

     Dynamical RAM for           G-vectors:      10.09 MB

     Dynamical RAM for          h,s,v(r/c):       0.08 MB

     Dynamical RAM for          <psi|beta>:       0.02 MB

     Dynamical RAM for                 psi:       9.24 MB

     Dynamical RAM for                hpsi:       9.24 MB

     Dynamical RAM for      wfcinit/wfcrot:       9.25 MB

     Estimated static dynamical RAM per process >     648.81 MB

     Estimated max dynamical RAM per process >     706.70 MB
 ----2D----2D----2D----2D----2D----2D----2D----2D----2D----2D----2D----2D
  The code is running with the 2D cutoff
  Please refer to:
  Sohier, T., Calandra, M., & Mauri, F. (2017), 
  Density functional perturbation theory for gated two-dimensional heterostructures:
  Theoretical developments and application to flexural phonons in graphene.
  Physical Review B, 96(7), 75448. https://doi.org/10.1103/PhysRevB.96.075448
 ----2D----2D----2D----2D----2D----2D----2D----2D----2D----2D----2D----2D

     Initial potential from superposition of free atoms

     starting charge      41.9980, renormalised to      42.0000

     negative rho (up, down):  1.653E-06 0.000E+00
     Starting wfcs are   34 randomized atomic wfcs

     total cpu time spent up to now is        7.1 secs

     Self-consistent Calculation
[tb_dev] Currently allocated     1.51E+00 Mbytes, locked:    0 /   5
[tb_pin] Currently allocated     0.00E+00 Mbytes, locked:    0 /   0

     iteration #  1     ecut=    80.00 Ry     beta= 0.40
     Davidson diagonalization with overlap

---- Real-time Memory Report at c_bands before calling an iterative solver
          1261 MiB given to the printing process from OS
             0 MiB allocation reported by mallinfo(arena+hblkhd)
         12875 MiB available memory on the node where the printing process lives
     GPU memory used/free/total (MiB): 1397 / 10516 / 11914
------------------
     ethr =  1.00E-02,  avg # of iterations =  2.0

     total cpu time spent up to now is       18.6 secs

     total energy              =    -262.70982620 Ry
     estimated scf accuracy    <       2.23612553 Ry
[tb_dev] Currently allocated     2.67E-05 Mbytes, locked:    0 /   1
[tb_pin] Currently allocated     0.00E+00 Mbytes, locked:    0 /   0

     iteration #  2     ecut=    80.00 Ry     beta= 0.40
     Davidson diagonalization with overlap

---- Real-time Memory Report at c_bands before calling an iterative solver
          1278 MiB given to the printing process from OS
             0 MiB allocation reported by mallinfo(arena+hblkhd)
         12854 MiB available memory on the node where the printing process lives
     GPU memory used/free/total (MiB): 1401 / 10512 / 11914
------------------
     ethr =  5.32E-03,  avg # of iterations =  5.8

     total cpu time spent up to now is       37.4 secs

     total energy              =    -263.15565299 Ry
     estimated scf accuracy    <       0.82558793 Ry
[tb_dev] Currently allocated     2.67E-05 Mbytes, locked:    0 /   1
[tb_pin] Currently allocated     0.00E+00 Mbytes, locked:    0 /   0

     iteration #  3     ecut=    80.00 Ry     beta= 0.40
     Davidson diagonalization with overlap

---- Real-time Memory Report at c_bands before calling an iterative solver
          1303 MiB given to the printing process from OS
             0 MiB allocation reported by mallinfo(arena+hblkhd)
         12830 MiB available memory on the node where the printing process lives
     GPU memory used/free/total (MiB): 1401 / 10512 / 11914
------------------
     ethr =  1.97E-03,  avg # of iterations =  5.2

     total cpu time spent up to now is       52.7 secs

     total energy              =    -263.33036626 Ry
     estimated scf accuracy    <       0.07025189 Ry
[tb_dev] Currently allocated     2.67E-05 Mbytes, locked:    0 /   1
[tb_pin] Currently allocated     0.00E+00 Mbytes, locked:    0 /   0

     iteration #  4     ecut=    80.00 Ry     beta= 0.40
     Davidson diagonalization with overlap

---- Real-time Memory Report at c_bands before calling an iterative solver
          1308 MiB given to the printing process from OS
             0 MiB allocation reported by mallinfo(arena+hblkhd)
         12830 MiB available memory on the node where the printing process lives
     GPU memory used/free/total (MiB): 1401 / 10512 / 11914
------------------
     ethr =  1.67E-04,  avg # of iterations =  4.8

     total cpu time spent up to now is       67.3 secs

     total energy              =    -263.34187213 Ry
     estimated scf accuracy    <       0.01219500 Ry
[tb_dev] Currently allocated     2.67E-05 Mbytes, locked:    0 /   1
[tb_pin] Currently allocated     0.00E+00 Mbytes, locked:    0 /   0

     iteration #  5     ecut=    80.00 Ry     beta= 0.40
     Davidson diagonalization with overlap

---- Real-time Memory Report at c_bands before calling an iterative solver
          1312 MiB given to the printing process from OS
             0 MiB allocation reported by mallinfo(arena+hblkhd)
         12831 MiB available memory on the node where the printing process lives
     GPU memory used/free/total (MiB): 1401 / 10512 / 11914
------------------
     ethr =  2.90E-05,  avg # of iterations =  6.4

     total cpu time spent up to now is       86.0 secs

     total energy              =    -263.34451134 Ry
     estimated scf accuracy    <       0.01920706 Ry
[tb_dev] Currently allocated     2.67E-05 Mbytes, locked:    0 /   1
[tb_pin] Currently allocated     0.00E+00 Mbytes, locked:    0 /   0

     iteration #  6     ecut=    80.00 Ry     beta= 0.40
     Davidson diagonalization with overlap

---- Real-time Memory Report at c_bands before calling an iterative solver
          1319 MiB given to the printing process from OS
             0 MiB allocation reported by mallinfo(arena+hblkhd)
         12815 MiB available memory on the node where the printing process lives
     GPU memory used/free/total (MiB): 1403 / 10510 / 11914
------------------
     ethr =  2.90E-05,  avg # of iterations =  4.0

     total cpu time spent up to now is       99.8 secs

     total energy              =    -263.34526855 Ry
     estimated scf accuracy    <       0.00281527 Ry
[tb_dev] Currently allocated     2.67E-05 Mbytes, locked:    0 /   1
[tb_pin] Currently allocated     0.00E+00 Mbytes, locked:    0 /   0

     iteration #  7     ecut=    80.00 Ry     beta= 0.40
     Davidson diagonalization with overlap

---- Real-time Memory Report at c_bands before calling an iterative solver
          1326 MiB given to the printing process from OS
             0 MiB allocation reported by mallinfo(arena+hblkhd)
         12808 MiB available memory on the node where the printing process lives
     GPU memory used/free/total (MiB): 1403 / 10510 / 11914
------------------
     ethr =  6.70E-06,  avg # of iterations =  6.8

     total cpu time spent up to now is      118.7 secs

     total energy              =    -263.34645224 Ry
     estimated scf accuracy    <       0.00371677 Ry
[tb_dev] Currently allocated     2.67E-05 Mbytes, locked:    0 /   1
[tb_pin] Currently allocated     0.00E+00 Mbytes, locked:    0 /   0

     iteration #  8     ecut=    80.00 Ry     beta= 0.40
     Davidson diagonalization with overlap

---- Real-time Memory Report at c_bands before calling an iterative solver
          1330 MiB given to the printing process from OS
             0 MiB allocation reported by mallinfo(arena+hblkhd)
         12806 MiB available memory on the node where the printing process lives
     GPU memory used/free/total (MiB): 1403 / 10510 / 11914
------------------
     ethr =  6.70E-06,  avg # of iterations =  1.7

     total cpu time spent up to now is      128.4 secs

     total energy              =    -263.34603847 Ry
     estimated scf accuracy    <       0.00195912 Ry
[tb_dev] Currently allocated     2.67E-05 Mbytes, locked:    0 /   1
[tb_pin] Currently allocated     0.00E+00 Mbytes, locked:    0 /   0

     iteration #  9     ecut=    80.00 Ry     beta= 0.40
     Davidson diagonalization with overlap

---- Real-time Memory Report at c_bands before calling an iterative solver
          1335 MiB given to the printing process from OS
             0 MiB allocation reported by mallinfo(arena+hblkhd)
         12809 MiB available memory on the node where the printing process lives
     GPU memory used/free/total (MiB): 1403 / 10510 / 11914
------------------
     ethr =  4.66E-06,  avg # of iterations =  5.2

     total cpu time spent up to now is      144.1 secs

     total energy              =    -263.34651360 Ry
     estimated scf accuracy    <       0.00020420 Ry
[tb_dev] Currently allocated     2.67E-05 Mbytes, locked:    0 /   1
[tb_pin] Currently allocated     0.00E+00 Mbytes, locked:    0 /   0

     iteration # 10     ecut=    80.00 Ry     beta= 0.40
     Davidson diagonalization with overlap

---- Real-time Memory Report at c_bands before calling an iterative solver
          1341 MiB given to the printing process from OS
             0 MiB allocation reported by mallinfo(arena+hblkhd)
         12804 MiB available memory on the node where the printing process lives
     GPU memory used/free/total (MiB): 1403 / 10510 / 11914
------------------
     ethr =  4.86E-07,  avg # of iterations =  4.9

     total cpu time spent up to now is      159.4 secs

     total energy              =    -263.34648608 Ry
     estimated scf accuracy    <       0.00042674 Ry
[tb_dev] Currently allocated     2.67E-05 Mbytes, locked:    0 /   1
[tb_pin] Currently allocated     0.00E+00 Mbytes, locked:    0 /   0

     iteration # 11     ecut=    80.00 Ry     beta= 0.40
     Davidson diagonalization with overlap

---- Real-time Memory Report at c_bands before calling an iterative solver
          1341 MiB given to the printing process from OS
             0 MiB allocation reported by mallinfo(arena+hblkhd)
         12803 MiB available memory on the node where the printing process lives
     GPU memory used/free/total (MiB): 1403 / 10510 / 11914
------------------
     ethr =  4.86E-07,  avg # of iterations =  3.7

     total cpu time spent up to now is      171.9 secs

     total energy              =    -263.34647197 Ry
     estimated scf accuracy    <       0.00008464 Ry
[tb_dev] Currently allocated     2.67E-05 Mbytes, locked:    0 /   1
[tb_pin] Currently allocated     0.00E+00 Mbytes, locked:    0 /   0

     iteration # 12     ecut=    80.00 Ry     beta= 0.40
     Davidson diagonalization with overlap

---- Real-time Memory Report at c_bands before calling an iterative solver
          1342 MiB given to the printing process from OS
             0 MiB allocation reported by mallinfo(arena+hblkhd)
         12795 MiB available memory on the node where the printing process lives
     GPU memory used/free/total (MiB): 1403 / 10510 / 11914
------------------
     ethr =  2.02E-07,  avg # of iterations =  7.6

     negative rho (up, down):  1.299E-07 0.000E+00

     total cpu time spent up to now is      191.5 secs

     total energy              =    -263.34651786 Ry
     estimated scf accuracy    <       0.00018369 Ry
[tb_dev] Currently allocated     2.67E-05 Mbytes, locked:    0 /   1
[tb_pin] Currently allocated     0.00E+00 Mbytes, locked:    0 /   0

     iteration # 13     ecut=    80.00 Ry     beta= 0.40
     Davidson diagonalization with overlap

---- Real-time Memory Report at c_bands before calling an iterative solver
          1342 MiB given to the printing process from OS
             0 MiB allocation reported by mallinfo(arena+hblkhd)
         12792 MiB available memory on the node where the printing process lives
     GPU memory used/free/total (MiB): 1403 / 10510 / 11914
------------------
     ethr =  2.02E-07,  avg # of iterations =  1.6

     negative rho (up, down):  9.086E-08 0.000E+00

     total cpu time spent up to now is      201.1 secs

     total energy              =    -263.34651208 Ry
     estimated scf accuracy    <       0.00012064 Ry
[tb_dev] Currently allocated     2.67E-05 Mbytes, locked:    0 /   1
[tb_pin] Currently allocated     0.00E+00 Mbytes, locked:    0 /   0

     iteration # 14     ecut=    80.00 Ry     beta= 0.40
     Davidson diagonalization with overlap

---- Real-time Memory Report at c_bands before calling an iterative solver
          1342 MiB given to the printing process from OS
             0 MiB allocation reported by mallinfo(arena+hblkhd)
         12793 MiB available memory on the node where the printing process lives
     GPU memory used/free/total (MiB): 1403 / 10510 / 11914
------------------
     ethr =  2.02E-07,  avg # of iterations =  1.0

     negative rho (up, down):  6.284E-08 0.000E+00

     total cpu time spent up to now is      209.7 secs

     total energy              =    -263.34652340 Ry
     estimated scf accuracy    <       0.00008964 Ry
[tb_dev] Currently allocated     2.67E-05 Mbytes, locked:    0 /   1
[tb_pin] Currently allocated     0.00E+00 Mbytes, locked:    0 /   0

     iteration # 15     ecut=    80.00 Ry     beta= 0.40
     Davidson diagonalization with overlap

---- Real-time Memory Report at c_bands before calling an iterative solver
          1343 MiB given to the printing process from OS
             0 MiB allocation reported by mallinfo(arena+hblkhd)
         12793 MiB available memory on the node where the printing process lives
     GPU memory used/free/total (MiB): 1403 / 10510 / 11914
------------------
     ethr =  2.02E-07,  avg # of iterations =  1.0

     negative rho (up, down):  2.835E-08 0.000E+00

     total cpu time spent up to now is      218.2 secs

     total energy              =    -263.34653548 Ry
     estimated scf accuracy    <       0.00010747 Ry
[tb_dev] Currently allocated     2.67E-05 Mbytes, locked:    0 /   1
[tb_pin] Currently allocated     0.00E+00 Mbytes, locked:    0 /   0

     iteration # 16     ecut=    80.00 Ry     beta= 0.40
     Davidson diagonalization with overlap

---- Real-time Memory Report at c_bands before calling an iterative solver
          1343 MiB given to the printing process from OS
             0 MiB allocation reported by mallinfo(arena+hblkhd)
         12796 MiB available memory on the node where the printing process lives
     GPU memory used/free/total (MiB): 1403 / 10510 / 11914
------------------
     ethr =  2.02E-07,  avg # of iterations =  1.0

     total cpu time spent up to now is      226.7 secs

     total energy              =    -263.34652535 Ry
     estimated scf accuracy    <       0.00015249 Ry
[tb_dev] Currently allocated     2.67E-05 Mbytes, locked:    0 /   1
[tb_pin] Currently allocated     0.00E+00 Mbytes, locked:    0 /   0

     iteration # 17     ecut=    80.00 Ry     beta= 0.40
     Davidson diagonalization with overlap

---- Real-time Memory Report at c_bands before calling an iterative solver
          1343 MiB given to the printing process from OS
             0 MiB allocation reported by mallinfo(arena+hblkhd)
         12801 MiB available memory on the node where the printing process lives
     GPU memory used/free/total (MiB): 1403 / 10510 / 11914
------------------
     ethr =  2.02E-07,  avg # of iterations =  1.0

     total cpu time spent up to now is      235.3 secs

     total energy              =    -263.34647395 Ry
     estimated scf accuracy    <       0.00013038 Ry
[tb_dev] Currently allocated     2.67E-05 Mbytes, locked:    0 /   1
[tb_pin] Currently allocated     0.00E+00 Mbytes, locked:    0 /   0

     iteration # 18     ecut=    80.00 Ry     beta= 0.40
     Davidson diagonalization with overlap

---- Real-time Memory Report at c_bands before calling an iterative solver
          1343 MiB given to the printing process from OS
             0 MiB allocation reported by mallinfo(arena+hblkhd)
         12802 MiB available memory on the node where the printing process lives
     GPU memory used/free/total (MiB): 1403 / 10510 / 11914
------------------
     ethr =  2.02E-07,  avg # of iterations =  6.8

     total cpu time spent up to now is      253.4 secs

     total energy              =    -263.34652871 Ry
     estimated scf accuracy    <       0.00010701 Ry
[tb_dev] Currently allocated     2.67E-05 Mbytes, locked:    0 /   1
[tb_pin] Currently allocated     0.00E+00 Mbytes, locked:    0 /   0

     iteration # 19     ecut=    80.00 Ry     beta= 0.40
     Davidson diagonalization with overlap

---- Real-time Memory Report at c_bands before calling an iterative solver
          1343 MiB given to the printing process from OS
             0 MiB allocation reported by mallinfo(arena+hblkhd)
         12818 MiB available memory on the node where the printing process lives
     GPU memory used/free/total (MiB): 1403 / 10510 / 11914
------------------
     ethr =  2.02E-07,  avg # of iterations =  1.0

     total cpu time spent up to now is      261.9 secs

     total energy              =    -263.34649218 Ry
     estimated scf accuracy    <       0.00011005 Ry
[tb_dev] Currently allocated     2.67E-05 Mbytes, locked:    0 /   1
[tb_pin] Currently allocated     0.00E+00 Mbytes, locked:    0 /   0

     iteration # 20     ecut=    80.00 Ry     beta= 0.40
     Davidson diagonalization with overlap

---- Real-time Memory Report at c_bands before calling an iterative solver
          1343 MiB given to the printing process from OS
             0 MiB allocation reported by mallinfo(arena+hblkhd)
         12815 MiB available memory on the node where the printing process lives
     GPU memory used/free/total (MiB): 1403 / 10510 / 11914
------------------
     ethr =  2.02E-07,  avg # of iterations =  5.1

     total cpu time spent up to now is      277.5 secs

     total energy              =    -263.34651139 Ry
     estimated scf accuracy    <       0.00000540 Ry
[tb_dev] Currently allocated     2.67E-05 Mbytes, locked:    0 /   1
[tb_pin] Currently allocated     0.00E+00 Mbytes, locked:    0 /   0

     iteration # 21     ecut=    80.00 Ry     beta= 0.40
     Davidson diagonalization with overlap

---- Real-time Memory Report at c_bands before calling an iterative solver
          1344 MiB given to the printing process from OS
             0 MiB allocation reported by mallinfo(arena+hblkhd)
         12815 MiB available memory on the node where the printing process lives
     GPU memory used/free/total (MiB): 1403 / 10510 / 11914
------------------
     ethr =  1.28E-08,  avg # of iterations =  5.3

     total cpu time spent up to now is      293.3 secs

     total energy              =    -263.34651334 Ry
     estimated scf accuracy    <       0.00000164 Ry
[tb_dev] Currently allocated     2.67E-05 Mbytes, locked:    0 /   1
[tb_pin] Currently allocated     0.00E+00 Mbytes, locked:    0 /   0

     iteration # 22     ecut=    80.00 Ry     beta= 0.40
     Davidson diagonalization with overlap

---- Real-time Memory Report at c_bands before calling an iterative solver
          1344 MiB given to the printing process from OS
             0 MiB allocation reported by mallinfo(arena+hblkhd)
         12812 MiB available memory on the node where the printing process lives
     GPU memory used/free/total (MiB): 1403 / 10510 / 11914
------------------
     ethr =  3.91E-09,  avg # of iterations =  7.8

     total cpu time spent up to now is      314.6 secs

     total energy              =    -263.34651472 Ry
     estimated scf accuracy    <       0.00001811 Ry
[tb_dev] Currently allocated     2.67E-05 Mbytes, locked:    0 /   1
[tb_pin] Currently allocated     0.00E+00 Mbytes, locked:    0 /   0

     iteration # 23     ecut=    80.00 Ry     beta= 0.40
     Davidson diagonalization with overlap

---- Real-time Memory Report at c_bands before calling an iterative solver
          1344 MiB given to the printing process from OS
             0 MiB allocation reported by mallinfo(arena+hblkhd)
         12808 MiB available memory on the node where the printing process lives
     GPU memory used/free/total (MiB): 1403 / 10510 / 11914
------------------
     ethr =  3.91E-09,  avg # of iterations =  1.0

     total cpu time spent up to now is      323.0 secs

     total energy              =    -263.34651430 Ry
     estimated scf accuracy    <       0.00001697 Ry
[tb_dev] Currently allocated     2.67E-05 Mbytes, locked:    0 /   1
[tb_pin] Currently allocated     0.00E+00 Mbytes, locked:    0 /   0

     iteration # 24     ecut=    80.00 Ry     beta= 0.40
     Davidson diagonalization with overlap

---- Real-time Memory Report at c_bands before calling an iterative solver
          1344 MiB given to the printing process from OS
             0 MiB allocation reported by mallinfo(arena+hblkhd)
         12807 MiB available memory on the node where the printing process lives
     GPU memory used/free/total (MiB): 1403 / 10510 / 11914
------------------
     ethr =  3.91E-09,  avg # of iterations =  2.5

     total cpu time spent up to now is      334.3 secs

     total energy              =    -263.34651177 Ry
     estimated scf accuracy    <       0.00001473 Ry
[tb_dev] Currently allocated     2.67E-05 Mbytes, locked:    0 /   1
[tb_pin] Currently allocated     0.00E+00 Mbytes, locked:    0 /   0

     iteration # 25     ecut=    80.00 Ry     beta= 0.40
     Davidson diagonalization with overlap

---- Real-time Memory Report at c_bands before calling an iterative solver
          1345 MiB given to the printing process from OS
             0 MiB allocation reported by mallinfo(arena+hblkhd)
         12809 MiB available memory on the node where the printing process lives
     GPU memory used/free/total (MiB): 1403 / 10510 / 11914
------------------
     ethr =  3.91E-09,  avg # of iterations =  7.7

     total cpu time spent up to now is      354.0 secs

     total energy              =    -263.34651287 Ry
     estimated scf accuracy    <       0.00000251 Ry
[tb_dev] Currently allocated     2.67E-05 Mbytes, locked:    0 /   1
[tb_pin] Currently allocated     0.00E+00 Mbytes, locked:    0 /   0

     iteration # 26     ecut=    80.00 Ry     beta= 0.40
     Davidson diagonalization with overlap

---- Real-time Memory Report at c_bands before calling an iterative solver
          1345 MiB given to the printing process from OS
             0 MiB allocation reported by mallinfo(arena+hblkhd)
         12821 MiB available memory on the node where the printing process lives
     GPU memory used/free/total (MiB): 1403 / 10510 / 11914
------------------
     ethr =  3.91E-09,  avg # of iterations =  2.2

     negative rho (up, down):  2.058E-07 0.000E+00

     total cpu time spent up to now is      365.1 secs

     total energy              =    -263.34651235 Ry
     estimated scf accuracy    <       0.00000144 Ry
[tb_dev] Currently allocated     2.67E-05 Mbytes, locked:    0 /   1
[tb_pin] Currently allocated     0.00E+00 Mbytes, locked:    0 /   0

     iteration # 27     ecut=    80.00 Ry     beta= 0.40
     Davidson diagonalization with overlap

---- Real-time Memory Report at c_bands before calling an iterative solver
          1345 MiB given to the printing process from OS
             0 MiB allocation reported by mallinfo(arena+hblkhd)
         12820 MiB available memory on the node where the printing process lives
     GPU memory used/free/total (MiB): 1403 / 10510 / 11914
------------------
     ethr =  3.43E-09,  avg # of iterations =  7.2

     negative rho (up, down):  1.244E-07 0.000E+00

     total cpu time spent up to now is      384.4 secs

     total energy              =    -263.34651257 Ry
     estimated scf accuracy    <       0.00000305 Ry
[tb_dev] Currently allocated     2.67E-05 Mbytes, locked:    0 /   1
[tb_pin] Currently allocated     0.00E+00 Mbytes, locked:    0 /   0

     iteration # 28     ecut=    80.00 Ry     beta= 0.40
     Davidson diagonalization with overlap

---- Real-time Memory Report at c_bands before calling an iterative solver
          1346 MiB given to the printing process from OS
             0 MiB allocation reported by mallinfo(arena+hblkhd)
         12838 MiB available memory on the node where the printing process lives
     GPU memory used/free/total (MiB): 1403 / 10510 / 11914
------------------
     ethr =  3.43E-09,  avg # of iterations =  5.6

     negative rho (up, down):  8.809E-08 0.000E+00

     total cpu time spent up to now is      400.3 secs

     total energy              =    -263.34651285 Ry
     estimated scf accuracy    <       0.00000008 Ry
[tb_dev] Currently allocated     2.67E-05 Mbytes, locked:    0 /   1
[tb_pin] Currently allocated     0.00E+00 Mbytes, locked:    0 /   0

     iteration # 29     ecut=    80.00 Ry     beta= 0.40
     Davidson diagonalization with overlap

---- Real-time Memory Report at c_bands before calling an iterative solver
          1346 MiB given to the printing process from OS
             0 MiB allocation reported by mallinfo(arena+hblkhd)
         12850 MiB available memory on the node where the printing process lives
     GPU memory used/free/total (MiB): 1403 / 10510 / 11914
------------------
     ethr =  1.90E-10,  avg # of iterations =  8.5

     negative rho (up, down):  5.070E-08 0.000E+00

     total cpu time spent up to now is      425.0 secs

     total energy              =    -263.34651290 Ry
     estimated scf accuracy    <       0.00000060 Ry
[tb_dev] Currently allocated     2.67E-05 Mbytes, locked:    0 /   1
[tb_pin] Currently allocated     0.00E+00 Mbytes, locked:    0 /   0

     iteration # 30     ecut=    80.00 Ry     beta= 0.40
     Davidson diagonalization with overlap

---- Real-time Memory Report at c_bands before calling an iterative solver
          1346 MiB given to the printing process from OS
             0 MiB allocation reported by mallinfo(arena+hblkhd)
         12852 MiB available memory on the node where the printing process lives
     GPU memory used/free/total (MiB): 1403 / 10510 / 11914
------------------
     ethr =  1.90E-10,  avg # of iterations =  5.5

     total cpu time spent up to now is      440.6 secs

     total energy              =    -263.34651290 Ry
     estimated scf accuracy    <       0.00000016 Ry
[tb_dev] Currently allocated     2.67E-05 Mbytes, locked:    0 /   1
[tb_pin] Currently allocated     0.00E+00 Mbytes, locked:    0 /   0

     iteration # 31     ecut=    80.00 Ry     beta= 0.40
     Davidson diagonalization with overlap

---- Real-time Memory Report at c_bands before calling an iterative solver
          1347 MiB given to the printing process from OS
             0 MiB allocation reported by mallinfo(arena+hblkhd)
         12845 MiB available memory on the node where the printing process lives
     GPU memory used/free/total (MiB): 1403 / 10510 / 11914
------------------
     ethr =  1.90E-10,  avg # of iterations =  2.3

     total cpu time spent up to now is      451.4 secs

     total energy              =    -263.34651290 Ry
     estimated scf accuracy    <       0.00000007 Ry
[tb_dev] Currently allocated     2.67E-05 Mbytes, locked:    0 /   1
[tb_pin] Currently allocated     0.00E+00 Mbytes, locked:    0 /   0

     iteration # 32     ecut=    80.00 Ry     beta= 0.40
     Davidson diagonalization with overlap

---- Real-time Memory Report at c_bands before calling an iterative solver
          1347 MiB given to the printing process from OS
             0 MiB allocation reported by mallinfo(arena+hblkhd)
         12845 MiB available memory on the node where the printing process lives
     GPU memory used/free/total (MiB): 1403 / 10510 / 11914
------------------
     ethr =  1.64E-10,  avg # of iterations =  5.9

     total cpu time spent up to now is      467.7 secs

     total energy              =    -263.34651291 Ry
     estimated scf accuracy    <          8.4E-09 Ry
[tb_dev] Currently allocated     2.67E-05 Mbytes, locked:    0 /   1
[tb_pin] Currently allocated     0.00E+00 Mbytes, locked:    0 /   0

     iteration # 33     ecut=    80.00 Ry     beta= 0.40
     Davidson diagonalization with overlap

---- Real-time Memory Report at c_bands before calling an iterative solver
          1347 MiB given to the printing process from OS
             0 MiB allocation reported by mallinfo(arena+hblkhd)
         12851 MiB available memory on the node where the printing process lives
     GPU memory used/free/total (MiB): 1403 / 10510 / 11914
------------------
     ethr =  2.01E-11,  avg # of iterations =  3.4

     total cpu time spent up to now is      479.9 secs

     total energy              =    -263.34651291 Ry
     estimated scf accuracy    <       0.00000001 Ry
[tb_dev] Currently allocated     2.67E-05 Mbytes, locked:    0 /   1
[tb_pin] Currently allocated     0.00E+00 Mbytes, locked:    0 /   0

     iteration # 34     ecut=    80.00 Ry     beta= 0.40
     Davidson diagonalization with overlap

---- Real-time Memory Report at c_bands before calling an iterative solver
          1347 MiB given to the printing process from OS
             0 MiB allocation reported by mallinfo(arena+hblkhd)
         12845 MiB available memory on the node where the printing process lives
     GPU memory used/free/total (MiB): 1403 / 10510 / 11914
------------------
     ethr =  2.01E-11,  avg # of iterations =  1.0

     total cpu time spent up to now is      488.3 secs

     total energy              =    -263.34651291 Ry
     estimated scf accuracy    <          9.5E-09 Ry
[tb_dev] Currently allocated     2.67E-05 Mbytes, locked:    0 /   1
[tb_pin] Currently allocated     0.00E+00 Mbytes, locked:    0 /   0

     iteration # 35     ecut=    80.00 Ry     beta= 0.40
     Davidson diagonalization with overlap

---- Real-time Memory Report at c_bands before calling an iterative solver
          1347 MiB given to the printing process from OS
             0 MiB allocation reported by mallinfo(arena+hblkhd)
         12846 MiB available memory on the node where the printing process lives
     GPU memory used/free/total (MiB): 1403 / 10510 / 11914
------------------
     ethr =  2.01E-11,  avg # of iterations =  1.1

     total cpu time spent up to now is      497.1 secs

     total energy              =    -263.34651291 Ry
     estimated scf accuracy    <          7.3E-09 Ry
[tb_dev] Currently allocated     2.67E-05 Mbytes, locked:    0 /   1
[tb_pin] Currently allocated     0.00E+00 Mbytes, locked:    0 /   0

     iteration # 36     ecut=    80.00 Ry     beta= 0.40
     Davidson diagonalization with overlap

---- Real-time Memory Report at c_bands before calling an iterative solver
          1348 MiB given to the printing process from OS
             0 MiB allocation reported by mallinfo(arena+hblkhd)
         12845 MiB available memory on the node where the printing process lives
     GPU memory used/free/total (MiB): 1403 / 10510 / 11914
------------------
     ethr =  1.74E-11,  avg # of iterations =  1.3

     total cpu time spent up to now is      506.1 secs

     total energy              =    -263.34651291 Ry
     estimated scf accuracy    <          5.0E-09 Ry
[tb_dev] Currently allocated     2.67E-05 Mbytes, locked:    0 /   1
[tb_pin] Currently allocated     0.00E+00 Mbytes, locked:    0 /   0

     iteration # 37     ecut=    80.00 Ry     beta= 0.40
     Davidson diagonalization with overlap

---- Real-time Memory Report at c_bands before calling an iterative solver
          1348 MiB given to the printing process from OS
             0 MiB allocation reported by mallinfo(arena+hblkhd)
         12849 MiB available memory on the node where the printing process lives
     GPU memory used/free/total (MiB): 1403 / 10510 / 11914
------------------
     ethr =  1.20E-11,  avg # of iterations =  5.0

     total cpu time spent up to now is      521.4 secs

     total energy              =    -263.34651291 Ry
     estimated scf accuracy    <          2.9E-10 Ry
[tb_dev] Currently allocated     2.67E-05 Mbytes, locked:    0 /   1
[tb_pin] Currently allocated     0.00E+00 Mbytes, locked:    0 /   0

     iteration # 38     ecut=    80.00 Ry     beta= 0.40
     Davidson diagonalization with overlap

---- Real-time Memory Report at c_bands before calling an iterative solver
          1348 MiB given to the printing process from OS
             0 MiB allocation reported by mallinfo(arena+hblkhd)
         12858 MiB available memory on the node where the printing process lives
     GPU memory used/free/total (MiB): 1403 / 10510 / 11914
------------------
     ethr =  6.79E-13,  avg # of iterations =  9.0

     total cpu time spent up to now is      543.6 secs

     total energy              =    -263.34651291 Ry
     estimated scf accuracy    <          3.7E-10 Ry
[tb_dev] Currently allocated     2.67E-05 Mbytes, locked:    0 /   1
[tb_pin] Currently allocated     0.00E+00 Mbytes, locked:    0 /   0

     iteration # 39     ecut=    80.00 Ry     beta= 0.40
     Davidson diagonalization with overlap

---- Real-time Memory Report at c_bands before calling an iterative solver
          1348 MiB given to the printing process from OS
             0 MiB allocation reported by mallinfo(arena+hblkhd)
         12850 MiB available memory on the node where the printing process lives
     GPU memory used/free/total (MiB): 1403 / 10510 / 11914
------------------
     ethr =  6.79E-13,  avg # of iterations =  3.6

     total cpu time spent up to now is      556.5 secs

     End of self-consistent calculation

          k = 0.0000 0.0000 0.0000 ( 14377 PWs)   bands (ev):

   -77.8837 -49.0811 -49.0810 -49.0592 -24.7428 -24.6667 -21.9421 -20.5444
   -14.1717 -11.5654  -9.6048  -9.2828  -9.2824  -9.2304  -9.2300  -8.8908
    -8.8906  -7.6592  -7.5930  -7.5915  -5.4773

     occupation numbers 
     1.0000   1.0000   1.0000   1.0000   1.0000   1.0000   1.0000   1.0000
     1.0000   1.0000   1.0000   1.0000   1.0000   1.0000   1.0000   1.0000
     1.0000   1.0000   1.0000   1.0000   1.0000

          k = 0.0000 0.1050 0.0000 ( 14487 PWs)   bands (ev):

   -77.8805 -49.1050 -49.0865 -49.0548 -24.5967 -24.5229 -21.8280 -20.4817
   -14.0523 -11.5102 -10.0062  -9.8975  -9.4100  -9.3764  -9.3650  -9.1520
    -8.8016  -7.9148  -7.7418  -7.4273  -5.5827

     occupation numbers 
     1.0000   1.0000   1.0000   1.0000   1.0000   1.0000   1.0000   1.0000
     1.0000   1.0000   1.0000   1.0000   1.0000   1.0000   1.0000   1.0000
     1.0000   1.0000   1.0000   1.0000   1.0000

          k = 0.0000 0.2099 0.0000 ( 14515 PWs)   bands (ev):

   -77.8721 -49.1690 -49.1010 -49.0430 -24.1706 -24.1030 -21.5131 -20.3114
   -13.7575 -11.5329 -11.3022 -11.1998  -9.7853  -9.7450  -9.7364  -9.1455
    -8.5352  -8.3209  -8.0988  -7.5356  -5.9494

     occupation numbers 
     1.0000   1.0000   1.0000   1.0000   1.0000   1.0000   1.0000   1.0000
     1.0000   1.0000   1.0000   1.0000   1.0000   1.0000   1.0000   1.0000
     1.0000   1.0000   1.0000   1.0000   1.0000

          k = 0.0000 0.3149 0.0000 ( 14491 PWs)   bands (ev):

   -77.8610 -49.2520 -49.1199 -49.0276 -23.5073 -23.4495 -21.0854 -20.0927
   -13.7237 -13.0626 -12.5184 -11.1737 -10.4877 -10.1567 -10.1400  -8.9756
    -8.7848  -8.5128  -8.1451  -7.7350  -6.3462

     occupation numbers 
     1.0000   1.0000   1.0000   1.0000   1.0000   1.0000   1.0000   1.0000
     1.0000   1.0000   1.0000   1.0000   1.0000   1.0000   1.0000   1.0000
     1.0000   1.0000   1.0000   1.0000   1.0000

          k = 0.0000 0.4199 0.0000 ( 14415 PWs)   bands (ev):

   -77.8508 -49.3276 -49.1373 -49.0134 -22.7123 -22.6670 -20.7050 -19.9346
   -14.7757 -14.5150 -12.5410 -11.3403 -10.9437 -10.4995 -10.4695  -9.4090
    -8.8369  -8.5471  -7.8209  -7.7716  -6.4769

     occupation numbers 
     1.0000   1.0000   1.0000   1.0000   1.0000   1.0000   1.0000   1.0000
     1.0000   1.0000   1.0000   1.0000   1.0000   1.0000   1.0000   1.0000
     1.0000   1.0000   1.0000   1.0000   1.0000

          k = 0.0000 0.5249 0.0000 ( 14394 PWs)   bands (ev):

   -77.8447 -49.3721 -49.1476 -49.0049 -22.0544 -22.0223 -20.5503 -19.9302
   -15.6309 -15.3991 -12.3661 -11.7313 -11.0988 -10.6884 -10.6517  -9.5808
    -9.0158  -8.2838  -7.8354  -7.5338  -6.4349

     occupation numbers 
     1.0000   1.0000   1.0000   1.0000   1.0000   1.0000   1.0000   1.0000
     1.0000   1.0000   1.0000   1.0000   1.0000   1.0000   1.0000   1.0000
     1.0000   1.0000   1.0000   1.0000   1.0000

          k = 0.0000-0.5249 0.0000 ( 14394 PWs)   bands (ev):

   -77.8447 -49.3721 -49.1476 -49.0049 -22.0544 -22.0223 -20.5503 -19.9302
   -15.6309 -15.3991 -12.3661 -11.7313 -11.0988 -10.6884 -10.6517  -9.5808
    -9.0158  -8.2838  -7.8354  -7.5338  -6.4349

     occupation numbers 
     1.0000   1.0000   1.0000   1.0000   1.0000   1.0000   1.0000   1.0000
     1.0000   1.0000   1.0000   1.0000   1.0000   1.0000   1.0000   1.0000
     1.0000   1.0000   1.0000   1.0000   1.0000

          k = 0.0000-0.4199 0.0000 ( 14415 PWs)   bands (ev):

   -77.8508 -49.3276 -49.1373 -49.0134 -22.7123 -22.6670 -20.7050 -19.9346
   -14.7757 -14.5150 -12.5410 -11.3403 -10.9437 -10.4995 -10.4695  -9.4090
    -8.8369  -8.5471  -7.8209  -7.7716  -6.4769

     occupation numbers 
     1.0000   1.0000   1.0000   1.0000   1.0000   1.0000   1.0000   1.0000
     1.0000   1.0000   1.0000   1.0000   1.0000   1.0000   1.0000   1.0000
     1.0000   1.0000   1.0000   1.0000   1.0000

          k = 0.0000-0.3149 0.0000 ( 14491 PWs)   bands (ev):

   -77.8610 -49.2520 -49.1199 -49.0276 -23.5073 -23.4495 -21.0854 -20.0927
   -13.7237 -13.0626 -12.5184 -11.1737 -10.4877 -10.1567 -10.1400  -8.9756
    -8.7848  -8.5128  -8.1451  -7.7350  -6.3462

     occupation numbers 
     1.0000   1.0000   1.0000   1.0000   1.0000   1.0000   1.0000   1.0000
     1.0000   1.0000   1.0000   1.0000   1.0000   1.0000   1.0000   1.0000
     1.0000   1.0000   1.0000   1.0000   1.0000

          k = 0.0000-0.2099 0.0000 ( 14515 PWs)   bands (ev):

   -77.8721 -49.1690 -49.1010 -49.0430 -24.1706 -24.1030 -21.5131 -20.3114
   -13.7575 -11.5329 -11.3022 -11.1998  -9.7853  -9.7450  -9.7364  -9.1455
    -8.5352  -8.3209  -8.0988  -7.5356  -5.9494

     occupation numbers 
     1.0000   1.0000   1.0000   1.0000   1.0000   1.0000   1.0000   1.0000
     1.0000   1.0000   1.0000   1.0000   1.0000   1.0000   1.0000   1.0000
     1.0000   1.0000   1.0000   1.0000   1.0000

          k = 0.0000-0.1050 0.0000 ( 14487 PWs)   bands (ev):

   -77.8805 -49.1050 -49.0865 -49.0548 -24.5967 -24.5229 -21.8280 -20.4817
   -14.0523 -11.5102 -10.0062  -9.8975  -9.4100  -9.3764  -9.3650  -9.1520
    -8.8016  -7.9148  -7.7418  -7.4273  -5.5827

     occupation numbers 
     1.0000   1.0000   1.0000   1.0000   1.0000   1.0000   1.0000   1.0000
     1.0000   1.0000   1.0000   1.0000   1.0000   1.0000   1.0000   1.0000
     1.0000   1.0000   1.0000   1.0000   1.0000

          k = 0.0909 0.0525 0.0000 ( 14487 PWs)   bands (ev):

   -77.8805 -49.1050 -49.0865 -49.0548 -24.5967 -24.5229 -21.8280 -20.4817
   -14.0523 -11.5102 -10.0062  -9.8975  -9.4100  -9.3764  -9.3650  -9.1521
    -8.8016  -7.9148  -7.7418  -7.4273  -5.5827

     occupation numbers 
     1.0000   1.0000   1.0000   1.0000   1.0000   1.0000   1.0000   1.0000
     1.0000   1.0000   1.0000   1.0000   1.0000   1.0000   1.0000   1.0000
     1.0000   1.0000   1.0000   1.0000   1.0000

          k = 0.0909 0.1575 0.0000 ( 14505 PWs)   bands (ev):

   -77.8747 -49.1475 -49.0979 -49.0467 -24.3104 -24.2409 -21.6132 -20.3649
   -13.8420 -11.4344 -10.8585 -10.8379  -9.8626  -9.7263  -9.4443  -9.2069
    -8.6497  -8.1570  -8.0759  -7.4104  -5.8285

     occupation numbers 
     1.0000   1.0000   1.0000   1.0000   1.0000   1.0000   1.0000   1.0000
     1.0000   1.0000   1.0000   1.0000   1.0000   1.0000   1.0000   1.0000
     1.0000   1.0000   1.0000   1.0000   1.0000

          k = 0.0909 0.2624 0.0000 ( 14487 PWs)   bands (ev):

   -77.8650 -49.2174 -49.1182 -49.0331 -23.7641 -23.7024 -21.2398 -20.1678
   -13.6021 -12.3421 -12.0697 -11.1877 -10.5137 -10.2806  -9.9444  -8.9758
    -8.8267  -8.3727  -8.2095  -7.5973  -6.2261

     occupation numbers 
     1.0000   1.0000   1.0000   1.0000   1.0000   1.0000   1.0000   1.0000
     1.0000   1.0000   1.0000   1.0000   1.0000   1.0000   1.0000   1.0000
     1.0000   1.0000   1.0000   1.0000   1.0000

          k = 0.0909 0.3674 0.0000 ( 14420 PWs)   bands (ev):

   -77.8543 -49.2926 -49.1404 -49.0183 -23.0261 -22.9754 -20.8292 -19.9723
   -14.1651 -13.8128 -12.5582 -11.2357 -10.9573 -10.7568 -10.4812  -9.4740
    -8.7229  -8.4111  -8.0891  -7.7738  -6.4653

     occupation numbers 
     1.0000   1.0000   1.0000   1.0000   1.0000   1.0000   1.0000   1.0000
     1.0000   1.0000   1.0000   1.0000   1.0000   1.0000   1.0000   1.0000
     1.0000   1.0000   1.0000   1.0000   1.0000

          k = 0.0909 0.4724 0.0000 ( 14395 PWs)   bands (ev):

   -77.8462 -49.3495 -49.1574 -49.0069 -22.2636 -22.2263 -20.5627 -19.8941
   -15.2049 -14.9678 -12.3898 -11.6354 -11.1853 -10.9368 -10.9030  -9.7144
    -8.8766  -8.3352  -7.9827  -7.7062  -6.4222

     occupation numbers 
     1.0000   1.0000   1.0000   1.0000   1.0000   1.0000   1.0000   1.0000
     1.0000   1.0000   1.0000   1.0000   1.0000   1.0000   1.0000   1.0000
     1.0000   1.0000   1.0000   1.0000   1.0000

          k = 0.0909 0.5774 0.0000 ( 14402 PWs)   bands (ev):

   -77.8432 -49.3705 -49.1637 -49.0027 -21.8818 -21.8521 -20.5166 -19.9212
   -15.6467 -15.4148 -12.2791 -11.8373 -11.2561 -11.1491 -10.9790  -9.6771
    -9.0684  -8.1950  -7.9351  -7.6690  -6.3478

     occupation numbers 
     1.0000   1.0000   1.0000   1.0000   1.0000   1.0000   1.0000   1.0000
     1.0000   1.0000   1.0000   1.0000   1.0000   1.0000   1.0000   1.0000
     1.0000   1.0000   1.0000   1.0000   1.0000

          k = 0.0909-0.4724 0.0000 ( 14395 PWs)   bands (ev):

   -77.8462 -49.3494 -49.1574 -49.0069 -22.2636 -22.2263 -20.5628 -19.8940
   -15.2050 -14.9678 -12.3898 -11.6354 -11.1852 -10.9370 -10.9030  -9.7140
    -8.8769  -8.3352  -7.9829  -7.7062  -6.4220

     occupation numbers 
     1.0000   1.0000   1.0000   1.0000   1.0000   1.0000   1.0000   1.0000
     1.0000   1.0000   1.0000   1.0000   1.0000   1.0000   1.0000   1.0000
     1.0000   1.0000   1.0000   1.0000   1.0000

          k = 0.0909-0.3674 0.0000 ( 14420 PWs)   bands (ev):

   -77.8543 -49.2926 -49.1404 -49.0183 -23.0261 -22.9754 -20.8292 -19.9722
   -14.1652 -13.8128 -12.5583 -11.2357 -10.9572 -10.7567 -10.4813  -9.4739
    -8.7229  -8.4110  -8.0893  -7.7740  -6.4650

     occupation numbers 
     1.0000   1.0000   1.0000   1.0000   1.0000   1.0000   1.0000   1.0000
     1.0000   1.0000   1.0000   1.0000   1.0000   1.0000   1.0000   1.0000
     1.0000   1.0000   1.0000   1.0000   1.0000

          k = 0.0909-0.2624 0.0000 ( 14487 PWs)   bands (ev):

   -77.8650 -49.2174 -49.1182 -49.0331 -23.7641 -23.7024 -21.2399 -20.1678
   -13.6022 -12.3421 -12.0698 -11.1876 -10.5136 -10.2804  -9.9445  -8.9758
    -8.8271  -8.3726  -8.2089  -7.5978  -6.2259

     occupation numbers 
     1.0000   1.0000   1.0000   1.0000   1.0000   1.0000   1.0000   1.0000
     1.0000   1.0000   1.0000   1.0000   1.0000   1.0000   1.0000   1.0000
     1.0000   1.0000   1.0000   1.0000   1.0000

          k = 0.0909-0.1575 0.0000 ( 14505 PWs)   bands (ev):

   -77.8747 -49.1476 -49.0978 -49.0467 -24.3104 -24.2409 -21.6132 -20.3648
   -13.8421 -11.4343 -10.8591 -10.8378  -9.8625  -9.7260  -9.4445  -9.2069
    -8.6495  -8.1575  -8.0752  -7.4107  -5.8283

     occupation numbers 
     1.0000   1.0000   1.0000   1.0000   1.0000   1.0000   1.0000   1.0000
     1.0000   1.0000   1.0000   1.0000   1.0000   1.0000   1.0000   1.0000
     1.0000   1.0000   1.0000   1.0000   1.0000

          k = 0.0909-0.0525 0.0000 ( 14487 PWs)   bands (ev):

   -77.8805 -49.1050 -49.0864 -49.0548 -24.5967 -24.5229 -21.8280 -20.4816
   -14.0523 -11.5102 -10.0063  -9.8978  -9.4097  -9.3762  -9.3651  -9.1522
    -8.8014  -7.9140  -7.7428  -7.4271  -5.5826

     occupation numbers 
     1.0000   1.0000   1.0000   1.0000   1.0000   1.0000   1.0000   1.0000
     1.0000   1.0000   1.0000   1.0000   1.0000   1.0000   1.0000   1.0000
     1.0000   1.0000   1.0000   1.0000   1.0000

          k = 0.1818 0.1050 0.0000 ( 14515 PWs)   bands (ev):

   -77.8721 -49.1690 -49.1010 -49.0430 -24.1706 -24.1031 -21.5131 -20.3114
   -13.7575 -11.5329 -11.3022 -11.1998  -9.7853  -9.7450  -9.7364  -9.1455
    -8.5352  -8.3209  -8.0988  -7.5356  -5.9494

     occupation numbers 
     1.0000   1.0000   1.0000   1.0000   1.0000   1.0000   1.0000   1.0000
     1.0000   1.0000   1.0000   1.0000   1.0000   1.0000   1.0000   1.0000
     1.0000   1.0000   1.0000   1.0000   1.0000

          k = 0.1818 0.2099 0.0000 ( 14487 PWs)   bands (ev):

   -77.8650 -49.2174 -49.1182 -49.0331 -23.7641 -23.7024 -21.2398 -20.1678
   -13.6021 -12.3421 -12.0697 -11.1877 -10.5137 -10.2806  -9.9444  -8.9758
    -8.8267  -8.3727  -8.2095  -7.5973  -6.2261

     occupation numbers 
     1.0000   1.0000   1.0000   1.0000   1.0000   1.0000   1.0000   1.0000
     1.0000   1.0000   1.0000   1.0000   1.0000   1.0000   1.0000   1.0000
     1.0000   1.0000   1.0000   1.0000   1.0000

          k = 0.1818 0.3149 0.0000 ( 14433 PWs)   bands (ev):

   -77.8556 -49.2728 -49.1485 -49.0201 -23.1375 -23.0850 -20.8782 -19.9878
   -13.8434 -13.3546 -12.4434 -11.4388 -11.2902 -10.9226 -10.3353  -9.5980
    -8.7367  -8.3854  -8.0476  -7.8122  -6.4611

     occupation numbers 
     1.0000   1.0000   1.0000   1.0000   1.0000   1.0000   1.0000   1.0000
     1.0000   1.0000   1.0000   1.0000   1.0000   1.0000   1.0000   1.0000
     1.0000   1.0000   1.0000   1.0000   1.0000

          k = 0.1818 0.4199 0.0000 ( 14391 PWs)   bands (ev):

   -77.8471 -49.3194 -49.1801 -49.0081 -22.4003 -22.3594 -20.5716 -19.8633
   -14.6228 -14.3476 -12.3966 -12.1175 -11.9493 -10.8883 -10.7262 -10.0447
    -8.6909  -8.5716  -8.1595  -7.7607  -6.4270

     occupation numbers 
     1.0000   1.0000   1.0000   1.0000   1.0000   1.0000   1.0000   1.0000
     1.0000   1.0000   1.0000   1.0000   1.0000   1.0000   1.0000   1.0000
     1.0000   1.0000   1.0000   1.0000   1.0000

          k = 0.1818 0.5249 0.0000 ( 14387 PWs)   bands (ev):

   -77.8420 -49.3458 -49.2001 -49.0010 -21.8090 -21.7785 -20.4574 -19.8610
   -15.2506 -15.0133 -12.6338 -12.4569 -11.7850 -11.2324 -11.0455  -9.8625
    -9.0718  -8.7003  -8.1151  -7.5921  -6.2448

     occupation numbers 
     1.0000   1.0000   1.0000   1.0000   1.0000   1.0000   1.0000   1.0000
     1.0000   1.0000   1.0000   1.0000   1.0000   1.0000   1.0000   1.0000
     1.0000   1.0000   1.0000   1.0000   1.0000

          k = 0.1818 0.6298 0.0000 ( 14387 PWs)   bands (ev):

   -77.8420 -49.3458 -49.2001 -49.0010 -21.8090 -21.7785 -20.4574 -19.8610
   -15.2506 -15.0133 -12.6337 -12.4569 -11.7850 -11.2325 -11.0457  -9.8621
    -9.0721  -8.7003  -8.1152  -7.5921  -6.2446

     occupation numbers 
     1.0000   1.0000   1.0000   1.0000   1.0000   1.0000   1.0000   1.0000
     1.0000   1.0000   1.0000   1.0000   1.0000   1.0000   1.0000   1.0000
     1.0000   1.0000   1.0000   1.0000   1.0000

          k = 0.1818-0.4199 0.0000 ( 14391 PWs)   bands (ev):

   -77.8471 -49.3194 -49.1801 -49.0081 -22.4003 -22.3594 -20.5716 -19.8632
   -14.6229 -14.3476 -12.3966 -12.1173 -11.9493 -10.8886 -10.7264 -10.0443
    -8.6908  -8.5717  -8.1600  -7.7608  -6.4266

     occupation numbers 
     1.0000   1.0000   1.0000   1.0000   1.0000   1.0000   1.0000   1.0000
     1.0000   1.0000   1.0000   1.0000   1.0000   1.0000   1.0000   1.0000
     1.0000   1.0000   1.0000   1.0000   1.0000

          k = 0.1818-0.3149 0.0000 ( 14433 PWs)   bands (ev):

   -77.8556 -49.2728 -49.1484 -49.0201 -23.1375 -23.0850 -20.8782 -19.9878
   -13.8435 -13.3547 -12.4434 -11.4386 -11.2900 -10.9224 -10.3355  -9.5982
    -8.7367  -8.3853  -8.0475  -7.8127  -6.4606

     occupation numbers 
     1.0000   1.0000   1.0000   1.0000   1.0000   1.0000   1.0000   1.0000
     1.0000   1.0000   1.0000   1.0000   1.0000   1.0000   1.0000   1.0000
     1.0000   1.0000   1.0000   1.0000   1.0000

          k = 0.1818-0.2099 0.0000 ( 14487 PWs)   bands (ev):

   -77.8650 -49.2174 -49.1182 -49.0331 -23.7640 -23.7024 -21.2399 -20.1678
   -13.6022 -12.3422 -12.0699 -11.1875 -10.5136 -10.2803  -9.9445  -8.9758
    -8.8271  -8.3726  -8.2092  -7.5977  -6.2257

     occupation numbers 
     1.0000   1.0000   1.0000   1.0000   1.0000   1.0000   1.0000   1.0000
     1.0000   1.0000   1.0000   1.0000   1.0000   1.0000   1.0000   1.0000
     1.0000   1.0000   1.0000   1.0000   1.0000

          k = 0.1818-0.1050 0.0000 ( 14515 PWs)   bands (ev):

   -77.8721 -49.1690 -49.1009 -49.0430 -24.1705 -24.1030 -21.5131 -20.3114
   -13.7576 -11.5329 -11.3026 -11.1997  -9.7855  -9.7442  -9.7366  -9.1455
    -8.5350  -8.3203  -8.0996  -7.5357  -5.9491

     occupation numbers 
     1.0000   1.0000   1.0000   1.0000   1.0000   1.0000   1.0000   1.0000
     1.0000   1.0000   1.0000   1.0000   1.0000   1.0000   1.0000   1.0000
     1.0000   1.0000   1.0000   1.0000   1.0000

          k = 0.1818-0.0000 0.0000 ( 14505 PWs)   bands (ev):

   -77.8747 -49.1476 -49.0978 -49.0467 -24.3104 -24.2409 -21.6132 -20.3648
   -13.8421 -11.4343 -10.8591 -10.8378  -9.8625  -9.7260  -9.4444  -9.2069
    -8.6495  -8.1575  -8.0752  -7.4107  -5.8283

     occupation numbers 
     1.0000   1.0000   1.0000   1.0000   1.0000   1.0000   1.0000   1.0000
     1.0000   1.0000   1.0000   1.0000   1.0000   1.0000   1.0000   1.0000
     1.0000   1.0000   1.0000   1.0000   1.0000

          k = 0.2727 0.1575 0.0000 ( 14491 PWs)   bands (ev):

   -77.8610 -49.2520 -49.1199 -49.0276 -23.5073 -23.4495 -21.0854 -20.0927
   -13.7237 -13.0626 -12.5184 -11.1737 -10.4877 -10.1567 -10.1400  -8.9756
    -8.7848  -8.5128  -8.1451  -7.7350  -6.3462

     occupation numbers 
     1.0000   1.0000   1.0000   1.0000   1.0000   1.0000   1.0000   1.0000
     1.0000   1.0000   1.0000   1.0000   1.0000   1.0000   1.0000   1.0000
     1.0000   1.0000   1.0000   1.0000   1.0000

          k = 0.2727 0.2624 0.0000 ( 14420 PWs)   bands (ev):

   -77.8543 -49.2926 -49.1404 -49.0183 -23.0261 -22.9754 -20.8292 -19.9723
   -14.1651 -13.8128 -12.5582 -11.2357 -10.9573 -10.7568 -10.4812  -9.4740
    -8.7229  -8.4111  -8.0891  -7.7738  -6.4653

     occupation numbers 
     1.0000   1.0000   1.0000   1.0000   1.0000   1.0000   1.0000   1.0000
     1.0000   1.0000   1.0000   1.0000   1.0000   1.0000   1.0000   1.0000
     1.0000   1.0000   1.0000   1.0000   1.0000

          k = 0.2727 0.3674 0.0000 ( 14391 PWs)   bands (ev):

   -77.8471 -49.3194 -49.1801 -49.0081 -22.4003 -22.3594 -20.5715 -19.8633
   -14.6228 -14.3476 -12.3966 -12.1175 -11.9493 -10.8883 -10.7262 -10.0447
    -8.6909  -8.5716  -8.1595  -7.7607  -6.4270

     occupation numbers 
     1.0000   1.0000   1.0000   1.0000   1.0000   1.0000   1.0000   1.0000
     1.0000   1.0000   1.0000   1.0000   1.0000   1.0000   1.0000   1.0000
     1.0000   1.0000   1.0000   1.0000   1.0000

          k = 0.2727 0.4724 0.0000 ( 14360 PWs)   bands (ev):

   -77.8415 -49.3245 -49.2258 -49.0004 -21.7970 -21.7657 -20.4263 -19.8250
   -14.8583 -14.5918 -13.2284 -13.0939 -11.8460 -11.0876 -10.8172 -10.0396
    -9.3703  -8.8176  -8.1345  -7.5714  -6.2052

     occupation numbers 
     1.0000   1.0000   1.0000   1.0000   1.0000   1.0000   1.0000   1.0000
     1.0000   1.0000   1.0000   1.0000   1.0000   1.0000   1.0000   1.0000
     1.0000   1.0000   1.0000   1.0000   1.0000

          k = 0.2727 0.5774 0.0000 ( 14374 PWs)   bands (ev):

   -77.8394 -49.3188 -49.2505 -48.9975 -21.5216 -21.4900 -20.4060 -19.8363
   -14.8910 -14.6193 -13.6682 -13.5724 -11.5376 -11.2636 -10.9040  -9.9390
    -9.6064  -9.1378  -8.0622  -7.4719  -6.0526

     occupation numbers 
     1.0000   1.0000   1.0000   1.0000   1.0000   1.0000   1.0000   1.0000
     1.0000   1.0000   1.0000   1.0000   1.0000   1.0000   1.0000   1.0000
     1.0000   1.0000   1.0000   1.0000   1.0000

          k = 0.2727 0.6823 0.0000 ( 14360 PWs)   bands (ev):

   -77.8415 -49.3246 -49.2258 -49.0004 -21.7969 -21.7657 -20.4264 -19.8250
   -14.8584 -14.5919 -13.2282 -13.0939 -11.8461 -11.0878 -10.8175 -10.0391
    -9.3702  -8.8178  -8.1348  -7.5715  -6.2050

     occupation numbers 
     1.0000   1.0000   1.0000   1.0000   1.0000   1.0000   1.0000   1.0000
     1.0000   1.0000   1.0000   1.0000   1.0000   1.0000   1.0000   1.0000
     1.0000   1.0000   1.0000   1.0000   1.0000

          k = 0.2727-0.3674 0.0000 ( 14391 PWs)   bands (ev):

   -77.8471 -49.3194 -49.1801 -49.0081 -22.4003 -22.3594 -20.5717 -19.8632
   -14.6230 -14.3476 -12.3966 -12.1172 -11.9494 -10.8884 -10.7263 -10.0445
    -8.6908  -8.5717  -8.1601  -7.7606  -6.4266

     occupation numbers 
     1.0000   1.0000   1.0000   1.0000   1.0000   1.0000   1.0000   1.0000
     1.0000   1.0000   1.0000   1.0000   1.0000   1.0000   1.0000   1.0000
     1.0000   1.0000   1.0000   1.0000   1.0000

          k = 0.2727-0.2624 0.0000 ( 14420 PWs)   bands (ev):

   -77.8543 -49.2926 -49.1404 -49.0183 -23.0261 -22.9754 -20.8293 -19.9722
   -14.1653 -13.8129 -12.5583 -11.2355 -10.9573 -10.7564 -10.4813  -9.4741
    -8.7230  -8.4114  -8.0892  -7.7738  -6.4647

     occupation numbers 
     1.0000   1.0000   1.0000   1.0000   1.0000   1.0000   1.0000   1.0000
     1.0000   1.0000   1.0000   1.0000   1.0000   1.0000   1.0000   1.0000
     1.0000   1.0000   1.0000   1.0000   1.0000

          k = 0.2727-0.1575 0.0000 ( 14491 PWs)   bands (ev):

   -77.8610 -49.2520 -49.1199 -49.0276 -23.5073 -23.4495 -21.0855 -20.0927
   -13.7238 -13.0627 -12.5184 -11.1735 -10.4878 -10.1562 -10.1401  -8.9755
    -8.7849  -8.5134  -8.1451  -7.7349  -6.3457

     occupation numbers 
     1.0000   1.0000   1.0000   1.0000   1.0000   1.0000   1.0000   1.0000
     1.0000   1.0000   1.0000   1.0000   1.0000   1.0000   1.0000   1.0000
     1.0000   1.0000   1.0000   1.0000   1.0000

          k = 0.2727-0.0525 0.0000 ( 14487 PWs)   bands (ev):

   -77.8650 -49.2174 -49.1182 -49.0331 -23.7641 -23.7024 -21.2399 -20.1678
   -13.6022 -12.3422 -12.0699 -11.1875 -10.5136 -10.2803  -9.9445  -8.9758
    -8.8271  -8.3726  -8.2092  -7.5977  -6.2257

     occupation numbers 
     1.0000   1.0000   1.0000   1.0000   1.0000   1.0000   1.0000   1.0000
     1.0000   1.0000   1.0000   1.0000   1.0000   1.0000   1.0000   1.0000
     1.0000   1.0000   1.0000   1.0000   1.0000

          k = 0.2727 0.0525 0.0000 ( 14487 PWs)   bands (ev):

   -77.8650 -49.2174 -49.1182 -49.0331 -23.7641 -23.7024 -21.2399 -20.1678
   -13.6022 -12.3421 -12.0698 -11.1876 -10.5136 -10.2804  -9.9444  -8.9758
    -8.8271  -8.3726  -8.2089  -7.5978  -6.2259

     occupation numbers 
     1.0000   1.0000   1.0000   1.0000   1.0000   1.0000   1.0000   1.0000
     1.0000   1.0000   1.0000   1.0000   1.0000   1.0000   1.0000   1.0000
     1.0000   1.0000   1.0000   1.0000   1.0000

          k = 0.3636 0.2099 0.0000 ( 14415 PWs)   bands (ev):

   -77.8508 -49.3276 -49.1373 -49.0134 -22.7123 -22.6670 -20.7050 -19.9346
   -14.7757 -14.5150 -12.5410 -11.3403 -10.9437 -10.4995 -10.4695  -9.4090
    -8.8369  -8.5471  -7.8209  -7.7716  -6.4769

     occupation numbers 
     1.0000   1.0000   1.0000   1.0000   1.0000   1.0000   1.0000   1.0000
     1.0000   1.0000   1.0000   1.0000   1.0000   1.0000   1.0000   1.0000
     1.0000   1.0000   1.0000   1.0000   1.0000

          k = 0.3636 0.3149 0.0000 ( 14395 PWs)   bands (ev):

   -77.8462 -49.3495 -49.1574 -49.0069 -22.2636 -22.2263 -20.5627 -19.8940
   -15.2049 -14.9678 -12.3898 -11.6354 -11.1853 -10.9368 -10.9030  -9.7145
    -8.8766  -8.3351  -7.9827  -7.7062  -6.4222

     occupation numbers 
     1.0000   1.0000   1.0000   1.0000   1.0000   1.0000   1.0000   1.0000
     1.0000   1.0000   1.0000   1.0000   1.0000   1.0000   1.0000   1.0000
     1.0000   1.0000   1.0000   1.0000   1.0000

          k = 0.3636 0.4199 0.0000 ( 14387 PWs)   bands (ev):

   -77.8420 -49.3458 -49.2001 -49.0010 -21.8090 -21.7785 -20.4574 -19.8610
   -15.2506 -15.0133 -12.6338 -12.4569 -11.7850 -11.2324 -11.0455  -9.8625
    -9.0718  -8.7003  -8.1151  -7.5921  -6.2448

     occupation numbers 
     1.0000   1.0000   1.0000   1.0000   1.0000   1.0000   1.0000   1.0000
     1.0000   1.0000   1.0000   1.0000   1.0000   1.0000   1.0000   1.0000
     1.0000   1.0000   1.0000   1.0000   1.0000

          k = 0.3636 0.5249 0.0000 ( 14374 PWs)   bands (ev):

   -77.8394 -49.3188 -49.2505 -48.9975 -21.5216 -21.4900 -20.4060 -19.8363
   -14.8910 -14.6193 -13.6682 -13.5724 -11.5376 -11.2636 -10.9040  -9.9390
    -9.6064  -9.1378  -8.0622  -7.4719  -6.0526

     occupation numbers 
     1.0000   1.0000   1.0000   1.0000   1.0000   1.0000   1.0000   1.0000
     1.0000   1.0000   1.0000   1.0000   1.0000   1.0000   1.0000   1.0000
     1.0000   1.0000   1.0000   1.0000   1.0000

          k = 0.3636 0.6298 0.0000 ( 14374 PWs)   bands (ev):

   -77.8394 -49.3188 -49.2505 -48.9975 -21.5215 -21.4900 -20.4061 -19.8363
   -14.8911 -14.6193 -13.6680 -13.5724 -11.5377 -11.2636 -10.9042  -9.9389
    -9.6062  -9.1380  -8.0623  -7.4719  -6.0525

     occupation numbers 
     1.0000   1.0000   1.0000   1.0000   1.0000   1.0000   1.0000   1.0000
     1.0000   1.0000   1.0000   1.0000   1.0000   1.0000   1.0000   1.0000
     1.0000   1.0000   1.0000   1.0000   1.0000

          k = 0.3636 0.7348 0.0000 ( 14387 PWs)   bands (ev):

   -77.8420 -49.3458 -49.2001 -49.0010 -21.8089 -21.7785 -20.4575 -19.8610
   -15.2507 -15.0133 -12.6336 -12.4568 -11.7851 -11.2325 -11.0456  -9.8622
    -9.0719  -8.7004  -8.1154  -7.5920  -6.2445

     occupation numbers 
     1.0000   1.0000   1.0000   1.0000   1.0000   1.0000   1.0000   1.0000
     1.0000   1.0000   1.0000   1.0000   1.0000   1.0000   1.0000   1.0000
     1.0000   1.0000   1.0000   1.0000   1.0000

          k = 0.3636-0.3149 0.0000 ( 14395 PWs)   bands (ev):

   -77.8462 -49.3495 -49.1574 -49.0069 -22.2635 -22.2263 -20.5629 -19.8940
   -15.2051 -14.9678 -12.3900 -11.6354 -11.1852 -10.9370 -10.9025  -9.7143
    -8.8770  -8.3354  -7.9828  -7.7062  -6.4218

     occupation numbers 
     1.0000   1.0000   1.0000   1.0000   1.0000   1.0000   1.0000   1.0000
     1.0000   1.0000   1.0000   1.0000   1.0000   1.0000   1.0000   1.0000
     1.0000   1.0000   1.0000   1.0000   1.0000

          k = 0.3636-0.2099 0.0000 ( 14415 PWs)   bands (ev):

   -77.8508 -49.3276 -49.1372 -49.0134 -22.7122 -22.6669 -20.7051 -19.9345
   -14.7758 -14.5150 -12.5412 -11.3403 -10.9436 -10.4992 -10.4694  -9.4090
    -8.8374  -8.5473  -7.8208  -7.7716  -6.4764

     occupation numbers 
     1.0000   1.0000   1.0000   1.0000   1.0000   1.0000   1.0000   1.0000
     1.0000   1.0000   1.0000   1.0000   1.0000   1.0000   1.0000   1.0000
     1.0000   1.0000   1.0000   1.0000   1.0000

          k = 0.3636-0.1050 0.0000 ( 14420 PWs)   bands (ev):

   -77.8543 -49.2926 -49.1404 -49.0183 -23.0261 -22.9754 -20.8293 -19.9722
   -14.1653 -13.8129 -12.5583 -11.2355 -10.9573 -10.7564 -10.4813  -9.4741
    -8.7230  -8.4114  -8.0892  -7.7738  -6.4647

     occupation numbers 
     1.0000   1.0000   1.0000   1.0000   1.0000   1.0000   1.0000   1.0000
     1.0000   1.0000   1.0000   1.0000   1.0000   1.0000   1.0000   1.0000
     1.0000   1.0000   1.0000   1.0000   1.0000

          k = 0.3636 0.0000 0.0000 ( 14433 PWs)   bands (ev):

   -77.8556 -49.2728 -49.1484 -49.0201 -23.1375 -23.0850 -20.8782 -19.9878
   -13.8435 -13.3547 -12.4434 -11.4386 -11.2900 -10.9224 -10.3355  -9.5982
    -8.7367  -8.3853  -8.0475  -7.8127  -6.4606

     occupation numbers 
     1.0000   1.0000   1.0000   1.0000   1.0000   1.0000   1.0000   1.0000
     1.0000   1.0000   1.0000   1.0000   1.0000   1.0000   1.0000   1.0000
     1.0000   1.0000   1.0000   1.0000   1.0000

          k = 0.3636 0.1050 0.0000 ( 14420 PWs)   bands (ev):

   -77.8543 -49.2926 -49.1404 -49.0183 -23.0261 -22.9754 -20.8292 -19.9722
   -14.1652 -13.8128 -12.5583 -11.2357 -10.9572 -10.7567 -10.4813  -9.4739
    -8.7229  -8.4110  -8.0893  -7.7740  -6.4650

     occupation numbers 
     1.0000   1.0000   1.0000   1.0000   1.0000   1.0000   1.0000   1.0000
     1.0000   1.0000   1.0000   1.0000   1.0000   1.0000   1.0000   1.0000
     1.0000   1.0000   1.0000   1.0000   1.0000

          k = 0.4545 0.2624 0.0000 ( 14394 PWs)   bands (ev):

   -77.8447 -49.3721 -49.1476 -49.0049 -22.0544 -22.0223 -20.5503 -19.9302
   -15.6309 -15.3991 -12.3661 -11.7313 -11.0988 -10.6884 -10.6517  -9.5808
    -9.0158  -8.2838  -7.8354  -7.5338  -6.4349

     occupation numbers 
     1.0000   1.0000   1.0000   1.0000   1.0000   1.0000   1.0000   1.0000
     1.0000   1.0000   1.0000   1.0000   1.0000   1.0000   1.0000   1.0000
     1.0000   1.0000   1.0000   1.0000   1.0000

          k = 0.4545 0.3674 0.0000 ( 14402 PWs)   bands (ev):

   -77.8432 -49.3705 -49.1637 -49.0027 -21.8818 -21.8521 -20.5166 -19.9212
   -15.6467 -15.4148 -12.2791 -11.8373 -11.2561 -11.1491 -10.9790  -9.6771
    -9.0684  -8.1950  -7.9351  -7.6690  -6.3478

     occupation numbers 
     1.0000   1.0000   1.0000   1.0000   1.0000   1.0000   1.0000   1.0000
     1.0000   1.0000   1.0000   1.0000   1.0000   1.0000   1.0000   1.0000
     1.0000   1.0000   1.0000   1.0000   1.0000

          k = 0.4545 0.4724 0.0000 ( 14387 PWs)   bands (ev):

   -77.8420 -49.3458 -49.2001 -49.0010 -21.8090 -21.7785 -20.4574 -19.8610
   -15.2506 -15.0133 -12.6337 -12.4569 -11.7850 -11.2325 -11.0457  -9.8621
    -9.0721  -8.7003  -8.1152  -7.5921  -6.2446

     occupation numbers 
     1.0000   1.0000   1.0000   1.0000   1.0000   1.0000   1.0000   1.0000
     1.0000   1.0000   1.0000   1.0000   1.0000   1.0000   1.0000   1.0000
     1.0000   1.0000   1.0000   1.0000   1.0000

          k = 0.4545 0.5774 0.0000 ( 14360 PWs)   bands (ev):

   -77.8415 -49.3246 -49.2258 -49.0004 -21.7969 -21.7657 -20.4264 -19.8250
   -14.8584 -14.5919 -13.2282 -13.0939 -11.8461 -11.0878 -10.8175 -10.0391
    -9.3702  -8.8178  -8.1347  -7.5715  -6.2050

     occupation numbers 
     1.0000   1.0000   1.0000   1.0000   1.0000   1.0000   1.0000   1.0000
     1.0000   1.0000   1.0000   1.0000   1.0000   1.0000   1.0000   1.0000
     1.0000   1.0000   1.0000   1.0000   1.0000

          k = 0.4545 0.6823 0.0000 ( 14387 PWs)   bands (ev):

   -77.8420 -49.3458 -49.2001 -49.0010 -21.8089 -21.7785 -20.4575 -19.8610
   -15.2507 -15.0133 -12.6336 -12.4568 -11.7852 -11.2325 -11.0456  -9.8622
    -9.0719  -8.7004  -8.1154  -7.5920  -6.2445

     occupation numbers 
     1.0000   1.0000   1.0000   1.0000   1.0000   1.0000   1.0000   1.0000
     1.0000   1.0000   1.0000   1.0000   1.0000   1.0000   1.0000   1.0000
     1.0000   1.0000   1.0000   1.0000   1.0000

          k = 0.4545 0.7873 0.0000 ( 14402 PWs)   bands (ev):

   -77.8432 -49.3706 -49.1637 -49.0027 -21.8816 -21.8521 -20.5168 -19.9212
   -15.6468 -15.4147 -12.2793 -11.8373 -11.2559 -11.1495 -10.9786  -9.6770
    -9.0687  -8.1952  -7.9353  -7.6690  -6.3475

     occupation numbers 
     1.0000   1.0000   1.0000   1.0000   1.0000   1.0000   1.0000   1.0000
     1.0000   1.0000   1.0000   1.0000   1.0000   1.0000   1.0000   1.0000
     1.0000   1.0000   1.0000   1.0000   1.0000

          k = 0.4545-0.2624 0.0000 ( 14394 PWs)   bands (ev):

   -77.8447 -49.3721 -49.1475 -49.0049 -22.0542 -22.0223 -20.5505 -19.9302
   -15.6310 -15.3991 -12.3663 -11.7314 -11.0986 -10.6881 -10.6516  -9.5807
    -9.0163  -8.2840  -7.8354  -7.5340  -6.4344

     occupation numbers 
     1.0000   1.0000   1.0000   1.0000   1.0000   1.0000   1.0000   1.0000
     1.0000   1.0000   1.0000   1.0000   1.0000   1.0000   1.0000   1.0000
     1.0000   1.0000   1.0000   1.0000   1.0000

          k = 0.4545-0.1575 0.0000 ( 14395 PWs)   bands (ev):

   -77.8462 -49.3495 -49.1574 -49.0069 -22.2635 -22.2263 -20.5629 -19.8940
   -15.2051 -14.9678 -12.3900 -11.6354 -11.1852 -10.9370 -10.9025  -9.7143
    -8.8770  -8.3354  -7.9828  -7.7062  -6.4218

     occupation numbers 
     1.0000   1.0000   1.0000   1.0000   1.0000   1.0000   1.0000   1.0000
     1.0000   1.0000   1.0000   1.0000   1.0000   1.0000   1.0000   1.0000
     1.0000   1.0000   1.0000   1.0000   1.0000

          k = 0.4545-0.0525 0.0000 ( 14391 PWs)   bands (ev):

   -77.8471 -49.3194 -49.1801 -49.0081 -22.4003 -22.3594 -20.5717 -19.8632
   -14.6230 -14.3476 -12.3966 -12.1172 -11.9494 -10.8884 -10.7263 -10.0445
    -8.6908  -8.5717  -8.1601  -7.7606  -6.4266

     occupation numbers 
     1.0000   1.0000   1.0000   1.0000   1.0000   1.0000   1.0000   1.0000
     1.0000   1.0000   1.0000   1.0000   1.0000   1.0000   1.0000   1.0000
     1.0000   1.0000   1.0000   1.0000   1.0000

          k = 0.4545 0.0525 0.0000 ( 14391 PWs)   bands (ev):

   -77.8471 -49.3194 -49.1801 -49.0081 -22.4003 -22.3594 -20.5716 -19.8632
   -14.6229 -14.3476 -12.3966 -12.1173 -11.9493 -10.8885 -10.7264 -10.0443
    -8.6909  -8.5717  -8.1600  -7.7608  -6.4266

     occupation numbers 
     1.0000   1.0000   1.0000   1.0000   1.0000   1.0000   1.0000   1.0000
     1.0000   1.0000   1.0000   1.0000   1.0000   1.0000   1.0000   1.0000
     1.0000   1.0000   1.0000   1.0000   1.0000

          k = 0.4545 0.1575 0.0000 ( 14395 PWs)   bands (ev):

   -77.8462 -49.3494 -49.1574 -49.0069 -22.2636 -22.2263 -20.5628 -19.8940
   -15.2050 -14.9678 -12.3898 -11.6354 -11.1852 -10.9370 -10.9030  -9.7140
    -8.8769  -8.3352  -7.9829  -7.7062  -6.4220

     occupation numbers 
     1.0000   1.0000   1.0000   1.0000   1.0000   1.0000   1.0000   1.0000
     1.0000   1.0000   1.0000   1.0000   1.0000   1.0000   1.0000   1.0000
     1.0000   1.0000   1.0000   1.0000   1.0000

          k =-0.4545-0.2624 0.0000 ( 14394 PWs)   bands (ev):

   -77.8447 -49.3721 -49.1476 -49.0049 -22.0544 -22.0223 -20.5503 -19.9302
   -15.6309 -15.3991 -12.3661 -11.7313 -11.0988 -10.6884 -10.6517  -9.5808
    -9.0158  -8.2838  -7.8354  -7.5338  -6.4349

     occupation numbers 
     1.0000   1.0000   1.0000   1.0000   1.0000   1.0000   1.0000   1.0000
     1.0000   1.0000   1.0000   1.0000   1.0000   1.0000   1.0000   1.0000
     1.0000   1.0000   1.0000   1.0000   1.0000

          k =-0.4545-0.1575 0.0000 ( 14395 PWs)   bands (ev):

   -77.8462 -49.3494 -49.1574 -49.0069 -22.2636 -22.2263 -20.5628 -19.8940
   -15.2050 -14.9678 -12.3898 -11.6354 -11.1852 -10.9370 -10.9030  -9.7140
    -8.8769  -8.3352  -7.9829  -7.7062  -6.4220

     occupation numbers 
     1.0000   1.0000   1.0000   1.0000   1.0000   1.0000   1.0000   1.0000
     1.0000   1.0000   1.0000   1.0000   1.0000   1.0000   1.0000   1.0000
     1.0000   1.0000   1.0000   1.0000   1.0000

          k =-0.4545-0.0525 0.0000 ( 14391 PWs)   bands (ev):

   -77.8471 -49.3194 -49.1801 -49.0081 -22.4003 -22.3594 -20.5716 -19.8632
   -14.6229 -14.3476 -12.3966 -12.1173 -11.9493 -10.8885 -10.7264 -10.0443
    -8.6909  -8.5717  -8.1600  -7.7608  -6.4266

     occupation numbers 
     1.0000   1.0000   1.0000   1.0000   1.0000   1.0000   1.0000   1.0000
     1.0000   1.0000   1.0000   1.0000   1.0000   1.0000   1.0000   1.0000
     1.0000   1.0000   1.0000   1.0000   1.0000

          k =-0.4545 0.0525 0.0000 ( 14391 PWs)   bands (ev):

   -77.8471 -49.3194 -49.1801 -49.0081 -22.4003 -22.3594 -20.5717 -19.8632
   -14.6230 -14.3476 -12.3966 -12.1172 -11.9494 -10.8884 -10.7263 -10.0445
    -8.6908  -8.5717  -8.1601  -7.7606  -6.4266

     occupation numbers 
     1.0000   1.0000   1.0000   1.0000   1.0000   1.0000   1.0000   1.0000
     1.0000   1.0000   1.0000   1.0000   1.0000   1.0000   1.0000   1.0000
     1.0000   1.0000   1.0000   1.0000   1.0000

          k =-0.4545 0.1575 0.0000 ( 14395 PWs)   bands (ev):

   -77.8462 -49.3495 -49.1574 -49.0069 -22.2635 -22.2263 -20.5629 -19.8940
   -15.2051 -14.9678 -12.3900 -11.6354 -11.1852 -10.9370 -10.9025  -9.7143
    -8.8770  -8.3354  -7.9828  -7.7062  -6.4218

     occupation numbers 
     1.0000   1.0000   1.0000   1.0000   1.0000   1.0000   1.0000   1.0000
     1.0000   1.0000   1.0000   1.0000   1.0000   1.0000   1.0000   1.0000
     1.0000   1.0000   1.0000   1.0000   1.0000

          k =-0.4545 0.2624 0.0000 ( 14394 PWs)   bands (ev):

   -77.8447 -49.3721 -49.1475 -49.0049 -22.0542 -22.0223 -20.5505 -19.9302
   -15.6310 -15.3991 -12.3663 -11.7314 -11.0986 -10.6881 -10.6516  -9.5807
    -9.0163  -8.2840  -7.8354  -7.5340  -6.4344

     occupation numbers 
     1.0000   1.0000   1.0000   1.0000   1.0000   1.0000   1.0000   1.0000
     1.0000   1.0000   1.0000   1.0000   1.0000   1.0000   1.0000   1.0000
     1.0000   1.0000   1.0000   1.0000   1.0000

          k =-0.4545-0.7873 0.0000 ( 14402 PWs)   bands (ev):

   -77.8432 -49.3706 -49.1637 -49.0027 -21.8816 -21.8521 -20.5168 -19.9212
   -15.6468 -15.4147 -12.2793 -11.8373 -11.2559 -11.1495 -10.9786  -9.6770
    -9.0687  -8.1952  -7.9353  -7.6690  -6.3475

     occupation numbers 
     1.0000   1.0000   1.0000   1.0000   1.0000   1.0000   1.0000   1.0000
     1.0000   1.0000   1.0000   1.0000   1.0000   1.0000   1.0000   1.0000
     1.0000   1.0000   1.0000   1.0000   1.0000

          k =-0.4545-0.6823 0.0000 ( 14387 PWs)   bands (ev):

   -77.8420 -49.3458 -49.2001 -49.0010 -21.8089 -21.7785 -20.4575 -19.8610
   -15.2507 -15.0133 -12.6336 -12.4568 -11.7852 -11.2325 -11.0456  -9.8622
    -9.0719  -8.7004  -8.1154  -7.5920  -6.2445

     occupation numbers 
     1.0000   1.0000   1.0000   1.0000   1.0000   1.0000   1.0000   1.0000
     1.0000   1.0000   1.0000   1.0000   1.0000   1.0000   1.0000   1.0000
     1.0000   1.0000   1.0000   1.0000   1.0000

          k =-0.4545-0.5774 0.0000 ( 14360 PWs)   bands (ev):

   -77.8415 -49.3246 -49.2258 -49.0004 -21.7969 -21.7657 -20.4264 -19.8250
   -14.8584 -14.5919 -13.2282 -13.0939 -11.8461 -11.0878 -10.8175 -10.0391
    -9.3702  -8.8178  -8.1347  -7.5715  -6.2050

     occupation numbers 
     1.0000   1.0000   1.0000   1.0000   1.0000   1.0000   1.0000   1.0000
     1.0000   1.0000   1.0000   1.0000   1.0000   1.0000   1.0000   1.0000
     1.0000   1.0000   1.0000   1.0000   1.0000

          k =-0.4545-0.4724 0.0000 ( 14387 PWs)   bands (ev):

   -77.8420 -49.3458 -49.2001 -49.0010 -21.8090 -21.7785 -20.4574 -19.8610
   -15.2506 -15.0133 -12.6337 -12.4569 -11.7850 -11.2325 -11.0457  -9.8621
    -9.0721  -8.7003  -8.1152  -7.5921  -6.2446

     occupation numbers 
     1.0000   1.0000   1.0000   1.0000   1.0000   1.0000   1.0000   1.0000
     1.0000   1.0000   1.0000   1.0000   1.0000   1.0000   1.0000   1.0000
     1.0000   1.0000   1.0000   1.0000   1.0000

          k =-0.4545-0.3674 0.0000 ( 14402 PWs)   bands (ev):

   -77.8432 -49.3705 -49.1637 -49.0027 -21.8818 -21.8521 -20.5166 -19.9212
   -15.6467 -15.4148 -12.2791 -11.8373 -11.2561 -11.1491 -10.9790  -9.6771
    -9.0684  -8.1950  -7.9351  -7.6690  -6.3478

     occupation numbers 
     1.0000   1.0000   1.0000   1.0000   1.0000   1.0000   1.0000   1.0000
     1.0000   1.0000   1.0000   1.0000   1.0000   1.0000   1.0000   1.0000
     1.0000   1.0000   1.0000   1.0000   1.0000

          k =-0.3636-0.2099 0.0000 ( 14415 PWs)   bands (ev):

   -77.8508 -49.3276 -49.1373 -49.0134 -22.7123 -22.6670 -20.7050 -19.9346
   -14.7757 -14.5150 -12.5410 -11.3403 -10.9437 -10.4995 -10.4695  -9.4090
    -8.8369  -8.5471  -7.8209  -7.7716  -6.4769

     occupation numbers 
     1.0000   1.0000   1.0000   1.0000   1.0000   1.0000   1.0000   1.0000
     1.0000   1.0000   1.0000   1.0000   1.0000   1.0000   1.0000   1.0000
     1.0000   1.0000   1.0000   1.0000   1.0000

          k =-0.3636-0.1050 0.0000 ( 14420 PWs)   bands (ev):

   -77.8543 -49.2926 -49.1404 -49.0183 -23.0261 -22.9754 -20.8292 -19.9722
   -14.1652 -13.8128 -12.5583 -11.2357 -10.9572 -10.7567 -10.4813  -9.4739
    -8.7229  -8.4110  -8.0893  -7.7740  -6.4650

     occupation numbers 
     1.0000   1.0000   1.0000   1.0000   1.0000   1.0000   1.0000   1.0000
     1.0000   1.0000   1.0000   1.0000   1.0000   1.0000   1.0000   1.0000
     1.0000   1.0000   1.0000   1.0000   1.0000

          k =-0.3636 0.0000 0.0000 ( 14433 PWs)   bands (ev):

   -77.8556 -49.2728 -49.1484 -49.0201 -23.1375 -23.0850 -20.8782 -19.9878
   -13.8435 -13.3547 -12.4434 -11.4386 -11.2900 -10.9224 -10.3355  -9.5982
    -8.7367  -8.3853  -8.0475  -7.8127  -6.4606

     occupation numbers 
     1.0000   1.0000   1.0000   1.0000   1.0000   1.0000   1.0000   1.0000
     1.0000   1.0000   1.0000   1.0000   1.0000   1.0000   1.0000   1.0000
     1.0000   1.0000   1.0000   1.0000   1.0000

          k =-0.3636 0.1050 0.0000 ( 14420 PWs)   bands (ev):

   -77.8543 -49.2926 -49.1404 -49.0183 -23.0261 -22.9754 -20.8293 -19.9722
   -14.1653 -13.8129 -12.5583 -11.2355 -10.9573 -10.7564 -10.4813  -9.4741
    -8.7230  -8.4114  -8.0892  -7.7738  -6.4647

     occupation numbers 
     1.0000   1.0000   1.0000   1.0000   1.0000   1.0000   1.0000   1.0000
     1.0000   1.0000   1.0000   1.0000   1.0000   1.0000   1.0000   1.0000
     1.0000   1.0000   1.0000   1.0000   1.0000

          k =-0.3636 0.2099 0.0000 ( 14415 PWs)   bands (ev):

   -77.8508 -49.3276 -49.1372 -49.0134 -22.7122 -22.6669 -20.7051 -19.9345
   -14.7758 -14.5150 -12.5412 -11.3403 -10.9436 -10.4992 -10.4694  -9.4090
    -8.8374  -8.5473  -7.8208  -7.7716  -6.4764

     occupation numbers 
     1.0000   1.0000   1.0000   1.0000   1.0000   1.0000   1.0000   1.0000
     1.0000   1.0000   1.0000   1.0000   1.0000   1.0000   1.0000   1.0000
     1.0000   1.0000   1.0000   1.0000   1.0000

          k =-0.3636 0.3149 0.0000 ( 14395 PWs)   bands (ev):

   -77.8462 -49.3495 -49.1574 -49.0069 -22.2635 -22.2263 -20.5629 -19.8940
   -15.2051 -14.9678 -12.3900 -11.6354 -11.1852 -10.9370 -10.9025  -9.7143
    -8.8770  -8.3354  -7.9828  -7.7062  -6.4218

     occupation numbers 
     1.0000   1.0000   1.0000   1.0000   1.0000   1.0000   1.0000   1.0000
     1.0000   1.0000   1.0000   1.0000   1.0000   1.0000   1.0000   1.0000
     1.0000   1.0000   1.0000   1.0000   1.0000

          k =-0.3636-0.7348 0.0000 ( 14387 PWs)   bands (ev):

   -77.8420 -49.3458 -49.2001 -49.0010 -21.8089 -21.7785 -20.4575 -19.8610
   -15.2507 -15.0133 -12.6336 -12.4568 -11.7851 -11.2325 -11.0456  -9.8622
    -9.0719  -8.7004  -8.1154  -7.5920  -6.2445

     occupation numbers 
     1.0000   1.0000   1.0000   1.0000   1.0000   1.0000   1.0000   1.0000
     1.0000   1.0000   1.0000   1.0000   1.0000   1.0000   1.0000   1.0000
     1.0000   1.0000   1.0000   1.0000   1.0000

          k =-0.3636-0.6298 0.0000 ( 14374 PWs)   bands (ev):

   -77.8394 -49.3188 -49.2505 -48.9975 -21.5215 -21.4900 -20.4061 -19.8363
   -14.8911 -14.6193 -13.6680 -13.5724 -11.5377 -11.2636 -10.9042  -9.9389
    -9.6062  -9.1380  -8.0623  -7.4719  -6.0525

     occupation numbers 
     1.0000   1.0000   1.0000   1.0000   1.0000   1.0000   1.0000   1.0000
     1.0000   1.0000   1.0000   1.0000   1.0000   1.0000   1.0000   1.0000
     1.0000   1.0000   1.0000   1.0000   1.0000

          k =-0.3636-0.5249 0.0000 ( 14374 PWs)   bands (ev):

   -77.8394 -49.3188 -49.2505 -48.9975 -21.5216 -21.4900 -20.4060 -19.8363
   -14.8910 -14.6193 -13.6682 -13.5724 -11.5376 -11.2636 -10.9040  -9.9390
    -9.6064  -9.1378  -8.0622  -7.4719  -6.0526

     occupation numbers 
     1.0000   1.0000   1.0000   1.0000   1.0000   1.0000   1.0000   1.0000
     1.0000   1.0000   1.0000   1.0000   1.0000   1.0000   1.0000   1.0000
     1.0000   1.0000   1.0000   1.0000   1.0000

          k =-0.3636-0.4199 0.0000 ( 14387 PWs)   bands (ev):

   -77.8420 -49.3458 -49.2001 -49.0010 -21.8090 -21.7785 -20.4574 -19.8610
   -15.2506 -15.0133 -12.6338 -12.4569 -11.7850 -11.2324 -11.0455  -9.8625
    -9.0718  -8.7003  -8.1151  -7.5921  -6.2448

     occupation numbers 
     1.0000   1.0000   1.0000   1.0000   1.0000   1.0000   1.0000   1.0000
     1.0000   1.0000   1.0000   1.0000   1.0000   1.0000   1.0000   1.0000
     1.0000   1.0000   1.0000   1.0000   1.0000

          k =-0.3636-0.3149 0.0000 ( 14395 PWs)   bands (ev):

   -77.8462 -49.3495 -49.1574 -49.0069 -22.2636 -22.2263 -20.5627 -19.8940
   -15.2049 -14.9678 -12.3898 -11.6354 -11.1853 -10.9368 -10.9030  -9.7145
    -8.8766  -8.3351  -7.9827  -7.7062  -6.4222

     occupation numbers 
     1.0000   1.0000   1.0000   1.0000   1.0000   1.0000   1.0000   1.0000
     1.0000   1.0000   1.0000   1.0000   1.0000   1.0000   1.0000   1.0000
     1.0000   1.0000   1.0000   1.0000   1.0000

          k =-0.2727-0.1575 0.0000 ( 14491 PWs)   bands (ev):

   -77.8610 -49.2520 -49.1199 -49.0276 -23.5073 -23.4495 -21.0854 -20.0927
   -13.7237 -13.0626 -12.5184 -11.1737 -10.4877 -10.1567 -10.1400  -8.9756
    -8.7848  -8.5128  -8.1451  -7.7350  -6.3462

     occupation numbers 
     1.0000   1.0000   1.0000   1.0000   1.0000   1.0000   1.0000   1.0000
     1.0000   1.0000   1.0000   1.0000   1.0000   1.0000   1.0000   1.0000
     1.0000   1.0000   1.0000   1.0000   1.0000

          k =-0.2727-0.0525 0.0000 ( 14487 PWs)   bands (ev):

   -77.8650 -49.2174 -49.1182 -49.0331 -23.7641 -23.7024 -21.2399 -20.1678
   -13.6022 -12.3421 -12.0698 -11.1876 -10.5136 -10.2804  -9.9444  -8.9758
    -8.8271  -8.3726  -8.2089  -7.5978  -6.2259

     occupation numbers 
     1.0000   1.0000   1.0000   1.0000   1.0000   1.0000   1.0000   1.0000
     1.0000   1.0000   1.0000   1.0000   1.0000   1.0000   1.0000   1.0000
     1.0000   1.0000   1.0000   1.0000   1.0000

          k =-0.2727 0.0525 0.0000 ( 14487 PWs)   bands (ev):

   -77.8650 -49.2174 -49.1182 -49.0331 -23.7641 -23.7024 -21.2399 -20.1678
   -13.6022 -12.3422 -12.0699 -11.1875 -10.5136 -10.2803  -9.9445  -8.9758
    -8.8271  -8.3726  -8.2092  -7.5977  -6.2257

     occupation numbers 
     1.0000   1.0000   1.0000   1.0000   1.0000   1.0000   1.0000   1.0000
     1.0000   1.0000   1.0000   1.0000   1.0000   1.0000   1.0000   1.0000
     1.0000   1.0000   1.0000   1.0000   1.0000

          k =-0.2727 0.1575 0.0000 ( 14491 PWs)   bands (ev):

   -77.8610 -49.2520 -49.1199 -49.0276 -23.5073 -23.4495 -21.0855 -20.0927
   -13.7238 -13.0627 -12.5184 -11.1735 -10.4878 -10.1562 -10.1401  -8.9755
    -8.7849  -8.5134  -8.1451  -7.7349  -6.3457

     occupation numbers 
     1.0000   1.0000   1.0000   1.0000   1.0000   1.0000   1.0000   1.0000
     1.0000   1.0000   1.0000   1.0000   1.0000   1.0000   1.0000   1.0000
     1.0000   1.0000   1.0000   1.0000   1.0000

          k =-0.2727 0.2624 0.0000 ( 14420 PWs)   bands (ev):

   -77.8543 -49.2926 -49.1404 -49.0183 -23.0261 -22.9754 -20.8293 -19.9722
   -14.1653 -13.8129 -12.5583 -11.2355 -10.9573 -10.7564 -10.4813  -9.4741
    -8.7230  -8.4114  -8.0892  -7.7738  -6.4647

     occupation numbers 
     1.0000   1.0000   1.0000   1.0000   1.0000   1.0000   1.0000   1.0000
     1.0000   1.0000   1.0000   1.0000   1.0000   1.0000   1.0000   1.0000
     1.0000   1.0000   1.0000   1.0000   1.0000

          k =-0.2727 0.3674 0.0000 ( 14391 PWs)   bands (ev):

   -77.8471 -49.3194 -49.1801 -49.0081 -22.4003 -22.3594 -20.5717 -19.8632
   -14.6230 -14.3476 -12.3966 -12.1172 -11.9494 -10.8884 -10.7263 -10.0445
    -8.6908  -8.5717  -8.1601  -7.7606  -6.4266

     occupation numbers 
     1.0000   1.0000   1.0000   1.0000   1.0000   1.0000   1.0000   1.0000
     1.0000   1.0000   1.0000   1.0000   1.0000   1.0000   1.0000   1.0000
     1.0000   1.0000   1.0000   1.0000   1.0000

          k =-0.2727-0.6823 0.0000 ( 14360 PWs)   bands (ev):

   -77.8415 -49.3246 -49.2258 -49.0004 -21.7969 -21.7657 -20.4264 -19.8250
   -14.8584 -14.5919 -13.2282 -13.0939 -11.8461 -11.0878 -10.8175 -10.0391
    -9.3702  -8.8178  -8.1348  -7.5715  -6.2050

     occupation numbers 
     1.0000   1.0000   1.0000   1.0000   1.0000   1.0000   1.0000   1.0000
     1.0000   1.0000   1.0000   1.0000   1.0000   1.0000   1.0000   1.0000
     1.0000   1.0000   1.0000   1.0000   1.0000

          k =-0.2727-0.5774 0.0000 ( 14374 PWs)   bands (ev):

   -77.8394 -49.3188 -49.2505 -48.9975 -21.5216 -21.4900 -20.4060 -19.8363
   -14.8910 -14.6193 -13.6682 -13.5724 -11.5376 -11.2636 -10.9040  -9.9390
    -9.6064  -9.1378  -8.0622  -7.4719  -6.0526

     occupation numbers 
     1.0000   1.0000   1.0000   1.0000   1.0000   1.0000   1.0000   1.0000
     1.0000   1.0000   1.0000   1.0000   1.0000   1.0000   1.0000   1.0000
     1.0000   1.0000   1.0000   1.0000   1.0000

          k =-0.2727-0.4724 0.0000 ( 14360 PWs)   bands (ev):

   -77.8415 -49.3245 -49.2258 -49.0004 -21.7970 -21.7657 -20.4263 -19.8250
   -14.8583 -14.5918 -13.2284 -13.0939 -11.8460 -11.0876 -10.8172 -10.0396
    -9.3703  -8.8176  -8.1345  -7.5714  -6.2052

     occupation numbers 
     1.0000   1.0000   1.0000   1.0000   1.0000   1.0000   1.0000   1.0000
     1.0000   1.0000   1.0000   1.0000   1.0000   1.0000   1.0000   1.0000
     1.0000   1.0000   1.0000   1.0000   1.0000

          k =-0.2727-0.3674 0.0000 ( 14391 PWs)   bands (ev):

   -77.8471 -49.3194 -49.1801 -49.0081 -22.4003 -22.3594 -20.5715 -19.8633
   -14.6228 -14.3476 -12.3966 -12.1175 -11.9493 -10.8883 -10.7262 -10.0447
    -8.6909  -8.5716  -8.1595  -7.7607  -6.4270

     occupation numbers 
     1.0000   1.0000   1.0000   1.0000   1.0000   1.0000   1.0000   1.0000
     1.0000   1.0000   1.0000   1.0000   1.0000   1.0000   1.0000   1.0000
     1.0000   1.0000   1.0000   1.0000   1.0000

          k =-0.2727-0.2624 0.0000 ( 14420 PWs)   bands (ev):

   -77.8543 -49.2926 -49.1404 -49.0183 -23.0261 -22.9754 -20.8292 -19.9723
   -14.1651 -13.8128 -12.5582 -11.2357 -10.9573 -10.7568 -10.4812  -9.4740
    -8.7229  -8.4111  -8.0891  -7.7738  -6.4653

     occupation numbers 
     1.0000   1.0000   1.0000   1.0000   1.0000   1.0000   1.0000   1.0000
     1.0000   1.0000   1.0000   1.0000   1.0000   1.0000   1.0000   1.0000
     1.0000   1.0000   1.0000   1.0000   1.0000

          k =-0.1818-0.1050 0.0000 ( 14515 PWs)   bands (ev):

   -77.8721 -49.1690 -49.1010 -49.0430 -24.1706 -24.1031 -21.5131 -20.3114
   -13.7575 -11.5329 -11.3022 -11.1998  -9.7853  -9.7450  -9.7364  -9.1455
    -8.5352  -8.3209  -8.0988  -7.5356  -5.9494

     occupation numbers 
     1.0000   1.0000   1.0000   1.0000   1.0000   1.0000   1.0000   1.0000
     1.0000   1.0000   1.0000   1.0000   1.0000   1.0000   1.0000   1.0000
     1.0000   1.0000   1.0000   1.0000   1.0000

          k =-0.1818 0.0000 0.0000 ( 14505 PWs)   bands (ev):

   -77.8747 -49.1476 -49.0978 -49.0467 -24.3104 -24.2409 -21.6132 -20.3648
   -13.8421 -11.4343 -10.8591 -10.8378  -9.8625  -9.7260  -9.4444  -9.2069
    -8.6495  -8.1575  -8.0752  -7.4107  -5.8283

     occupation numbers 
     1.0000   1.0000   1.0000   1.0000   1.0000   1.0000   1.0000   1.0000
     1.0000   1.0000   1.0000   1.0000   1.0000   1.0000   1.0000   1.0000
     1.0000   1.0000   1.0000   1.0000   1.0000

          k =-0.1818 0.1050 0.0000 ( 14515 PWs)   bands (ev):

   -77.8721 -49.1690 -49.1009 -49.0430 -24.1705 -24.1030 -21.5131 -20.3114
   -13.7576 -11.5329 -11.3026 -11.1997  -9.7855  -9.7442  -9.7366  -9.1455
    -8.5350  -8.3203  -8.0996  -7.5357  -5.9491

     occupation numbers 
     1.0000   1.0000   1.0000   1.0000   1.0000   1.0000   1.0000   1.0000
     1.0000   1.0000   1.0000   1.0000   1.0000   1.0000   1.0000   1.0000
     1.0000   1.0000   1.0000   1.0000   1.0000

          k =-0.1818 0.2099 0.0000 ( 14487 PWs)   bands (ev):

   -77.8650 -49.2174 -49.1182 -49.0331 -23.7640 -23.7024 -21.2399 -20.1678
   -13.6022 -12.3422 -12.0699 -11.1875 -10.5136 -10.2803  -9.9445  -8.9758
    -8.8271  -8.3726  -8.2092  -7.5977  -6.2257

     occupation numbers 
     1.0000   1.0000   1.0000   1.0000   1.0000   1.0000   1.0000   1.0000
     1.0000   1.0000   1.0000   1.0000   1.0000   1.0000   1.0000   1.0000
     1.0000   1.0000   1.0000   1.0000   1.0000

          k =-0.1818 0.3149 0.0000 ( 14433 PWs)   bands (ev):

   -77.8556 -49.2728 -49.1484 -49.0201 -23.1375 -23.0850 -20.8782 -19.9878
   -13.8435 -13.3547 -12.4434 -11.4386 -11.2900 -10.9224 -10.3355  -9.5982
    -8.7367  -8.3853  -8.0475  -7.8127  -6.4606

     occupation numbers 
     1.0000   1.0000   1.0000   1.0000   1.0000   1.0000   1.0000   1.0000
     1.0000   1.0000   1.0000   1.0000   1.0000   1.0000   1.0000   1.0000
     1.0000   1.0000   1.0000   1.0000   1.0000

          k =-0.1818 0.4199 0.0000 ( 14391 PWs)   bands (ev):

   -77.8471 -49.3194 -49.1801 -49.0081 -22.4003 -22.3594 -20.5716 -19.8632
   -14.6229 -14.3476 -12.3966 -12.1173 -11.9493 -10.8886 -10.7264 -10.0443
    -8.6908  -8.5717  -8.1600  -7.7608  -6.4266

     occupation numbers 
     1.0000   1.0000   1.0000   1.0000   1.0000   1.0000   1.0000   1.0000
     1.0000   1.0000   1.0000   1.0000   1.0000   1.0000   1.0000   1.0000
     1.0000   1.0000   1.0000   1.0000   1.0000

          k =-0.1818-0.6298 0.0000 ( 14387 PWs)   bands (ev):

   -77.8420 -49.3458 -49.2001 -49.0010 -21.8090 -21.7785 -20.4574 -19.8610
   -15.2506 -15.0133 -12.6337 -12.4569 -11.7850 -11.2325 -11.0457  -9.8621
    -9.0721  -8.7003  -8.1152  -7.5921  -6.2446

     occupation numbers 
     1.0000   1.0000   1.0000   1.0000   1.0000   1.0000   1.0000   1.0000
     1.0000   1.0000   1.0000   1.0000   1.0000   1.0000   1.0000   1.0000
     1.0000   1.0000   1.0000   1.0000   1.0000

          k =-0.1818-0.5249 0.0000 ( 14387 PWs)   bands (ev):

   -77.8420 -49.3458 -49.2001 -49.0010 -21.8090 -21.7785 -20.4574 -19.8610
   -15.2506 -15.0133 -12.6338 -12.4569 -11.7850 -11.2324 -11.0455  -9.8625
    -9.0718  -8.7003  -8.1151  -7.5921  -6.2448

     occupation numbers 
     1.0000   1.0000   1.0000   1.0000   1.0000   1.0000   1.0000   1.0000
     1.0000   1.0000   1.0000   1.0000   1.0000   1.0000   1.0000   1.0000
     1.0000   1.0000   1.0000   1.0000   1.0000

          k =-0.1818-0.4199 0.0000 ( 14391 PWs)   bands (ev):

   -77.8471 -49.3194 -49.1801 -49.0081 -22.4003 -22.3594 -20.5716 -19.8633
   -14.6228 -14.3476 -12.3966 -12.1175 -11.9493 -10.8883 -10.7262 -10.0447
    -8.6909  -8.5716  -8.1595  -7.7607  -6.4270

     occupation numbers 
     1.0000   1.0000   1.0000   1.0000   1.0000   1.0000   1.0000   1.0000
     1.0000   1.0000   1.0000   1.0000   1.0000   1.0000   1.0000   1.0000
     1.0000   1.0000   1.0000   1.0000   1.0000

          k =-0.1818-0.3149 0.0000 ( 14433 PWs)   bands (ev):

   -77.8556 -49.2728 -49.1485 -49.0201 -23.1375 -23.0850 -20.8782 -19.9878
   -13.8434 -13.3546 -12.4434 -11.4388 -11.2902 -10.9226 -10.3353  -9.5980
    -8.7367  -8.3854  -8.0476  -7.8122  -6.4611

     occupation numbers 
     1.0000   1.0000   1.0000   1.0000   1.0000   1.0000   1.0000   1.0000
     1.0000   1.0000   1.0000   1.0000   1.0000   1.0000   1.0000   1.0000
     1.0000   1.0000   1.0000   1.0000   1.0000

          k =-0.1818-0.2099 0.0000 ( 14487 PWs)   bands (ev):

   -77.8650 -49.2174 -49.1182 -49.0331 -23.7641 -23.7024 -21.2398 -20.1678
   -13.6021 -12.3421 -12.0697 -11.1877 -10.5137 -10.2806  -9.9444  -8.9758
    -8.8267  -8.3727  -8.2095  -7.5973  -6.2261

     occupation numbers 
     1.0000   1.0000   1.0000   1.0000   1.0000   1.0000   1.0000   1.0000
     1.0000   1.0000   1.0000   1.0000   1.0000   1.0000   1.0000   1.0000
     1.0000   1.0000   1.0000   1.0000   1.0000

          k =-0.0909-0.0525 0.0000 ( 14487 PWs)   bands (ev):

   -77.8805 -49.1050 -49.0865 -49.0548 -24.5967 -24.5229 -21.8280 -20.4817
   -14.0523 -11.5102 -10.0062  -9.8975  -9.4100  -9.3764  -9.3650  -9.1521
    -8.8016  -7.9148  -7.7418  -7.4273  -5.5827

     occupation numbers 
     1.0000   1.0000   1.0000   1.0000   1.0000   1.0000   1.0000   1.0000
     1.0000   1.0000   1.0000   1.0000   1.0000   1.0000   1.0000   1.0000
     1.0000   1.0000   1.0000   1.0000   1.0000

          k =-0.0909 0.0525 0.0000 ( 14487 PWs)   bands (ev):

   -77.8805 -49.1050 -49.0864 -49.0548 -24.5967 -24.5229 -21.8280 -20.4816
   -14.0523 -11.5102 -10.0063  -9.8978  -9.4097  -9.3762  -9.3651  -9.1522
    -8.8014  -7.9140  -7.7428  -7.4271  -5.5826

     occupation numbers 
     1.0000   1.0000   1.0000   1.0000   1.0000   1.0000   1.0000   1.0000
     1.0000   1.0000   1.0000   1.0000   1.0000   1.0000   1.0000   1.0000
     1.0000   1.0000   1.0000   1.0000   1.0000

          k =-0.0909 0.1575 0.0000 ( 14505 PWs)   bands (ev):

   -77.8747 -49.1476 -49.0978 -49.0467 -24.3104 -24.2409 -21.6132 -20.3648
   -13.8421 -11.4343 -10.8591 -10.8378  -9.8625  -9.7260  -9.4445  -9.2069
    -8.6495  -8.1575  -8.0752  -7.4107  -5.8283

     occupation numbers 
     1.0000   1.0000   1.0000   1.0000   1.0000   1.0000   1.0000   1.0000
     1.0000   1.0000   1.0000   1.0000   1.0000   1.0000   1.0000   1.0000
     1.0000   1.0000   1.0000   1.0000   1.0000

          k =-0.0909 0.2624 0.0000 ( 14487 PWs)   bands (ev):

   -77.8650 -49.2174 -49.1182 -49.0331 -23.7641 -23.7024 -21.2399 -20.1678
   -13.6022 -12.3421 -12.0698 -11.1876 -10.5136 -10.2804  -9.9445  -8.9758
    -8.8271  -8.3726  -8.2089  -7.5978  -6.2259

     occupation numbers 
     1.0000   1.0000   1.0000   1.0000   1.0000   1.0000   1.0000   1.0000
     1.0000   1.0000   1.0000   1.0000   1.0000   1.0000   1.0000   1.0000
     1.0000   1.0000   1.0000   1.0000   1.0000

          k =-0.0909 0.3674 0.0000 ( 14420 PWs)   bands (ev):

   -77.8543 -49.2926 -49.1404 -49.0183 -23.0261 -22.9754 -20.8292 -19.9722
   -14.1652 -13.8128 -12.5583 -11.2357 -10.9572 -10.7567 -10.4813  -9.4739
    -8.7229  -8.4110  -8.0893  -7.7740  -6.4650

     occupation numbers 
     1.0000   1.0000   1.0000   1.0000   1.0000   1.0000   1.0000   1.0000
     1.0000   1.0000   1.0000   1.0000   1.0000   1.0000   1.0000   1.0000
     1.0000   1.0000   1.0000   1.0000   1.0000

          k =-0.0909 0.4724 0.0000 ( 14395 PWs)   bands (ev):

   -77.8462 -49.3494 -49.1574 -49.0069 -22.2636 -22.2263 -20.5628 -19.8940
   -15.2050 -14.9678 -12.3898 -11.6354 -11.1852 -10.9370 -10.9030  -9.7140
    -8.8769  -8.3352  -7.9829  -7.7062  -6.4220

     occupation numbers 
     1.0000   1.0000   1.0000   1.0000   1.0000   1.0000   1.0000   1.0000
     1.0000   1.0000   1.0000   1.0000   1.0000   1.0000   1.0000   1.0000
     1.0000   1.0000   1.0000   1.0000   1.0000

          k =-0.0909-0.5774 0.0000 ( 14402 PWs)   bands (ev):

   -77.8432 -49.3705 -49.1637 -49.0027 -21.8818 -21.8521 -20.5166 -19.9212
   -15.6467 -15.4148 -12.2791 -11.8373 -11.2561 -11.1491 -10.9790  -9.6771
    -9.0684  -8.1950  -7.9351  -7.6690  -6.3478

     occupation numbers 
     1.0000   1.0000   1.0000   1.0000   1.0000   1.0000   1.0000   1.0000
     1.0000   1.0000   1.0000   1.0000   1.0000   1.0000   1.0000   1.0000
     1.0000   1.0000   1.0000   1.0000   1.0000

          k =-0.0909-0.4724 0.0000 ( 14395 PWs)   bands (ev):

   -77.8462 -49.3495 -49.1574 -49.0069 -22.2636 -22.2263 -20.5627 -19.8941
   -15.2049 -14.9678 -12.3898 -11.6354 -11.1853 -10.9368 -10.9030  -9.7144
    -8.8766  -8.3352  -7.9827  -7.7062  -6.4222

     occupation numbers 
     1.0000   1.0000   1.0000   1.0000   1.0000   1.0000   1.0000   1.0000
     1.0000   1.0000   1.0000   1.0000   1.0000   1.0000   1.0000   1.0000
     1.0000   1.0000   1.0000   1.0000   1.0000

          k =-0.0909-0.3674 0.0000 ( 14420 PWs)   bands (ev):

   -77.8543 -49.2926 -49.1404 -49.0183 -23.0261 -22.9754 -20.8292 -19.9723
   -14.1651 -13.8128 -12.5582 -11.2357 -10.9573 -10.7568 -10.4812  -9.4740
    -8.7229  -8.4111  -8.0891  -7.7738  -6.4653

     occupation numbers 
     1.0000   1.0000   1.0000   1.0000   1.0000   1.0000   1.0000   1.0000
     1.0000   1.0000   1.0000   1.0000   1.0000   1.0000   1.0000   1.0000
     1.0000   1.0000   1.0000   1.0000   1.0000

          k =-0.0909-0.2624 0.0000 ( 14487 PWs)   bands (ev):

   -77.8650 -49.2174 -49.1182 -49.0331 -23.7641 -23.7024 -21.2398 -20.1678
   -13.6021 -12.3421 -12.0697 -11.1877 -10.5137 -10.2806  -9.9444  -8.9758
    -8.8267  -8.3727  -8.2095  -7.5973  -6.2261

     occupation numbers 
     1.0000   1.0000   1.0000   1.0000   1.0000   1.0000   1.0000   1.0000
     1.0000   1.0000   1.0000   1.0000   1.0000   1.0000   1.0000   1.0000
     1.0000   1.0000   1.0000   1.0000   1.0000

          k =-0.0909-0.1575 0.0000 ( 14505 PWs)   bands (ev):

   -77.8747 -49.1475 -49.0979 -49.0467 -24.3104 -24.2409 -21.6132 -20.3649
   -13.8420 -11.4344 -10.8585 -10.8379  -9.8626  -9.7263  -9.4443  -9.2069
    -8.6497  -8.1570  -8.0759  -7.4104  -5.8285

     occupation numbers 
     1.0000   1.0000   1.0000   1.0000   1.0000   1.0000   1.0000   1.0000
     1.0000   1.0000   1.0000   1.0000   1.0000   1.0000   1.0000   1.0000
     1.0000   1.0000   1.0000   1.0000   1.0000

     highest occupied level (ev):    -5.4773

!    total energy              =    -263.34651291 Ry
     estimated scf accuracy    <          4.2E-11 Ry

     The total energy is the sum of the following terms:
     one-electron contribution =   -6716.23535073 Ry
     hartree contribution      =    3354.60233105 Ry
     xc contribution           =     -44.81112055 Ry
     ewald contribution        =    3143.09762732 Ry

     convergence has been achieved in  39 iterations

     Writing all to output data dir ./tmp/crsi2n4.save/ :
     XML data file, charge density, pseudopotentials, collected wavefunctions
 
     init_run     :      6.81s CPU      7.03s WALL (       1 calls)
     electrons    :    548.50s CPU    549.34s WALL (       1 calls)

     Called by init_run:
     wfcinit      :      5.54s CPU      5.71s WALL (       1 calls)
     wfcinit:atom :      0.08s CPU      0.08s WALL (     121 calls)
     wfcinit:wfcr :      5.25s CPU      5.30s WALL (     121 calls)
     potinit      :      0.94s CPU      0.97s WALL (       1 calls)
     hinit0       :      0.17s CPU      0.17s WALL (       1 calls)

     Called by electrons:
     c_bands      :    502.59s CPU    503.37s WALL (      39 calls)
     sum_band     :     44.03s CPU     44.05s WALL (      39 calls)
     v_of_rho     :      0.58s CPU      0.61s WALL (      40 calls)
     v_h          :      0.14s CPU      0.15s WALL (      40 calls)
     v_xc         :      0.44s CPU      0.47s WALL (      40 calls)
     mix_rho      :      0.82s CPU      0.84s WALL (      39 calls)

     Called by c_bands:
     init_us_2    :      6.92s CPU      6.94s WALL (    9559 calls)
     cegterg      :    480.59s CPU    481.33s WALL (    4719 calls)

     Called by sum_band:
     sum_band:wei :      0.00s CPU      0.00s WALL (      39 calls)
     sum_band:loo :     43.88s CPU     43.90s WALL (      39 calls)
     sum_band:buf :      5.50s CPU      5.51s WALL (    4719 calls)
     sum_band:ini :      3.48s CPU      3.48s WALL (    4719 calls)

     Called by *egterg:
     cdiaghg      :     54.67s CPU     54.86s WALL (   24380 calls)
                                       54.77s GPU  (   24380 calls)
     cegterg:over :     96.81s CPU     96.85s WALL (   19661 calls)
     cegterg:upda :     23.08s CPU     23.11s WALL (   19661 calls)
     cegterg:last :     20.18s CPU     20.19s WALL (   10098 calls)
     h_psi        :    273.24s CPU    274.00s WALL (   24501 calls)
                                      273.79s GPU  (   24501 calls)
     g_psi        :      0.07s CPU      2.20s WALL (   19661 calls)
                                        2.13s GPU  (   19661 calls)

     Called by h_psi:
     h_psi:calbec :      0.65s CPU     48.07s WALL (   24501 calls)
                                       47.98s GPU  (   24501 calls)
     vloc_psi     :    184.62s CPU    185.31s WALL (   24501 calls)
                                      185.24s GPU  (   24501 calls)
     add_vuspsi   :      4.63s CPU     39.27s WALL (   24501 calls)
                                       39.17s GPU  (   24501 calls)

     General routines
     calbec       :      0.61s CPU      0.64s WALL (   24501 calls)
     fft          :      0.58s CPU      0.80s WALL (     477 calls)
                                        0.22s GPU  (     437 calls)
     ffts         :      0.55s CPU      0.56s WALL (      79 calls)
                                        0.01s GPU  (      39 calls)
     fftw         :      0.76s CPU    189.96s WALL (   78452 calls)
                                      189.67s GPU  (   78452 calls)
     interpolate  :      1.20s CPU      1.21s WALL (      40 calls)
 
     Parallel routines
 
     PWSCF        :   9m15.60s CPU   9m16.90s WALL

 
   This run was terminated on:  21:17:27  28Apr2026            

=------------------------------------------------------------------------------=
   JOB DONE.
=------------------------------------------------------------------------------=
