
     Program PWSCF v.7.3.1 starts on  5Jan2026 at 19:37: 0 

     This program is part of the open-source Quantum ESPRESSO suite
     for quantum simulation of materials; please cite
         "P. Giannozzi et al., J. Phys.:Condens. Matter 21 395502 (2009);
         "P. Giannozzi et al., J. Phys.:Condens. Matter 29 465901 (2017);
         "P. Giannozzi et al., J. Chem. Phys. 152 154105 (2020);
          URL http://www.quantum-espresso.org", 
     in publications or presentations arising from this work. More details at
     http://www.quantum-espresso.org/quote

     Parallel version (MPI), running on     4 processors

     MPI processes distributed on     1 nodes
     20784 MiB available memory on the printing compute node when the environment starts

     Waiting for input...
     Reading input from standard input

     Current dimensions of program PWSCF are:
     Max number of different atomic species (ntypx) = 10
     Max number of k-points (npk) =  40000
     Max angular momentum in pseudopotentials (lmaxx) =  4
     Message from routine input:
     WARNING: "startingwfc" set to atomic+random may spoil restart

     IMPORTANT: XC functional enforced from input :
     Exchange-correlation= HSE
                           (   1   4  12   4   0   0   0)
     EXX-fraction              =        0.25
     Any further DFT definition will be discarded
     Please, verify this is what you really want

     Message from routine setup:
     no reason to have ecutrho>4*ecutwfc

     R & G space division:  proc/nbgrp/npool/nimage =       4
     Subspace diagonalization in iterative solution of the eigenvalue problem:
     a serial algorithm will be used

     EXX: q-point mesh:     2    2    1
     EXX: setup a grid of 60 q-points centered on each k-point
     (k+q)-points:
   0.0000000   0.0000000   0.0000000         1    1
   0.0000000  -0.5773503   0.0000000         5    1
  -0.5000000  -0.2886752   0.0000000        18    1
   0.5000000  -0.2886752   0.0000000        17    1
   0.0000000   0.1443376   0.0000000         2    1
  -0.0000000  -0.4330127   0.0000000         4   -1
  -0.5000000  -0.1443376   0.0000000        28   -1
   0.5000000  -0.1443376   0.0000000        30    1
   0.0000000   0.2886752   0.0000000         3    1
  -0.0000000  -0.2886752   0.0000000         3   -1
  -0.5000000   0.0000000   0.0000000        32   -1
   0.5000000  -0.0000000   0.0000000        32    1
   0.0000000   0.4330127   0.0000000         4    1
  -0.0000000  -0.1443376   0.0000000         2   -1
  -0.5000000   0.1443376   0.0000000        30   -1
   0.5000000   0.1443376   0.0000000        28    1
   0.1250000   0.2165064   0.0000000         6    1
   0.1250000  -0.3608440  -0.0000000        21   -1
  -0.3750000  -0.0721688   0.0000000        23   -1
  -0.3750000   0.5051815   0.0000000        33    1
   0.1250000   0.3608440   0.0000000         7    1
   0.1250000  -0.2165064  -0.0000000        19   -1
  -0.3750000   0.0721688   0.0000000        25   -1
   0.6250000   0.0721688   0.0000000        34    1
   0.1250000   0.5051815   0.0000000         8    1
   0.1250000  -0.0721688  -0.0000000        11   -1
  -0.3750000   0.2165064   0.0000000        15    1
  -0.3750000  -0.3608440   0.0000000        29    1
   0.2500000   0.4330127   0.0000000         9    1
   0.2500000  -0.1443376  -0.0000000        13   -1
  -0.2500000   0.1443376   0.0000000        13    1
  -0.2500000  -0.4330127   0.0000000         9   -1
   0.2500000   0.5773503   0.0000000        10    1
   0.2500000  -0.0000000   0.0000000        20    1
  -0.2500000   0.2886752   0.0000000        22    1
  -0.2500000  -0.2886752   0.0000000        24    1
  -0.1250000   0.0721688   0.0000000        11    1
  -0.1250000  -0.5051815   0.0000000         8   -1
   0.3750000   0.3608440   0.0000000        29   -1
   0.3750000  -0.2165064  -0.0000000        15   -1
   0.1250000   0.0721688   0.0000000        12    1
   0.1250000  -0.5051815  -0.0000000        26   -1
  -0.3750000  -0.2165064   0.0000000        16   -1
  -0.3750000   0.3608440   0.0000000        27    1
   0.2500000   0.1443376   0.0000000        14    1
   0.2500000  -0.4330127  -0.0000000        31   -1
  -0.2500000  -0.1443376   0.0000000        14   -1
  -0.2500000   0.4330127   0.0000000        31    1
   0.3750000   0.2165064   0.0000000        16    1
   0.3750000  -0.3608440  -0.0000000        27   -1
  -0.1250000  -0.0721688   0.0000000        12   -1
  -0.1250000   0.5051815   0.0000000        26    1
  -0.1250000   0.2165064   0.0000000        19    1
  -0.1250000  -0.3608440   0.0000000         7   -1
  -0.6250000  -0.0721688   0.0000000        34   -1
   0.3750000  -0.0721688   0.0000000        25    1
  -0.1250000   0.3608440   0.0000000        21    1
  -0.1250000  -0.2165064   0.0000000         6   -1
   0.3750000  -0.5051815  -0.0000000        33   -1
   0.3750000   0.0721688   0.0000000        23    1

     Parallelization info
     --------------------
     sticks:   dense  smooth     PW     G-vecs:    dense   smooth      PW
     Min         171     162     46                27026    23758    3758
     Max         176     163     47                27038    23770    3785
     Sum         691     649    187               108119    95059   15091

     Using Slab Decomposition



     bravais-lattice index     =            0
     lattice parameter (alat)  =       5.3744  a.u.
     unit-cell volume          =     981.6153 (a.u.)^3
     number of atoms/cell      =            7
     number of atomic types    =            3
     number of electrons       =        42.00
     number of Kohn-Sham states=           35
     kinetic-energy cutoff     =      80.0000  Ry
     charge density cutoff     =     350.0000  Ry
     cutoff for Fock operator  =     320.0000  Ry
     Exchange-correlation= HSE
                           (   1   4  12   4   0   0   0)
     EXX-fraction              =        0.25

     celldm(1)=   5.374381  celldm(2)=   0.000000  celldm(3)=   0.000000
     celldm(4)=   0.000000  celldm(5)=   0.000000  celldm(6)=   0.000000

     crystal axes: (cart. coord. in units of alat)
               a(1) = (   1.000000   0.000000   0.000000 )  
               a(2) = (  -0.500000   0.866025   0.000000 )  
               a(3) = (   0.000000   0.000000   7.301723 )  

     reciprocal axes: (cart. coord. in units 2 pi/alat)
               b(1) = (  1.000000  0.577350 -0.000000 )  
               b(2) = (  0.000000  1.154701  0.000000 )  
               b(3) = (  0.000000 -0.000000  0.136954 )  


     PseudoPot. # 1 for Cr read from file:
     ./../../../pseudo/ONCVPSP/sg15/Cr_ONCV_PBE_sr.upf
     MD5 check sum: 8c25700f94aee329d8014e8d8708abb4
     Pseudo is Norm-conserving, Zval = 14.0
     Generated using ONCVPSP code by D. R. Hamann
     Using radial grid of 1490 points,  6 beta functions with: 
                l(1) =   0
                l(2) =   0
                l(3) =   1
                l(4) =   1
                l(5) =   2
                l(6) =   2

     PseudoPot. # 2 for Si read from file:
     ./../../../pseudo/ONCVPSP/sg15/Si_ONCV_PBE_sr.upf
     MD5 check sum: 8553c464762ac42b85b1eed164b4d029
     Pseudo is Norm-conserving, Zval =  4.0
     Generated using ONCVPSP code by D. R. Hamann
     Using radial grid of 1510 points,  4 beta functions with: 
                l(1) =   0
                l(2) =   0
                l(3) =   1
                l(4) =   1

     PseudoPot. # 3 for N  read from file:
     ./../../../pseudo/ONCVPSP/sg15/N_ONCV_PBE_sr.upf
     MD5 check sum: 584dff68b02d160f04ff099e3496afa1
     Pseudo is Norm-conserving, Zval =  5.0
     Generated using ONCVPSP code by D. R. Hamann
     Using radial grid of 1058 points,  4 beta functions with: 
                l(1) =   0
                l(2) =   0
                l(3) =   1
                l(4) =   1

     atomic species   valence    mass     pseudopotential
     Cr               14.00    51.99600     Cr( 1.00)
     Si                4.00    28.08600     Si( 1.00)
     N                 5.00    14.00700     N ( 1.00)

     No symmetry found


                                    s                        frac. trans.

      isym =  1     identity                                     

 cryst.   s( 1) = (     1          0          0      )
                  (     0          1          0      )
                  (     0          0          1      )

 cart.    s( 1) = (  1.0000000  0.0000000  0.0000000 )
                  (  0.0000000  1.0000000  0.0000000 )
                  (  0.0000000  0.0000000  1.0000000 )


   Cartesian axes

     site n.     atom                  positions (alat units)
         1        Cr     tau(   1) = (   0.7856992   0.1237169   3.1237137  )
         2        N      tau(   2) = (   0.2857045   0.4123895   2.7238712  )
         3        N      tau(   3) = (   0.2857069   0.4123867   3.5287613  )
         4        N      tau(   4) = (   0.7857152   0.1236985   4.3391106  )
         5        N      tau(   5) = (  -0.2142868   0.7010642   1.9209304  )
         6        Si     tau(   6) = (   0.2857130   0.4123891   2.1091259  )
         7        Si     tau(   7) = (   0.2857150   0.4123739   4.1477101  )

   Crystallographic axes

     site n.     atom                  positions (cryst. coord.)
         1        Cr     tau(   1) = (  0.8571272  0.1428560  0.4278050  )
         2        N      tau(   2) = (  0.5237977  0.4761865  0.3730450  )
         3        N      tau(   3) = (  0.5237985  0.4761832  0.4832779  )
         4        N      tau(   4) = (  0.8571325  0.1428347  0.5942585  )
         5        N      tau(   5) = (  0.1904728  0.8095192  0.2630791  )
         6        Si     tau(   6) = (  0.5238059  0.4761860  0.2888532  )
         7        Si     tau(   7) = (  0.5237992  0.4761684  0.5680454  )

     number of k points=    34
                       cart. coord. in units 2pi/alat
        k(    1) = (   0.0000000   0.0000000   0.0000000), wk =   0.0312500
        k(    2) = (   0.0000000   0.1443376   0.0000000), wk =   0.0625000
        k(    3) = (   0.0000000   0.2886752   0.0000000), wk =   0.0625000
        k(    4) = (   0.0000000   0.4330127   0.0000000), wk =   0.0625000
        k(    5) = (   0.0000000  -0.5773503   0.0000000), wk =   0.0312500
        k(    6) = (   0.1250000   0.2165064   0.0000000), wk =   0.0625000
        k(    7) = (   0.1250000   0.3608440   0.0000000), wk =   0.0625000
        k(    8) = (   0.1250000   0.5051815   0.0000000), wk =   0.0625000
        k(    9) = (   0.2500000   0.4330127   0.0000000), wk =   0.0625000
        k(   10) = (   0.2500000   0.5773503   0.0000000), wk =   0.0625000
        k(   11) = (  -0.1250000   0.0721688   0.0000000), wk =   0.0625000
        k(   12) = (   0.1250000   0.0721688   0.0000000), wk =   0.0625000
        k(   13) = (  -0.2500000   0.1443376   0.0000000), wk =   0.0625000
        k(   14) = (   0.2500000   0.1443376   0.0000000), wk =   0.0625000
        k(   15) = (  -0.3750000   0.2165064   0.0000000), wk =   0.0625000
        k(   16) = (   0.3750000   0.2165064   0.0000000), wk =   0.0625000
        k(   17) = (   0.5000000  -0.2886752   0.0000000), wk =   0.0312500
        k(   18) = (  -0.5000000  -0.2886752   0.0000000), wk =   0.0312500
        k(   19) = (  -0.1250000   0.2165064   0.0000000), wk =   0.0625000
        k(   20) = (   0.2500000  -0.0000000   0.0000000), wk =   0.0625000
        k(   21) = (  -0.1250000   0.3608440   0.0000000), wk =   0.0625000
        k(   22) = (  -0.2500000   0.2886752   0.0000000), wk =   0.0625000
        k(   23) = (   0.3750000   0.0721688   0.0000000), wk =   0.0625000
        k(   24) = (  -0.2500000  -0.2886752   0.0000000), wk =   0.0625000
        k(   25) = (   0.3750000  -0.0721688   0.0000000), wk =   0.0625000
        k(   26) = (  -0.1250000   0.5051815   0.0000000), wk =   0.0625000
        k(   27) = (  -0.3750000   0.3608440   0.0000000), wk =   0.0625000
        k(   28) = (   0.5000000   0.1443376   0.0000000), wk =   0.0625000
        k(   29) = (  -0.3750000  -0.3608440   0.0000000), wk =   0.0625000
        k(   30) = (   0.5000000  -0.1443376   0.0000000), wk =   0.0625000
        k(   31) = (  -0.2500000   0.4330127   0.0000000), wk =   0.0625000
        k(   32) = (   0.5000000  -0.0000000   0.0000000), wk =   0.0625000
        k(   33) = (  -0.3750000   0.5051815   0.0000000), wk =   0.0625000
        k(   34) = (   0.6250000   0.0721688   0.0000000), wk =   0.0625000

                       cryst. coord.
        k(    1) = (   0.0000000   0.0000000   0.0000000), wk =   0.0312500
        k(    2) = (   0.0000000   0.1250000   0.0000000), wk =   0.0625000
        k(    3) = (   0.0000000   0.2500000   0.0000000), wk =   0.0625000
        k(    4) = (   0.0000000   0.3750000   0.0000000), wk =   0.0625000
        k(    5) = (   0.0000000  -0.5000000   0.0000000), wk =   0.0312500
        k(    6) = (   0.1250000   0.1250000   0.0000000), wk =   0.0625000
        k(    7) = (   0.1250000   0.2500000   0.0000000), wk =   0.0625000
        k(    8) = (   0.1250000   0.3750000   0.0000000), wk =   0.0625000
        k(    9) = (   0.2500000   0.2500000   0.0000000), wk =   0.0625000
        k(   10) = (   0.2500000   0.3750000   0.0000000), wk =   0.0625000
        k(   11) = (  -0.1250000   0.1250000   0.0000000), wk =   0.0625000
        k(   12) = (   0.1250000  -0.0000000   0.0000000), wk =   0.0625000
        k(   13) = (  -0.2500000   0.2500000   0.0000000), wk =   0.0625000
        k(   14) = (   0.2500000  -0.0000000   0.0000000), wk =   0.0625000
        k(   15) = (  -0.3750000   0.3750000   0.0000000), wk =   0.0625000
        k(   16) = (   0.3750000  -0.0000000   0.0000000), wk =   0.0625000
        k(   17) = (   0.5000000  -0.5000000   0.0000000), wk =   0.0312500
        k(   18) = (  -0.5000000   0.0000000   0.0000000), wk =   0.0312500
        k(   19) = (  -0.1250000   0.2500000   0.0000000), wk =   0.0625000
        k(   20) = (   0.2500000  -0.1250000   0.0000000), wk =   0.0625000
        k(   21) = (  -0.1250000   0.3750000   0.0000000), wk =   0.0625000
        k(   22) = (  -0.2500000   0.3750000   0.0000000), wk =   0.0625000
        k(   23) = (   0.3750000  -0.1250000   0.0000000), wk =   0.0625000
        k(   24) = (  -0.2500000  -0.1250000   0.0000000), wk =   0.0625000
        k(   25) = (   0.3750000  -0.2500000   0.0000000), wk =   0.0625000
        k(   26) = (  -0.1250000   0.5000000   0.0000000), wk =   0.0625000
        k(   27) = (  -0.3750000   0.5000000   0.0000000), wk =   0.0625000
        k(   28) = (   0.5000000  -0.1250000   0.0000000), wk =   0.0625000
        k(   29) = (  -0.3750000  -0.1250000   0.0000000), wk =   0.0625000
        k(   30) = (   0.5000000  -0.3750000   0.0000000), wk =   0.0625000
        k(   31) = (  -0.2500000   0.5000000   0.0000000), wk =   0.0625000
        k(   32) = (   0.5000000  -0.2500000   0.0000000), wk =   0.0625000
        k(   33) = (  -0.3750000   0.6250000   0.0000000), wk =   0.0625000
        k(   34) = (   0.6250000  -0.2500000   0.0000000), wk =   0.0625000

     Dense  grid:   108119 G-vectors     FFT dimensions: (  36,  36, 240)

     Smooth grid:    95059 G-vectors     FFT dimensions: (  32,  32, 225)

     Dynamical RAM for                 wfc:       1.58 MB

     Dynamical RAM for     wfc (w. buffer):       1.58 MB

     Dynamical RAM for                 EXX:    1581.35 MB

     Dynamical RAM for           str. fact:       1.24 MB

     Dynamical RAM for           local pot:       0.00 MB

     Dynamical RAM for          nlocal pot:       2.99 MB

     Dynamical RAM for                qrad:       4.86 MB

     Dynamical RAM for          rho,v,vnew:       3.02 MB

     Dynamical RAM for           G-vectors:       1.73 MB

     Dynamical RAM for          h,s,v(r/c):       0.22 MB

     Dynamical RAM for          <psi|beta>:       0.04 MB

     Dynamical RAM for                 psi:       3.17 MB

     Dynamical RAM for                hpsi:       3.17 MB

     Dynamical RAM for      wfcinit/wfcrot:       3.20 MB

     Estimated static dynamical RAM per process >       1.56 GB

     Estimated max dynamical RAM per process >       1.57 GB

     Estimated total dynamical RAM >       6.28 GB
 ----2D----2D----2D----2D----2D----2D----2D----2D----2D----2D----2D----2D
  The code is running with the 2D cutoff
  Please refer to:
  Sohier, T., Calandra, M., & Mauri, F. (2017), 
  Density functional perturbation theory for gated two-dimensional heterostructures:
  Theoretical developments and application to flexural phonons in graphene.
  Physical Review B, 96(7), 75448. https://doi.org/10.1103/PhysRevB.96.075448
 ----2D----2D----2D----2D----2D----2D----2D----2D----2D----2D----2D----2D
     EXX: initializing ACE and reading from file
     ACE potential read for       35 bands
     ACE potential read for       35 bands
     ACE potential read for       35 bands
     ACE potential read for       35 bands
     ACE potential read for       35 bands
     ACE potential read for       35 bands
     ACE potential read for       35 bands
     ACE potential read for       35 bands
     ACE potential read for       35 bands
     ACE potential read for       35 bands
     ACE potential read for       35 bands
     ACE potential read for       35 bands
     ACE potential read for       35 bands
     ACE potential read for       35 bands
     ACE potential read for       35 bands
     ACE potential read for       35 bands
     ACE potential read for       35 bands
     ACE potential read for       35 bands
     ACE potential read for       35 bands
     ACE potential read for       35 bands
     ACE potential read for       35 bands
     ACE potential read for       35 bands
     ACE potential read for       35 bands
     ACE potential read for       35 bands
     ACE potential read for       35 bands
     ACE potential read for       35 bands
     ACE potential read for       35 bands
     ACE potential read for       35 bands
     ACE potential read for       35 bands
     ACE potential read for       35 bands
     ACE potential read for       35 bands
     ACE potential read for       35 bands
     ACE potential read for       35 bands
     ACE potential read for       35 bands
     Starting ACE correctly read from file

     Atomic positions and unit cell read from directory:
     ./tmp/crsi2n4.save/


     The potential is recalculated from file :
     ./tmp/crsi2n4.save/charge-density

     Starting wfcs are   34 randomized atomic wfcs +    1 random wfcs

     Band Structure Calculation
     Davidson diagonalization with overlap

     Computing kpt #:     1  of    34
     total cpu time spent up to now is        3.7 secs

     Computing kpt #:     2  of    34
     total cpu time spent up to now is        6.8 secs

     Computing kpt #:     3  of    34
     total cpu time spent up to now is       10.1 secs

     Computing kpt #:     4  of    34
     total cpu time spent up to now is       13.2 secs

     Computing kpt #:     5  of    34
     total cpu time spent up to now is       16.3 secs

     Computing kpt #:     6  of    34
     total cpu time spent up to now is       19.5 secs

     Computing kpt #:     7  of    34
     total cpu time spent up to now is       22.8 secs

     Computing kpt #:     8  of    34
     total cpu time spent up to now is       25.9 secs

     Computing kpt #:     9  of    34
     total cpu time spent up to now is       29.2 secs

     Computing kpt #:    10  of    34
     total cpu time spent up to now is       32.3 secs

     Computing kpt #:    11  of    34
     total cpu time spent up to now is       35.4 secs

     Computing kpt #:    12  of    34
     total cpu time spent up to now is       38.6 secs

     Computing kpt #:    13  of    34
     total cpu time spent up to now is       41.8 secs

     Computing kpt #:    14  of    34
     total cpu time spent up to now is       45.0 secs

     Computing kpt #:    15  of    34
     total cpu time spent up to now is       48.2 secs

     Computing kpt #:    16  of    34
     total cpu time spent up to now is       51.3 secs

     Computing kpt #:    17  of    34
     total cpu time spent up to now is       54.3 secs

     Computing kpt #:    18  of    34
     total cpu time spent up to now is       57.4 secs

     Computing kpt #:    19  of    34
     total cpu time spent up to now is       60.6 secs

     Computing kpt #:    20  of    34
     total cpu time spent up to now is       63.7 secs

     Computing kpt #:    21  of    34
     total cpu time spent up to now is       67.0 secs

     Computing kpt #:    22  of    34
     total cpu time spent up to now is       70.2 secs

     Computing kpt #:    23  of    34
     total cpu time spent up to now is       73.4 secs

     Computing kpt #:    24  of    34
     total cpu time spent up to now is       76.6 secs

     Computing kpt #:    25  of    34
     total cpu time spent up to now is       79.8 secs

     Computing kpt #:    26  of    34
     total cpu time spent up to now is       82.9 secs

     Computing kpt #:    27  of    34
     total cpu time spent up to now is       86.0 secs

     Computing kpt #:    28  of    34
     total cpu time spent up to now is       89.1 secs

     Computing kpt #:    29  of    34
     total cpu time spent up to now is       92.2 secs

     Computing kpt #:    30  of    34
     total cpu time spent up to now is       95.3 secs

     Computing kpt #:    31  of    34
     total cpu time spent up to now is       98.4 secs

     Computing kpt #:    32  of    34
     total cpu time spent up to now is      101.7 secs

     Computing kpt #:    33  of    34
     total cpu time spent up to now is      104.8 secs

     Computing kpt #:    34  of    34
     total cpu time spent up to now is      107.9 secs

     ethr =  2.38E-13,  avg # of iterations = 52.5

     total cpu time spent up to now is      108.3 secs

     End of band structure calculation

          k = 0.0000 0.0000 0.0000 ( 11937 PWs)   bands (ev):

   -83.5878 -52.8394 -52.7331 -52.7331 -27.0867 -26.9889 -24.3179 -22.7306
   -15.6434 -12.7266 -10.6451 -10.4743 -10.4743 -10.4277 -10.4276  -9.9056
    -9.9056  -8.4931  -8.4928  -8.4910  -6.5712  -2.6779  -2.6777  -2.4419
    -2.4418  -0.2224   0.1109   2.3491   2.3826   2.5026   4.0139   4.0140
     4.0684   4.0684   4.2611

     occupation numbers 
     1.0000   1.0000   1.0000   1.0000   1.0000   1.0000   1.0000   1.0000
     1.0000   1.0000   1.0000   1.0000   1.0000   1.0000   1.0000   1.0000
     1.0000   1.0000   1.0000   1.0000   1.0000   0.0000   0.0000   0.0000
     0.0000   0.0000   0.0000   0.0000   0.0000   0.0000   0.0000   0.0000
     0.0000   0.0000   0.0000

          k = 0.0000 0.1443 0.0000 ( 11905 PWs)   bands (ev):

   -83.5986 -52.9344 -52.7620 -52.7325 -26.7833 -26.6893 -24.0835 -22.6116
   -15.3915 -12.6005 -11.5948 -11.5320 -10.6934 -10.6654 -10.5395 -10.2729
    -9.7547  -8.8982  -8.7578  -8.3030  -6.5871  -2.9434  -2.7405  -2.7141
    -2.3878   0.5042   0.7307   2.4394   2.4917   3.0542   3.2426   3.5282
     4.6776   4.7397   5.1339

     occupation numbers 
     1.0000   1.0000   1.0000   1.0000   1.0000   1.0000   1.0000   1.0000
     1.0000   1.0000   1.0000   1.0000   1.0000   1.0000   1.0000   1.0000
     1.0000   1.0000   1.0000   1.0000   1.0000   0.0000   0.0000   0.0000
     0.0000   0.0000   0.0000   0.0000   0.0000   0.0000   0.0000   0.0000
     0.0000   0.0000   0.0000

          k = 0.0000 0.2887 0.0000 ( 11885 PWs)   bands (ev):

   -83.6091 -53.1962 -52.8333 -52.6306 -25.9782 -25.8985 -23.5235 -22.3318
   -15.0328 -13.8368 -13.4730 -12.2914 -11.5649 -11.2207 -11.2110  -9.9332
    -9.6383  -9.3534  -9.2549  -8.4990  -6.9026  -3.5595  -3.2462  -2.4600
    -1.8625   0.1115   0.3010   2.4285   2.5718   3.4916   3.9965   5.0899
     5.9021   6.1092   6.2879

     occupation numbers 
     1.0000   1.0000   1.0000   1.0000   1.0000   1.0000   1.0000   1.0000
     1.0000   1.0000   1.0000   1.0000   1.0000   1.0000   1.0000   1.0000
     1.0000   1.0000   1.0000   1.0000   1.0000   0.0000   0.0000   0.0000
     0.0000   0.0000   0.0000   0.0000   0.0000   0.0000   0.0000   0.0000
     0.0000   0.0000   0.0000

          k = 0.0000 0.4330 0.0000 ( 11860 PWs)   bands (ev):

   -83.6039 -53.2499 -52.8422 -52.7459 -24.9041 -24.8504 -22.9908 -22.1110
   -16.2449 -15.9316 -13.8299 -12.6005 -12.0658 -11.7473 -11.7153 -10.4095
    -9.8224  -9.4658  -8.6994  -8.6884  -7.1320  -4.0134  -3.6251  -2.2419
    -1.4762  -1.2819  -0.7757   2.4296   2.9896   4.0198   4.2989   5.7888
     6.4123   6.6150   7.1621

     occupation numbers 
     1.0000   1.0000   1.0000   1.0000   1.0000   1.0000   1.0000   1.0000
     1.0000   1.0000   1.0000   1.0000   1.0000   1.0000   1.0000   1.0000
     1.0000   1.0000   1.0000   1.0000   1.0000   0.0000   0.0000   0.0000
     0.0000   0.0000   0.0000   0.0000   0.0000   0.0000   0.0000   0.0000
     0.0000   0.0000   0.0000

          k = 0.0000-0.5774 0.0000 ( 11846 PWs)   bands (ev):

   -83.5998 -53.1997 -52.8625 -52.8554 -24.2398 -24.2131 -22.8612 -22.1257
   -17.1597 -16.8848 -13.5592 -13.0601 -12.1762 -11.9708 -11.9322 -10.6057
   -10.0236  -9.2228  -8.7541  -8.4432  -7.3113  -4.0107  -3.6810  -2.3876
    -1.8990  -1.3444  -1.0608   2.1456   2.7601   4.4231   5.1187   5.8258
     6.1779   6.5203   7.2569

     occupation numbers 
     1.0000   1.0000   1.0000   1.0000   1.0000   1.0000   1.0000   1.0000
     1.0000   1.0000   1.0000   1.0000   1.0000   1.0000   1.0000   1.0000
     1.0000   1.0000   1.0000   1.0000   1.0000   0.0000   0.0000   0.0000
     0.0000   0.0000   0.0000   0.0000   0.0000   0.0000   0.0000   0.0000
     0.0000   0.0000   0.0000

          k = 0.1250 0.2165 0.0000 ( 11867 PWs)   bands (ev):

   -83.6000 -53.1246 -52.8483 -52.5887 -26.2304 -26.1449 -23.6925 -22.4180
   -15.0458 -13.0818 -12.8533 -12.2956 -11.6088 -11.3088 -10.9261  -9.9738
    -9.6597  -9.5529  -9.0095  -8.3568  -6.7805  -3.3971  -3.0845  -2.7038
    -1.9046   1.0475   1.2331   2.0133   2.0273   3.4885   3.6387   4.0485
     5.0946   5.7027   6.4690

     occupation numbers 
     1.0000   1.0000   1.0000   1.0000   1.0000   1.0000   1.0000   1.0000
     1.0000   1.0000   1.0000   1.0000   1.0000   1.0000   1.0000   1.0000
     1.0000   1.0000   1.0000   1.0000   1.0000   0.0000   0.0000   0.0000
     0.0000   0.0000   0.0000   0.0000   0.0000   0.0000   0.0000   0.0000
     0.0000   0.0000   0.0000

          k = 0.1250 0.3608 0.0000 ( 11871 PWs)   bands (ev):

   -83.6026 -53.2159 -52.9539 -52.6006 -25.2710 -25.2050 -23.1383 -22.1573
   -15.4510 -14.9648 -13.7879 -12.5718 -12.2951 -11.9825 -11.6111 -10.5851
    -9.6709  -9.3285  -9.0844  -8.6311  -7.1491  -3.7611  -3.4935  -2.3500
    -1.5960   0.1374   0.3700   2.6670   2.7394   3.7949   4.1853   5.1195
     5.7511   6.1935   6.6254

     occupation numbers 
     1.0000   1.0000   1.0000   1.0000   1.0000   1.0000   1.0000   1.0000
     1.0000   1.0000   1.0000   1.0000   1.0000   1.0000   1.0000   1.0000
     1.0000   1.0000   1.0000   1.0000   1.0000   0.0000   0.0000   0.0000
     0.0000   0.0000   0.0000   0.0000   0.0000   0.0000   0.0000   0.0000
     0.0000   0.0000   0.0000

          k = 0.1250 0.5052 0.0000 ( 11841 PWs)   bands (ev):

   -83.6064 -53.1968 -52.9793 -52.7612 -24.2819 -24.2462 -22.8262 -22.0747
   -16.7278 -16.4400 -13.6155 -13.1086 -12.7150 -12.3305 -12.0355 -10.8020
    -9.9129  -9.2704  -9.0755  -8.5489  -7.2530  -4.1067  -3.4697  -2.0869
    -1.7523  -0.7231  -0.3382   2.7308   3.2511   3.9501   4.3510   5.3755
     6.2338   6.3134   7.0529

     occupation numbers 
     1.0000   1.0000   1.0000   1.0000   1.0000   1.0000   1.0000   1.0000
     1.0000   1.0000   1.0000   1.0000   1.0000   1.0000   1.0000   1.0000
     1.0000   1.0000   1.0000   1.0000   1.0000   0.0000   0.0000   0.0000
     0.0000   0.0000   0.0000   0.0000   0.0000   0.0000   0.0000   0.0000
     0.0000   0.0000   0.0000

          k = 0.2500 0.4330 0.0000 ( 11844 PWs)   bands (ev):

   -83.6137 -53.1804 -53.1210 -52.6572 -24.3245 -24.2814 -22.7975 -22.0299
   -16.1279 -15.7819 -14.0054 -13.7999 -13.2886 -11.9823 -11.8360 -11.1878
   -10.0790  -9.5778  -9.0424  -8.5244  -7.3327  -4.0041  -3.4139  -2.1496
    -1.6658   0.5053   0.7404   2.6205   3.0285   4.4548   4.7121   5.0805
     5.4754   6.1224   6.8619

     occupation numbers 
     1.0000   1.0000   1.0000   1.0000   1.0000   1.0000   1.0000   1.0000
     1.0000   1.0000   1.0000   1.0000   1.0000   1.0000   1.0000   1.0000
     1.0000   1.0000   1.0000   1.0000   1.0000   0.0000   0.0000   0.0000
     0.0000   0.0000   0.0000   0.0000   0.0000   0.0000   0.0000   0.0000
     0.0000   0.0000   0.0000

          k = 0.2500 0.5774 0.0000 ( 11800 PWs)   bands (ev):

   -83.6030 -53.2076 -53.1348 -52.6269 -23.7835 -23.7559 -22.7484 -22.0513
   -16.3800 -16.0483 -14.6479 -14.5199 -12.8143 -12.3612 -12.1085 -10.8398
   -10.5805  -9.9952  -8.9873  -8.3418  -6.9632  -4.4056  -3.2514  -2.0455
    -1.7594   0.2874   0.6864   2.8439   3.2815   4.3314   4.7380   5.2489
     5.8546   6.3478   6.4451

     occupation numbers 
     1.0000   1.0000   1.0000   1.0000   1.0000   1.0000   1.0000   1.0000
     1.0000   1.0000   1.0000   1.0000   1.0000   1.0000   1.0000   1.0000
     1.0000   1.0000   1.0000   1.0000   1.0000   0.0000   0.0000   0.0000
     0.0000   0.0000   0.0000   0.0000   0.0000   0.0000   0.0000   0.0000
     0.0000   0.0000   0.0000

          k =-0.1250 0.0722 0.0000 ( 11905 PWs)   bands (ev):

   -83.5986 -52.9345 -52.7620 -52.7325 -26.7833 -26.6893 -24.0835 -22.6116
   -15.3915 -12.6005 -11.5949 -11.5321 -10.6933 -10.6653 -10.5395 -10.2729
    -9.7547  -8.8984  -8.7575  -8.3031  -6.5871  -2.9435  -2.7404  -2.7140
    -2.3880   0.5042   0.7307   2.4394   2.4917   3.0542   3.2426   3.5282
     4.6776   4.7397   5.1339

     occupation numbers 
     1.0000   1.0000   1.0000   1.0000   1.0000   1.0000   1.0000   1.0000
     1.0000   1.0000   1.0000   1.0000   1.0000   1.0000   1.0000   1.0000
     1.0000   1.0000   1.0000   1.0000   1.0000   0.0000   0.0000   0.0000
     0.0000   0.0000   0.0000   0.0000   0.0000   0.0000   0.0000   0.0000
     0.0000   0.0000   0.0000

          k = 0.1250 0.0722 0.0000 ( 11905 PWs)   bands (ev):

   -83.5986 -52.9344 -52.7620 -52.7325 -26.7833 -26.6893 -24.0835 -22.6116
   -15.3915 -12.6005 -11.5948 -11.5320 -10.6934 -10.6654 -10.5395 -10.2729
    -9.7547  -8.8982  -8.7577  -8.3030  -6.5871  -2.9434  -2.7405  -2.7141
    -2.3878   0.5042   0.7308   2.4394   2.4917   3.0542   3.2426   3.5282
     4.6776   4.7397   5.1339

     occupation numbers 
     1.0000   1.0000   1.0000   1.0000   1.0000   1.0000   1.0000   1.0000
     1.0000   1.0000   1.0000   1.0000   1.0000   1.0000   1.0000   1.0000
     1.0000   1.0000   1.0000   1.0000   1.0000   0.0000   0.0000   0.0000
     0.0000   0.0000   0.0000   0.0000   0.0000   0.0000   0.0000   0.0000
     0.0000   0.0000   0.0000

          k =-0.2500 0.1443 0.0000 ( 11885 PWs)   bands (ev):

   -83.6091 -53.1963 -52.8333 -52.6306 -25.9782 -25.8985 -23.5235 -22.3319
   -15.0328 -13.8368 -13.4731 -12.2914 -11.5649 -11.2207 -11.2110  -9.9332
    -9.6383  -9.3533  -9.2549  -8.4990  -6.9027  -3.5596  -3.2462  -2.4599
    -1.8626   0.1115   0.3010   2.4285   2.5718   3.4915   3.9964   5.0899
     5.9021   6.1092   6.2879

     occupation numbers 
     1.0000   1.0000   1.0000   1.0000   1.0000   1.0000   1.0000   1.0000
     1.0000   1.0000   1.0000   1.0000   1.0000   1.0000   1.0000   1.0000
     1.0000   1.0000   1.0000   1.0000   1.0000   0.0000   0.0000   0.0000
     0.0000   0.0000   0.0000   0.0000   0.0000   0.0000   0.0000   0.0000
     0.0000   0.0000   0.0000

          k = 0.2500 0.1443 0.0000 ( 11885 PWs)   bands (ev):

   -83.6091 -53.1963 -52.8333 -52.6306 -25.9782 -25.8985 -23.5235 -22.3318
   -15.0328 -13.8368 -13.4730 -12.2913 -11.5649 -11.2207 -11.2110  -9.9332
    -9.6383  -9.3534  -9.2549  -8.4990  -6.9026  -3.5595  -3.2462  -2.4600
    -1.8625   0.1115   0.3010   2.4285   2.5718   3.4915   3.9964   5.0899
     5.9021   6.1092   6.2878

     occupation numbers 
     1.0000   1.0000   1.0000   1.0000   1.0000   1.0000   1.0000   1.0000
     1.0000   1.0000   1.0000   1.0000   1.0000   1.0000   1.0000   1.0000
     1.0000   1.0000   1.0000   1.0000   1.0000   0.0000   0.0000   0.0000
     0.0000   0.0000   0.0000   0.0000   0.0000   0.0000   0.0000   0.0000
     0.0000   0.0000   0.0000

          k =-0.3750 0.2165 0.0000 ( 11860 PWs)   bands (ev):

   -83.6039 -53.2499 -52.8422 -52.7459 -24.9041 -24.8504 -22.9908 -22.1110
   -16.2450 -15.9316 -13.8299 -12.6005 -12.0658 -11.7472 -11.7152 -10.4095
    -9.8223  -9.4657  -8.6993  -8.6885  -7.1320  -4.0135  -3.6252  -2.2418
    -1.4762  -1.2819  -0.7757   2.4297   2.9895   4.0198   4.2989   5.7889
     6.4122   6.6150   7.1622

     occupation numbers 
     1.0000   1.0000   1.0000   1.0000   1.0000   1.0000   1.0000   1.0000
     1.0000   1.0000   1.0000   1.0000   1.0000   1.0000   1.0000   1.0000
     1.0000   1.0000   1.0000   1.0000   1.0000   0.0000   0.0000   0.0000
     0.0000   0.0000   0.0000   0.0000   0.0000   0.0000   0.0000   0.0000
     0.0000   0.0000   0.0000

          k = 0.3750 0.2165 0.0000 ( 11860 PWs)   bands (ev):

   -83.6039 -53.2499 -52.8422 -52.7459 -24.9041 -24.8504 -22.9908 -22.1110
   -16.2449 -15.9316 -13.8299 -12.6005 -12.0658 -11.7473 -11.7153 -10.4095
    -9.8224  -9.4657  -8.6994  -8.6884  -7.1320  -4.0134  -3.6251  -2.2419
    -1.4762  -1.2819  -0.7757   2.4296   2.9895   4.0198   4.2989   5.7888
     6.4123   6.6150   7.1619

     occupation numbers 
     1.0000   1.0000   1.0000   1.0000   1.0000   1.0000   1.0000   1.0000
     1.0000   1.0000   1.0000   1.0000   1.0000   1.0000   1.0000   1.0000
     1.0000   1.0000   1.0000   1.0000   1.0000   0.0000   0.0000   0.0000
     0.0000   0.0000   0.0000   0.0000   0.0000   0.0000   0.0000   0.0000
     0.0000   0.0000   0.0000

          k = 0.5000-0.2887 0.0000 ( 11846 PWs)   bands (ev):

   -83.5998 -53.1997 -52.8625 -52.8554 -24.2398 -24.2131 -22.8611 -22.1257
   -17.1597 -16.8848 -13.5592 -13.0600 -12.1763 -11.9707 -11.9321 -10.6057
   -10.0234  -9.2228  -8.7542  -8.4431  -7.3113  -4.0108  -3.6810  -2.3876
    -1.8990  -1.3444  -1.0608   2.1456   2.7600   4.4231   5.1187   5.8258
     6.1779   6.5203   7.2570

     occupation numbers 
     1.0000   1.0000   1.0000   1.0000   1.0000   1.0000   1.0000   1.0000
     1.0000   1.0000   1.0000   1.0000   1.0000   1.0000   1.0000   1.0000
     1.0000   1.0000   1.0000   1.0000   1.0000   0.0000   0.0000   0.0000
     0.0000   0.0000   0.0000   0.0000   0.0000   0.0000   0.0000   0.0000
     0.0000   0.0000   0.0000

          k =-0.5000-0.2887 0.0000 ( 11846 PWs)   bands (ev):

   -83.5998 -53.1997 -52.8625 -52.8554 -24.2398 -24.2131 -22.8611 -22.1256
   -17.1597 -16.8848 -13.5592 -13.0601 -12.1762 -11.9708 -11.9322 -10.6057
   -10.0236  -9.2228  -8.7542  -8.4432  -7.3113  -4.0107  -3.6810  -2.3876
    -1.8990  -1.3444  -1.0608   2.1456   2.7600   4.4231   5.1187   5.8258
     6.1779   6.5203   7.2569

     occupation numbers 
     1.0000   1.0000   1.0000   1.0000   1.0000   1.0000   1.0000   1.0000
     1.0000   1.0000   1.0000   1.0000   1.0000   1.0000   1.0000   1.0000
     1.0000   1.0000   1.0000   1.0000   1.0000   0.0000   0.0000   0.0000
     0.0000   0.0000   0.0000   0.0000   0.0000   0.0000   0.0000   0.0000
     0.0000   0.0000   0.0000

          k =-0.1250 0.2165 0.0000 ( 11867 PWs)   bands (ev):

   -83.6000 -53.1246 -52.8483 -52.5887 -26.2304 -26.1449 -23.6925 -22.4180
   -15.0458 -13.0818 -12.8533 -12.2956 -11.6088 -11.3087 -10.9261  -9.9738
    -9.6596  -9.5528  -9.0095  -8.3568  -6.7806  -3.3971  -3.0845  -2.7038
    -1.9046   1.0475   1.2331   2.0133   2.0273   3.4885   3.6387   4.0485
     5.0946   5.7027   6.4690

     occupation numbers 
     1.0000   1.0000   1.0000   1.0000   1.0000   1.0000   1.0000   1.0000
     1.0000   1.0000   1.0000   1.0000   1.0000   1.0000   1.0000   1.0000
     1.0000   1.0000   1.0000   1.0000   1.0000   0.0000   0.0000   0.0000
     0.0000   0.0000   0.0000   0.0000   0.0000   0.0000   0.0000   0.0000
     0.0000   0.0000   0.0000

          k = 0.2500-0.0000 0.0000 ( 11867 PWs)   bands (ev):

   -83.6000 -53.1246 -52.8483 -52.5887 -26.2304 -26.1449 -23.6925 -22.4180
   -15.0458 -13.0818 -12.8533 -12.2956 -11.6088 -11.3087 -10.9261  -9.9738
    -9.6596  -9.5527  -9.0095  -8.3568  -6.7806  -3.3971  -3.0845  -2.7038
    -1.9046   1.0475   1.2332   2.0133   2.0273   3.4885   3.6387   4.0485
     5.0945   5.7027   6.4691

     occupation numbers 
     1.0000   1.0000   1.0000   1.0000   1.0000   1.0000   1.0000   1.0000
     1.0000   1.0000   1.0000   1.0000   1.0000   1.0000   1.0000   1.0000
     1.0000   1.0000   1.0000   1.0000   1.0000   0.0000   0.0000   0.0000
     0.0000   0.0000   0.0000   0.0000   0.0000   0.0000   0.0000   0.0000
     0.0000   0.0000   0.0000

          k =-0.1250 0.3608 0.0000 ( 11871 PWs)   bands (ev):

   -83.6026 -53.2159 -52.9539 -52.6006 -25.2710 -25.2050 -23.1383 -22.1573
   -15.4510 -14.9648 -13.7879 -12.5718 -12.2951 -11.9825 -11.6111 -10.5851
    -9.6709  -9.3285  -9.0844  -8.6310  -7.1491  -3.7611  -3.4935  -2.3500
    -1.5960   0.1374   0.3700   2.6670   2.7394   3.7949   4.1853   5.1196
     5.7511   6.1935   6.6254

     occupation numbers 
     1.0000   1.0000   1.0000   1.0000   1.0000   1.0000   1.0000   1.0000
     1.0000   1.0000   1.0000   1.0000   1.0000   1.0000   1.0000   1.0000
     1.0000   1.0000   1.0000   1.0000   1.0000   0.0000   0.0000   0.0000
     0.0000   0.0000   0.0000   0.0000   0.0000   0.0000   0.0000   0.0000
     0.0000   0.0000   0.0000

          k =-0.2500 0.2887 0.0000 ( 11871 PWs)   bands (ev):

   -83.6026 -53.2159 -52.9539 -52.6006 -25.2710 -25.2050 -23.1383 -22.1573
   -15.4510 -14.9649 -13.7879 -12.5718 -12.2950 -11.9825 -11.6111 -10.5850
    -9.6708  -9.3284  -9.0843  -8.6311  -7.1492  -3.7611  -3.4935  -2.3499
    -1.5960   0.1374   0.3700   2.6670   2.7394   3.7948   4.1852   5.1196
     5.7511   6.1935   6.6253

     occupation numbers 
     1.0000   1.0000   1.0000   1.0000   1.0000   1.0000   1.0000   1.0000
     1.0000   1.0000   1.0000   1.0000   1.0000   1.0000   1.0000   1.0000
     1.0000   1.0000   1.0000   1.0000   1.0000   0.0000   0.0000   0.0000
     0.0000   0.0000   0.0000   0.0000   0.0000   0.0000   0.0000   0.0000
     0.0000   0.0000   0.0000

          k = 0.3750 0.0722 0.0000 ( 11871 PWs)   bands (ev):

   -83.6026 -53.2159 -52.9539 -52.6006 -25.2710 -25.2050 -23.1383 -22.1573
   -15.4510 -14.9648 -13.7879 -12.5718 -12.2951 -11.9825 -11.6111 -10.5851
    -9.6709  -9.3285  -9.0844  -8.6310  -7.1491  -3.7611  -3.4935  -2.3500
    -1.5960   0.1374   0.3700   2.6670   2.7394   3.7949   4.1853   5.1196
     5.7511   6.1936   6.6254

     occupation numbers 
     1.0000   1.0000   1.0000   1.0000   1.0000   1.0000   1.0000   1.0000
     1.0000   1.0000   1.0000   1.0000   1.0000   1.0000   1.0000   1.0000
     1.0000   1.0000   1.0000   1.0000   1.0000   0.0000   0.0000   0.0000
     0.0000   0.0000   0.0000   0.0000   0.0000   0.0000   0.0000   0.0000
     0.0000   0.0000   0.0000

          k =-0.2500-0.2887 0.0000 ( 11871 PWs)   bands (ev):

   -83.6026 -53.2159 -52.9539 -52.6006 -25.2710 -25.2050 -23.1383 -22.1573
   -15.4510 -14.9648 -13.7879 -12.5718 -12.2951 -11.9825 -11.6111 -10.5851
    -9.6708  -9.3285  -9.0844  -8.6311  -7.1491  -3.7611  -3.4935  -2.3500
    -1.5960   0.1374   0.3700   2.6670   2.7394   3.7948   4.1852   5.1196
     5.7511   6.1935   6.6254

     occupation numbers 
     1.0000   1.0000   1.0000   1.0000   1.0000   1.0000   1.0000   1.0000
     1.0000   1.0000   1.0000   1.0000   1.0000   1.0000   1.0000   1.0000
     1.0000   1.0000   1.0000   1.0000   1.0000   0.0000   0.0000   0.0000
     0.0000   0.0000   0.0000   0.0000   0.0000   0.0000   0.0000   0.0000
     0.0000   0.0000   0.0000

          k = 0.3750-0.0722 0.0000 ( 11871 PWs)   bands (ev):

   -83.6026 -53.2159 -52.9539 -52.6006 -25.2710 -25.2050 -23.1383 -22.1573
   -15.4510 -14.9649 -13.7879 -12.5718 -12.2950 -11.9825 -11.6111 -10.5850
    -9.6708  -9.3284  -9.0844  -8.6311  -7.1492  -3.7611  -3.4935  -2.3499
    -1.5960   0.1374   0.3700   2.6670   2.7394   3.7948   4.1853   5.1196
     5.7511   6.1936   6.6253

     occupation numbers 
     1.0000   1.0000   1.0000   1.0000   1.0000   1.0000   1.0000   1.0000
     1.0000   1.0000   1.0000   1.0000   1.0000   1.0000   1.0000   1.0000
     1.0000   1.0000   1.0000   1.0000   1.0000   0.0000   0.0000   0.0000
     0.0000   0.0000   0.0000   0.0000   0.0000   0.0000   0.0000   0.0000
     0.0000   0.0000   0.0000

          k =-0.1250 0.5052 0.0000 ( 11841 PWs)   bands (ev):

   -83.6064 -53.1968 -52.9793 -52.7612 -24.2819 -24.2462 -22.8262 -22.0747
   -16.7278 -16.4400 -13.6155 -13.1086 -12.7150 -12.3305 -12.0355 -10.8020
    -9.9129  -9.2704  -9.0755  -8.5489  -7.2530  -4.1067  -3.4697  -2.0870
    -1.7522  -0.7231  -0.3382   2.7308   3.2511   3.9501   4.3510   5.3755
     6.2338   6.3133   7.0529

     occupation numbers 
     1.0000   1.0000   1.0000   1.0000   1.0000   1.0000   1.0000   1.0000
     1.0000   1.0000   1.0000   1.0000   1.0000   1.0000   1.0000   1.0000
     1.0000   1.0000   1.0000   1.0000   1.0000   0.0000   0.0000   0.0000
     0.0000   0.0000   0.0000   0.0000   0.0000   0.0000   0.0000   0.0000
     0.0000   0.0000   0.0000

          k =-0.3750 0.3608 0.0000 ( 11841 PWs)   bands (ev):

   -83.6064 -53.1968 -52.9793 -52.7612 -24.2819 -24.2462 -22.8262 -22.0748
   -16.7279 -16.4401 -13.6155 -13.1086 -12.7149 -12.3304 -12.0355 -10.8020
    -9.9128  -9.2703  -9.0754  -8.5489  -7.2531  -4.1068  -3.4698  -2.0869
    -1.7523  -0.7231  -0.3382   2.7309   3.2511   3.9501   4.3510   5.3755
     6.2338   6.3133   7.0530

     occupation numbers 
     1.0000   1.0000   1.0000   1.0000   1.0000   1.0000   1.0000   1.0000
     1.0000   1.0000   1.0000   1.0000   1.0000   1.0000   1.0000   1.0000
     1.0000   1.0000   1.0000   1.0000   1.0000   0.0000   0.0000   0.0000
     0.0000   0.0000   0.0000   0.0000   0.0000   0.0000   0.0000   0.0000
     0.0000   0.0000   0.0000

          k = 0.5000 0.1443 0.0000 ( 11841 PWs)   bands (ev):

   -83.6064 -53.1968 -52.9793 -52.7612 -24.2819 -24.2462 -22.8262 -22.0747
   -16.7278 -16.4401 -13.6155 -13.1086 -12.7150 -12.3305 -12.0355 -10.8021
    -9.9129  -9.2704  -9.0754  -8.5489  -7.2530  -4.1067  -3.4697  -2.0870
    -1.7522  -0.7231  -0.3382   2.7308   3.2510   3.9501   4.3510   5.3756
     6.2338   6.3134   7.0529

     occupation numbers 
     1.0000   1.0000   1.0000   1.0000   1.0000   1.0000   1.0000   1.0000
     1.0000   1.0000   1.0000   1.0000   1.0000   1.0000   1.0000   1.0000
     1.0000   1.0000   1.0000   1.0000   1.0000   0.0000   0.0000   0.0000
     0.0000   0.0000   0.0000   0.0000   0.0000   0.0000   0.0000   0.0000
     0.0000   0.0000   0.0000

          k =-0.3750-0.3608 0.0000 ( 11841 PWs)   bands (ev):

   -83.6064 -53.1968 -52.9793 -52.7612 -24.2819 -24.2462 -22.8262 -22.0747
   -16.7278 -16.4401 -13.6155 -13.1086 -12.7150 -12.3305 -12.0355 -10.8020
    -9.9129  -9.2704  -9.0755  -8.5489  -7.2530  -4.1067  -3.4697  -2.0869
    -1.7523  -0.7231  -0.3382   2.7308   3.2511   3.9501   4.3510   5.3755
     6.2338   6.3134   7.0530

     occupation numbers 
     1.0000   1.0000   1.0000   1.0000   1.0000   1.0000   1.0000   1.0000
     1.0000   1.0000   1.0000   1.0000   1.0000   1.0000   1.0000   1.0000
     1.0000   1.0000   1.0000   1.0000   1.0000   0.0000   0.0000   0.0000
     0.0000   0.0000   0.0000   0.0000   0.0000   0.0000   0.0000   0.0000
     0.0000   0.0000   0.0000

          k = 0.5000-0.1443 0.0000 ( 11841 PWs)   bands (ev):

   -83.6064 -53.1968 -52.9793 -52.7612 -24.2819 -24.2462 -22.8262 -22.0748
   -16.7279 -16.4401 -13.6155 -13.1086 -12.7149 -12.3304 -12.0355 -10.8020
    -9.9128  -9.2704  -9.0754  -8.5489  -7.2531  -4.1068  -3.4698  -2.0869
    -1.7523  -0.7231  -0.3382   2.7308   3.2511   3.9501   4.3510   5.3756
     6.2338   6.3133   7.0529

     occupation numbers 
     1.0000   1.0000   1.0000   1.0000   1.0000   1.0000   1.0000   1.0000
     1.0000   1.0000   1.0000   1.0000   1.0000   1.0000   1.0000   1.0000
     1.0000   1.0000   1.0000   1.0000   1.0000   0.0000   0.0000   0.0000
     0.0000   0.0000   0.0000   0.0000   0.0000   0.0000   0.0000   0.0000
     0.0000   0.0000   0.0000

          k =-0.2500 0.4330 0.0000 ( 11844 PWs)   bands (ev):

   -83.6137 -53.1803 -53.1210 -52.6572 -24.3245 -24.2814 -22.7975 -22.0299
   -16.1280 -15.7820 -14.0054 -13.7998 -13.2886 -11.9823 -11.8360 -11.1878
   -10.0790  -9.5778  -9.0424  -8.5243  -7.3328  -4.0041  -3.4139  -2.1497
    -1.6657   0.5054   0.7404   2.6205   3.0285   4.4548   4.7121   5.0805
     5.4753   6.1225   6.8619

     occupation numbers 
     1.0000   1.0000   1.0000   1.0000   1.0000   1.0000   1.0000   1.0000
     1.0000   1.0000   1.0000   1.0000   1.0000   1.0000   1.0000   1.0000
     1.0000   1.0000   1.0000   1.0000   1.0000   0.0000   0.0000   0.0000
     0.0000   0.0000   0.0000   0.0000   0.0000   0.0000   0.0000   0.0000
     0.0000   0.0000   0.0000

          k = 0.5000-0.0000 0.0000 ( 11844 PWs)   bands (ev):

   -83.6137 -53.1803 -53.1210 -52.6573 -24.3245 -24.2814 -22.7975 -22.0299
   -16.1280 -15.7820 -14.0054 -13.7998 -13.2886 -11.9823 -11.8359 -11.1878
   -10.0790  -9.5778  -9.0424  -8.5243  -7.3328  -4.0041  -3.4139  -2.1497
    -1.6657   0.5054   0.7404   2.6205   3.0285   4.4548   4.7120   5.0806
     5.4753   6.1225   6.8618

     occupation numbers 
     1.0000   1.0000   1.0000   1.0000   1.0000   1.0000   1.0000   1.0000
     1.0000   1.0000   1.0000   1.0000   1.0000   1.0000   1.0000   1.0000
     1.0000   1.0000   1.0000   1.0000   1.0000   0.0000   0.0000   0.0000
     0.0000   0.0000   0.0000   0.0000   0.0000   0.0000   0.0000   0.0000
     0.0000   0.0000   0.0000

          k =-0.3750 0.5052 0.0000 ( 11800 PWs)   bands (ev):

   -83.6030 -53.2076 -53.1348 -52.6269 -23.7835 -23.7559 -22.7484 -22.0513
   -16.3800 -16.0483 -14.6478 -14.5199 -12.8143 -12.3612 -12.1085 -10.8398
   -10.5804  -9.9952  -8.9873  -8.3418  -6.9632  -4.4057  -3.2514  -2.0456
    -1.7593   0.2874   0.6863   2.8439   3.2815   4.3314   4.7380   5.2490
     5.8545   6.3478   6.4452

     occupation numbers 
     1.0000   1.0000   1.0000   1.0000   1.0000   1.0000   1.0000   1.0000
     1.0000   1.0000   1.0000   1.0000   1.0000   1.0000   1.0000   1.0000
     1.0000   1.0000   1.0000   1.0000   1.0000   0.0000   0.0000   0.0000
     0.0000   0.0000   0.0000   0.0000   0.0000   0.0000   0.0000   0.0000
     0.0000   0.0000   0.0000

          k = 0.6250 0.0722 0.0000 ( 11800 PWs)   bands (ev):

   -83.6030 -53.2076 -53.1348 -52.6269 -23.7835 -23.7559 -22.7484 -22.0513
   -16.3800 -16.0483 -14.6479 -14.5199 -12.8143 -12.3612 -12.1085 -10.8398
   -10.5805  -9.9952  -8.9873  -8.3418  -6.9632  -4.4056  -3.2514  -2.0455
    -1.7594   0.2874   0.6864   2.8439   3.2815   4.3314   4.7380   5.2490
     5.8546   6.3479   6.4452

     occupation numbers 
     1.0000   1.0000   1.0000   1.0000   1.0000   1.0000   1.0000   1.0000
     1.0000   1.0000   1.0000   1.0000   1.0000   1.0000   1.0000   1.0000
     1.0000   1.0000   1.0000   1.0000   1.0000   0.0000   0.0000   0.0000
     0.0000   0.0000   0.0000   0.0000   0.0000   0.0000   0.0000   0.0000
     0.0000   0.0000   0.0000

     highest occupied, lowest unoccupied level (ev):    -6.5712   -4.4057

     Using ACE for calculation of exact exchange

     EXX grid:    95059 G-vectors     FFT dimensions: (  32,  32, 225)
     ACE projected onto    35 (nbndproj) and applied to    35 (nbnd) bands
     Calculation (EXX) restarted with the new ACE potential
     Davidson diagonalization with overlap

     Computing kpt #:     1  of    34
     total cpu time spent up to now is      456.2 secs

     Computing kpt #:     2  of    34
     total cpu time spent up to now is      458.3 secs

     Computing kpt #:     3  of    34
     total cpu time spent up to now is      460.3 secs

     Computing kpt #:     4  of    34
     total cpu time spent up to now is      462.4 secs

     Computing kpt #:     5  of    34
     total cpu time spent up to now is      464.2 secs

     Computing kpt #:     6  of    34
     total cpu time spent up to now is      466.2 secs

     Computing kpt #:     7  of    34
     total cpu time spent up to now is      468.3 secs

     Computing kpt #:     8  of    34
     total cpu time spent up to now is      470.4 secs

     Computing kpt #:     9  of    34
     total cpu time spent up to now is      472.5 secs

     Computing kpt #:    10  of    34
     total cpu time spent up to now is      474.5 secs

     Computing kpt #:    11  of    34
     total cpu time spent up to now is      476.6 secs

     Computing kpt #:    12  of    34
     total cpu time spent up to now is      478.6 secs

     Computing kpt #:    13  of    34
     total cpu time spent up to now is      480.7 secs

     Computing kpt #:    14  of    34
     total cpu time spent up to now is      482.7 secs

     Computing kpt #:    15  of    34
     total cpu time spent up to now is      484.7 secs

     Computing kpt #:    16  of    34
     total cpu time spent up to now is      486.8 secs

     Computing kpt #:    17  of    34
     total cpu time spent up to now is      488.6 secs

     Computing kpt #:    18  of    34
     total cpu time spent up to now is      490.3 secs

     Computing kpt #:    19  of    34
     total cpu time spent up to now is      492.4 secs

     Computing kpt #:    20  of    34
     total cpu time spent up to now is      494.5 secs

     Computing kpt #:    21  of    34
     total cpu time spent up to now is      496.6 secs

     Computing kpt #:    22  of    34
     total cpu time spent up to now is      498.7 secs

     Computing kpt #:    23  of    34
     total cpu time spent up to now is      500.9 secs

     Computing kpt #:    24  of    34
     total cpu time spent up to now is      503.0 secs

     Computing kpt #:    25  of    34
     total cpu time spent up to now is      505.1 secs

     Computing kpt #:    26  of    34
     total cpu time spent up to now is      507.2 secs

     Computing kpt #:    27  of    34
     total cpu time spent up to now is      509.3 secs

     Computing kpt #:    28  of    34
     total cpu time spent up to now is      511.4 secs

     Computing kpt #:    29  of    34
     total cpu time spent up to now is      513.4 secs

     Computing kpt #:    30  of    34
     total cpu time spent up to now is      515.5 secs

     Computing kpt #:    31  of    34
     total cpu time spent up to now is      517.6 secs

     Computing kpt #:    32  of    34
     total cpu time spent up to now is      519.6 secs

     Computing kpt #:    33  of    34
     total cpu time spent up to now is      521.7 secs

     Computing kpt #:    34  of    34
     total cpu time spent up to now is      523.7 secs

     ethr =  2.38E-13,  avg # of iterations = 23.9

     total cpu time spent up to now is      523.7 secs

     End of band structure calculation

          k = 0.0000 0.0000 0.0000 ( 11937 PWs)   bands (ev):

   -83.5876 -52.8391 -52.7329 -52.7329 -27.0867 -26.9889 -24.3178 -22.7305
   -15.6433 -12.7266 -10.6451 -10.4743 -10.4742 -10.4277 -10.4276  -9.9055
    -9.9054  -8.4930  -8.4927  -8.4910  -6.5711  -2.6778  -2.6776  -2.4418
    -2.4417  -0.2224   0.1109   2.3491   2.3826   2.5027   4.0140   4.0140
     4.0684   4.0685   4.2611

     occupation numbers 
     1.0000   1.0000   1.0000   1.0000   1.0000   1.0000   1.0000   1.0000
     1.0000   1.0000   1.0000   1.0000   1.0000   1.0000   1.0000   1.0000
     1.0000   1.0000   1.0000   1.0000   1.0000   0.0000   0.0000   0.0000
     0.0000   0.0000   0.0000   0.0000   0.0000   0.0000   0.0000   0.0000
     0.0000   0.0000   0.0000

          k = 0.0000 0.1443 0.0000 ( 11905 PWs)   bands (ev):

   -83.5984 -52.9342 -52.7618 -52.7323 -26.7833 -26.6893 -24.0834 -22.6116
   -15.3914 -12.6005 -11.5948 -11.5320 -10.6934 -10.6654 -10.5394 -10.2728
    -9.7546  -8.8981  -8.7577  -8.3030  -6.5869  -2.9433  -2.7404  -2.7140
    -2.3877   0.5042   0.7308   2.4394   2.4917   3.0542   3.2426   3.5282
     4.6776   4.7397   5.1341

     occupation numbers 
     1.0000   1.0000   1.0000   1.0000   1.0000   1.0000   1.0000   1.0000
     1.0000   1.0000   1.0000   1.0000   1.0000   1.0000   1.0000   1.0000
     1.0000   1.0000   1.0000   1.0000   1.0000   0.0000   0.0000   0.0000
     0.0000   0.0000   0.0000   0.0000   0.0000   0.0000   0.0000   0.0000
     0.0000   0.0000   0.0000

          k = 0.0000 0.2887 0.0000 ( 11885 PWs)   bands (ev):

   -83.6089 -53.1960 -52.8331 -52.6303 -25.9782 -25.8985 -23.5235 -22.3318
   -15.0327 -13.8368 -13.4730 -12.2913 -11.5648 -11.2207 -11.2110  -9.9332
    -9.6383  -9.3533  -9.2549  -8.4989  -6.9024  -3.5594  -3.2461  -2.4598
    -1.8624   0.1115   0.3010   2.4285   2.5718   3.4916   3.9965   5.0900
     5.9023   6.1092   6.2879

     occupation numbers 
     1.0000   1.0000   1.0000   1.0000   1.0000   1.0000   1.0000   1.0000
     1.0000   1.0000   1.0000   1.0000   1.0000   1.0000   1.0000   1.0000
     1.0000   1.0000   1.0000   1.0000   1.0000   0.0000   0.0000   0.0000
     0.0000   0.0000   0.0000   0.0000   0.0000   0.0000   0.0000   0.0000
     0.0000   0.0000   0.0000

          k = 0.0000 0.4330 0.0000 ( 11860 PWs)   bands (ev):

   -83.6036 -53.2496 -52.8419 -52.7457 -24.9041 -24.8504 -22.9907 -22.1110
   -16.2449 -15.9315 -13.8299 -12.6004 -12.0657 -11.7473 -11.7153 -10.4095
    -9.8223  -9.4657  -8.6993  -8.6884  -7.1318  -4.0132  -3.6250  -2.2418
    -1.4760  -1.2819  -0.7757   2.4297   2.9896   4.0198   4.2990   5.7888
     6.4124   6.6151   7.1621

     occupation numbers 
     1.0000   1.0000   1.0000   1.0000   1.0000   1.0000   1.0000   1.0000
     1.0000   1.0000   1.0000   1.0000   1.0000   1.0000   1.0000   1.0000
     1.0000   1.0000   1.0000   1.0000   1.0000   0.0000   0.0000   0.0000
     0.0000   0.0000   0.0000   0.0000   0.0000   0.0000   0.0000   0.0000
     0.0000   0.0000   0.0000

          k = 0.0000-0.5774 0.0000 ( 11846 PWs)   bands (ev):

   -83.5995 -53.1995 -52.8622 -52.8552 -24.2398 -24.2131 -22.8611 -22.1256
   -17.1597 -16.8848 -13.5591 -13.0600 -12.1762 -11.9708 -11.9322 -10.6056
   -10.0235  -9.2228  -8.7541  -8.4432  -7.3111  -4.0105  -3.6808  -2.3876
    -1.8990  -1.3443  -1.0607   2.1457   2.7601   4.4231   5.1187   5.8259
     6.1780   6.5204   7.2570

     occupation numbers 
     1.0000   1.0000   1.0000   1.0000   1.0000   1.0000   1.0000   1.0000
     1.0000   1.0000   1.0000   1.0000   1.0000   1.0000   1.0000   1.0000
     1.0000   1.0000   1.0000   1.0000   1.0000   0.0000   0.0000   0.0000
     0.0000   0.0000   0.0000   0.0000   0.0000   0.0000   0.0000   0.0000
     0.0000   0.0000   0.0000

          k = 0.1250 0.2165 0.0000 ( 11867 PWs)   bands (ev):

   -83.5997 -53.1244 -52.8481 -52.5885 -26.2304 -26.1449 -23.6925 -22.4180
   -15.0457 -13.0818 -12.8533 -12.2956 -11.6088 -11.3088 -10.9261  -9.9737
    -9.6596  -9.5528  -9.0094  -8.3568  -6.7804  -3.3969  -3.0843  -2.7037
    -1.9044   1.0475   1.2332   2.0133   2.0273   3.4886   3.6387   4.0486
     5.0946   5.7028   6.4692

     occupation numbers 
     1.0000   1.0000   1.0000   1.0000   1.0000   1.0000   1.0000   1.0000
     1.0000   1.0000   1.0000   1.0000   1.0000   1.0000   1.0000   1.0000
     1.0000   1.0000   1.0000   1.0000   1.0000   0.0000   0.0000   0.0000
     0.0000   0.0000   0.0000   0.0000   0.0000   0.0000   0.0000   0.0000
     0.0000   0.0000   0.0000

          k = 0.1250 0.3608 0.0000 ( 11871 PWs)   bands (ev):

   -83.6024 -53.2156 -52.9537 -52.6004 -25.2710 -25.2050 -23.1382 -22.1573
   -15.4510 -14.9648 -13.7879 -12.5718 -12.2951 -11.9824 -11.6111 -10.5850
    -9.6708  -9.3284  -9.0844  -8.6310  -7.1489  -3.7609  -3.4933  -2.3498
    -1.5959   0.1374   0.3700   2.6670   2.7394   3.7949   4.1853   5.1196
     5.7512   6.1937   6.6255

     occupation numbers 
     1.0000   1.0000   1.0000   1.0000   1.0000   1.0000   1.0000   1.0000
     1.0000   1.0000   1.0000   1.0000   1.0000   1.0000   1.0000   1.0000
     1.0000   1.0000   1.0000   1.0000   1.0000   0.0000   0.0000   0.0000
     0.0000   0.0000   0.0000   0.0000   0.0000   0.0000   0.0000   0.0000
     0.0000   0.0000   0.0000

          k = 0.1250 0.5052 0.0000 ( 11841 PWs)   bands (ev):

   -83.6062 -53.1966 -52.9791 -52.7610 -24.2819 -24.2462 -22.8262 -22.0747
   -16.7278 -16.4400 -13.6154 -13.1086 -12.7150 -12.3304 -12.0355 -10.8019
    -9.9128  -9.2703  -9.0754  -8.5488  -7.2528  -4.1065  -3.4695  -2.0868
    -1.7522  -0.7230  -0.3382   2.7309   3.2511   3.9501   4.3510   5.3756
     6.2339   6.3134   7.0532

     occupation numbers 
     1.0000   1.0000   1.0000   1.0000   1.0000   1.0000   1.0000   1.0000
     1.0000   1.0000   1.0000   1.0000   1.0000   1.0000   1.0000   1.0000
     1.0000   1.0000   1.0000   1.0000   1.0000   0.0000   0.0000   0.0000
     0.0000   0.0000   0.0000   0.0000   0.0000   0.0000   0.0000   0.0000
     0.0000   0.0000   0.0000

          k = 0.2500 0.4330 0.0000 ( 11844 PWs)   bands (ev):

   -83.6135 -53.1801 -53.1208 -52.6570 -24.3245 -24.2814 -22.7974 -22.0299
   -16.1279 -15.7819 -14.0054 -13.7999 -13.2886 -11.9822 -11.8359 -11.1877
   -10.0789  -9.5778  -9.0423  -8.5243  -7.3325  -4.0039  -3.4137  -2.1495
    -1.6656   0.5054   0.7404   2.6205   3.0285   4.4548   4.7121   5.0805
     5.4754   6.1224   6.8621

     occupation numbers 
     1.0000   1.0000   1.0000   1.0000   1.0000   1.0000   1.0000   1.0000
     1.0000   1.0000   1.0000   1.0000   1.0000   1.0000   1.0000   1.0000
     1.0000   1.0000   1.0000   1.0000   1.0000   0.0000   0.0000   0.0000
     0.0000   0.0000   0.0000   0.0000   0.0000   0.0000   0.0000   0.0000
     0.0000   0.0000   0.0000

          k = 0.2500 0.5774 0.0000 ( 11800 PWs)   bands (ev):

   -83.6028 -53.2074 -53.1346 -52.6267 -23.7835 -23.7559 -22.7483 -22.0512
   -16.3800 -16.0482 -14.6478 -14.5199 -12.8142 -12.3612 -12.1084 -10.8397
   -10.5804  -9.9952  -8.9873  -8.3417  -6.9630  -4.4054  -3.2512  -2.0454
    -1.7592   0.2875   0.6864   2.8439   3.2815   4.3314   4.7380   5.2490
     5.8546   6.3479   6.4453

     occupation numbers 
     1.0000   1.0000   1.0000   1.0000   1.0000   1.0000   1.0000   1.0000
     1.0000   1.0000   1.0000   1.0000   1.0000   1.0000   1.0000   1.0000
     1.0000   1.0000   1.0000   1.0000   1.0000   0.0000   0.0000   0.0000
     0.0000   0.0000   0.0000   0.0000   0.0000   0.0000   0.0000   0.0000
     0.0000   0.0000   0.0000

          k =-0.1250 0.0722 0.0000 ( 11905 PWs)   bands (ev):

   -83.5984 -52.9342 -52.7618 -52.7323 -26.7833 -26.6893 -24.0834 -22.6116
   -15.3914 -12.6005 -11.5948 -11.5321 -10.6933 -10.6653 -10.5394 -10.2729
    -9.7546  -8.8983  -8.7574  -8.3030  -6.5870  -2.9434  -2.7403  -2.7139
    -2.3878   0.5042   0.7308   2.4394   2.4917   3.0542   3.2426   3.5282
     4.6776   4.7397   5.1340

     occupation numbers 
     1.0000   1.0000   1.0000   1.0000   1.0000   1.0000   1.0000   1.0000
     1.0000   1.0000   1.0000   1.0000   1.0000   1.0000   1.0000   1.0000
     1.0000   1.0000   1.0000   1.0000   1.0000   0.0000   0.0000   0.0000
     0.0000   0.0000   0.0000   0.0000   0.0000   0.0000   0.0000   0.0000
     0.0000   0.0000   0.0000

          k = 0.1250 0.0722 0.0000 ( 11905 PWs)   bands (ev):

   -83.5984 -52.9342 -52.7618 -52.7323 -26.7833 -26.6893 -24.0834 -22.6116
   -15.3914 -12.6005 -11.5948 -11.5320 -10.6934 -10.6654 -10.5394 -10.2729
    -9.7546  -8.8981  -8.7576  -8.3030  -6.5869  -2.9433  -2.7404  -2.7140
    -2.3877   0.5042   0.7308   2.4394   2.4917   3.0542   3.2426   3.5282
     4.6776   4.7397   5.1343

     occupation numbers 
     1.0000   1.0000   1.0000   1.0000   1.0000   1.0000   1.0000   1.0000
     1.0000   1.0000   1.0000   1.0000   1.0000   1.0000   1.0000   1.0000
     1.0000   1.0000   1.0000   1.0000   1.0000   0.0000   0.0000   0.0000
     0.0000   0.0000   0.0000   0.0000   0.0000   0.0000   0.0000   0.0000
     0.0000   0.0000   0.0000

          k =-0.2500 0.1443 0.0000 ( 11885 PWs)   bands (ev):

   -83.6089 -53.1960 -52.8331 -52.6303 -25.9782 -25.8985 -23.5234 -22.3318
   -15.0327 -13.8368 -13.4730 -12.2914 -11.5648 -11.2206 -11.2110  -9.9332
    -9.6383  -9.3532  -9.2548  -8.4990  -6.9025  -3.5594  -3.2460  -2.4598
    -1.8625   0.1115   0.3010   2.4285   2.5718   3.4916   3.9964   5.0899
     5.9021   6.1092   6.2879

     occupation numbers 
     1.0000   1.0000   1.0000   1.0000   1.0000   1.0000   1.0000   1.0000
     1.0000   1.0000   1.0000   1.0000   1.0000   1.0000   1.0000   1.0000
     1.0000   1.0000   1.0000   1.0000   1.0000   0.0000   0.0000   0.0000
     0.0000   0.0000   0.0000   0.0000   0.0000   0.0000   0.0000   0.0000
     0.0000   0.0000   0.0000

          k = 0.2500 0.1443 0.0000 ( 11885 PWs)   bands (ev):

   -83.6089 -53.1960 -52.8331 -52.6303 -25.9782 -25.8985 -23.5234 -22.3318
   -15.0327 -13.8368 -13.4730 -12.2913 -11.5648 -11.2207 -11.2110  -9.9332
    -9.6383  -9.3533  -9.2548  -8.4989  -6.9024  -3.5594  -3.2461  -2.4598
    -1.8624   0.1115   0.3010   2.4285   2.5718   3.4916   3.9964   5.0900
     5.9022   6.1092   6.2878

     occupation numbers 
     1.0000   1.0000   1.0000   1.0000   1.0000   1.0000   1.0000   1.0000
     1.0000   1.0000   1.0000   1.0000   1.0000   1.0000   1.0000   1.0000
     1.0000   1.0000   1.0000   1.0000   1.0000   0.0000   0.0000   0.0000
     0.0000   0.0000   0.0000   0.0000   0.0000   0.0000   0.0000   0.0000
     0.0000   0.0000   0.0000

          k =-0.3750 0.2165 0.0000 ( 11860 PWs)   bands (ev):

   -83.6036 -53.2497 -52.8419 -52.7457 -24.9041 -24.8504 -22.9907 -22.1110
   -16.2449 -15.9316 -13.8299 -12.6005 -12.0658 -11.7472 -11.7152 -10.4095
    -9.8222  -9.4657  -8.6992  -8.6884  -7.1319  -4.0133  -3.6250  -2.2417
    -1.4761  -1.2819  -0.7757   2.4297   2.9896   4.0198   4.2989   5.7889
     6.4124   6.6151   7.1622

     occupation numbers 
     1.0000   1.0000   1.0000   1.0000   1.0000   1.0000   1.0000   1.0000
     1.0000   1.0000   1.0000   1.0000   1.0000   1.0000   1.0000   1.0000
     1.0000   1.0000   1.0000   1.0000   1.0000   0.0000   0.0000   0.0000
     0.0000   0.0000   0.0000   0.0000   0.0000   0.0000   0.0000   0.0000
     0.0000   0.0000   0.0000

          k = 0.3750 0.2165 0.0000 ( 11860 PWs)   bands (ev):

   -83.6036 -53.2496 -52.8419 -52.7457 -24.9041 -24.8504 -22.9907 -22.1110
   -16.2449 -15.9316 -13.8299 -12.6004 -12.0657 -11.7473 -11.7153 -10.4095
    -9.8223  -9.4657  -8.6993  -8.6884  -7.1318  -4.0133  -3.6250  -2.2418
    -1.4760  -1.2819  -0.7757   2.4297   2.9896   4.0198   4.2989   5.7889
     6.4124   6.6151   7.1617

     occupation numbers 
     1.0000   1.0000   1.0000   1.0000   1.0000   1.0000   1.0000   1.0000
     1.0000   1.0000   1.0000   1.0000   1.0000   1.0000   1.0000   1.0000
     1.0000   1.0000   1.0000   1.0000   1.0000   0.0000   0.0000   0.0000
     0.0000   0.0000   0.0000   0.0000   0.0000   0.0000   0.0000   0.0000
     0.0000   0.0000   0.0000

          k = 0.5000-0.2887 0.0000 ( 11846 PWs)   bands (ev):

   -83.5995 -53.1995 -52.8622 -52.8552 -24.2398 -24.2131 -22.8611 -22.1256
   -17.1597 -16.8848 -13.5591 -13.0600 -12.1762 -11.9707 -11.9321 -10.6057
   -10.0233  -9.2227  -8.7542  -8.4430  -7.3112  -4.0106  -3.6808  -2.3875
    -1.8990  -1.3443  -1.0607   2.1457   2.7600   4.4232   5.1187   5.8259
     6.1780   6.5204   7.2570

     occupation numbers 
     1.0000   1.0000   1.0000   1.0000   1.0000   1.0000   1.0000   1.0000
     1.0000   1.0000   1.0000   1.0000   1.0000   1.0000   1.0000   1.0000
     1.0000   1.0000   1.0000   1.0000   1.0000   0.0000   0.0000   0.0000
     0.0000   0.0000   0.0000   0.0000   0.0000   0.0000   0.0000   0.0000
     0.0000   0.0000   0.0000

          k =-0.5000-0.2887 0.0000 ( 11846 PWs)   bands (ev):

   -83.5995 -53.1995 -52.8622 -52.8552 -24.2398 -24.2131 -22.8611 -22.1256
   -17.1597 -16.8848 -13.5591 -13.0600 -12.1762 -11.9708 -11.9322 -10.6057
   -10.0235  -9.2228  -8.7541  -8.4432  -7.3111  -4.0105  -3.6808  -2.3876
    -1.8990  -1.3443  -1.0607   2.1456   2.7600   4.4232   5.1187   5.8259
     6.1780   6.5204   7.2570

     occupation numbers 
     1.0000   1.0000   1.0000   1.0000   1.0000   1.0000   1.0000   1.0000
     1.0000   1.0000   1.0000   1.0000   1.0000   1.0000   1.0000   1.0000
     1.0000   1.0000   1.0000   1.0000   1.0000   0.0000   0.0000   0.0000
     0.0000   0.0000   0.0000   0.0000   0.0000   0.0000   0.0000   0.0000
     0.0000   0.0000   0.0000

          k =-0.1250 0.2165 0.0000 ( 11867 PWs)   bands (ev):

   -83.5997 -53.1244 -52.8481 -52.5885 -26.2304 -26.1449 -23.6925 -22.4180
   -15.0457 -13.0818 -12.8533 -12.2956 -11.6087 -11.3087 -10.9261  -9.9737
    -9.6595  -9.5527  -9.0095  -8.3568  -6.7804  -3.3969  -3.0844  -2.7036
    -1.9045   1.0475   1.2332   2.0133   2.0273   3.4886   3.6387   4.0486
     5.0946   5.7028   6.4691

     occupation numbers 
     1.0000   1.0000   1.0000   1.0000   1.0000   1.0000   1.0000   1.0000
     1.0000   1.0000   1.0000   1.0000   1.0000   1.0000   1.0000   1.0000
     1.0000   1.0000   1.0000   1.0000   1.0000   0.0000   0.0000   0.0000
     0.0000   0.0000   0.0000   0.0000   0.0000   0.0000   0.0000   0.0000
     0.0000   0.0000   0.0000

          k = 0.2500-0.0000 0.0000 ( 11867 PWs)   bands (ev):

   -83.5997 -53.1244 -52.8481 -52.5885 -26.2304 -26.1449 -23.6925 -22.4180
   -15.0457 -13.0818 -12.8533 -12.2956 -11.6087 -11.3087 -10.9261  -9.9737
    -9.6595  -9.5527  -9.0095  -8.3568  -6.7804  -3.3969  -3.0844  -2.7036
    -1.9045   1.0475   1.2332   2.0133   2.0274   3.4886   3.6387   4.0485
     5.0945   5.7028   6.4692

     occupation numbers 
     1.0000   1.0000   1.0000   1.0000   1.0000   1.0000   1.0000   1.0000
     1.0000   1.0000   1.0000   1.0000   1.0000   1.0000   1.0000   1.0000
     1.0000   1.0000   1.0000   1.0000   1.0000   0.0000   0.0000   0.0000
     0.0000   0.0000   0.0000   0.0000   0.0000   0.0000   0.0000   0.0000
     0.0000   0.0000   0.0000

          k =-0.1250 0.3608 0.0000 ( 11871 PWs)   bands (ev):

   -83.6024 -53.2156 -52.9536 -52.6004 -25.2710 -25.2050 -23.1382 -22.1573
   -15.4510 -14.9648 -13.7879 -12.5718 -12.2950 -11.9825 -11.6110 -10.5850
    -9.6708  -9.3284  -9.0844  -8.6310  -7.1490  -3.7609  -3.4934  -2.3498
    -1.5958   0.1374   0.3700   2.6670   2.7394   3.7949   4.1853   5.1196
     5.7512   6.1937   6.6256

     occupation numbers 
     1.0000   1.0000   1.0000   1.0000   1.0000   1.0000   1.0000   1.0000
     1.0000   1.0000   1.0000   1.0000   1.0000   1.0000   1.0000   1.0000
     1.0000   1.0000   1.0000   1.0000   1.0000   0.0000   0.0000   0.0000
     0.0000   0.0000   0.0000   0.0000   0.0000   0.0000   0.0000   0.0000
     0.0000   0.0000   0.0000

          k =-0.2500 0.2887 0.0000 ( 11871 PWs)   bands (ev):

   -83.6024 -53.2156 -52.9537 -52.6004 -25.2710 -25.2050 -23.1382 -22.1573
   -15.4510 -14.9649 -13.7879 -12.5718 -12.2950 -11.9825 -11.6110 -10.5849
    -9.6708  -9.3284  -9.0843  -8.6311  -7.1490  -3.7609  -3.4934  -2.3498
    -1.5959   0.1374   0.3701   2.6670   2.7394   3.7948   4.1853   5.1196
     5.7512   6.1938   6.6255

     occupation numbers 
     1.0000   1.0000   1.0000   1.0000   1.0000   1.0000   1.0000   1.0000
     1.0000   1.0000   1.0000   1.0000   1.0000   1.0000   1.0000   1.0000
     1.0000   1.0000   1.0000   1.0000   1.0000   0.0000   0.0000   0.0000
     0.0000   0.0000   0.0000   0.0000   0.0000   0.0000   0.0000   0.0000
     0.0000   0.0000   0.0000

          k = 0.3750 0.0722 0.0000 ( 11871 PWs)   bands (ev):

   -83.6024 -53.2156 -52.9536 -52.6004 -25.2710 -25.2050 -23.1382 -22.1573
   -15.4510 -14.9648 -13.7879 -12.5718 -12.2950 -11.9825 -11.6110 -10.5850
    -9.6708  -9.3284  -9.0843  -8.6310  -7.1490  -3.7609  -3.4934  -2.3498
    -1.5958   0.1374   0.3701   2.6670   2.7394   3.7949   4.1853   5.1196
     5.7512   6.1937   6.6256

     occupation numbers 
     1.0000   1.0000   1.0000   1.0000   1.0000   1.0000   1.0000   1.0000
     1.0000   1.0000   1.0000   1.0000   1.0000   1.0000   1.0000   1.0000
     1.0000   1.0000   1.0000   1.0000   1.0000   0.0000   0.0000   0.0000
     0.0000   0.0000   0.0000   0.0000   0.0000   0.0000   0.0000   0.0000
     0.0000   0.0000   0.0000

          k =-0.2500-0.2887 0.0000 ( 11871 PWs)   bands (ev):

   -83.6024 -53.2156 -52.9537 -52.6004 -25.2710 -25.2050 -23.1382 -22.1573
   -15.4510 -14.9648 -13.7879 -12.5718 -12.2951 -11.9824 -11.6111 -10.5850
    -9.6708  -9.3284  -9.0844  -8.6310  -7.1489  -3.7609  -3.4933  -2.3498
    -1.5959   0.1374   0.3701   2.6670   2.7394   3.7948   4.1853   5.1196
     5.7512   6.1937   6.6256

     occupation numbers 
     1.0000   1.0000   1.0000   1.0000   1.0000   1.0000   1.0000   1.0000
     1.0000   1.0000   1.0000   1.0000   1.0000   1.0000   1.0000   1.0000
     1.0000   1.0000   1.0000   1.0000   1.0000   0.0000   0.0000   0.0000
     0.0000   0.0000   0.0000   0.0000   0.0000   0.0000   0.0000   0.0000
     0.0000   0.0000   0.0000

          k = 0.3750-0.0722 0.0000 ( 11871 PWs)   bands (ev):

   -83.6024 -53.2156 -52.9536 -52.6004 -25.2710 -25.2050 -23.1382 -22.1573
   -15.4510 -14.9649 -13.7879 -12.5718 -12.2950 -11.9825 -11.6110 -10.5849
    -9.6708  -9.3284  -9.0843  -8.6311  -7.1490  -3.7609  -3.4934  -2.3498
    -1.5959   0.1374   0.3701   2.6670   2.7394   3.7949   4.1853   5.1196
     5.7512   6.1937   6.6255

     occupation numbers 
     1.0000   1.0000   1.0000   1.0000   1.0000   1.0000   1.0000   1.0000
     1.0000   1.0000   1.0000   1.0000   1.0000   1.0000   1.0000   1.0000
     1.0000   1.0000   1.0000   1.0000   1.0000   0.0000   0.0000   0.0000
     0.0000   0.0000   0.0000   0.0000   0.0000   0.0000   0.0000   0.0000
     0.0000   0.0000   0.0000

          k =-0.1250 0.5052 0.0000 ( 11841 PWs)   bands (ev):

   -83.6062 -53.1966 -52.9791 -52.7610 -24.2819 -24.2462 -22.8262 -22.0747
   -16.7278 -16.4400 -13.6154 -13.1086 -12.7150 -12.3304 -12.0354 -10.8020
    -9.9128  -9.2703  -9.0754  -8.5488  -7.2529  -4.1065  -3.4695  -2.0868
    -1.7521  -0.7230  -0.3382   2.7308   3.2511   3.9501   4.3510   5.3756
     6.2339   6.3134   7.0530

     occupation numbers 
     1.0000   1.0000   1.0000   1.0000   1.0000   1.0000   1.0000   1.0000
     1.0000   1.0000   1.0000   1.0000   1.0000   1.0000   1.0000   1.0000
     1.0000   1.0000   1.0000   1.0000   1.0000   0.0000   0.0000   0.0000
     0.0000   0.0000   0.0000   0.0000   0.0000   0.0000   0.0000   0.0000
     0.0000   0.0000   0.0000

          k =-0.3750 0.3608 0.0000 ( 11841 PWs)   bands (ev):

   -83.6062 -53.1966 -52.9791 -52.7610 -24.2819 -24.2462 -22.8262 -22.0747
   -16.7279 -16.4401 -13.6154 -13.1086 -12.7149 -12.3304 -12.0354 -10.8019
    -9.9128  -9.2703  -9.0754  -8.5489  -7.2529  -4.1066  -3.4696  -2.0868
    -1.7521  -0.7230  -0.3382   2.7309   3.2511   3.9501   4.3510   5.3756
     6.2339   6.3134   7.0531

     occupation numbers 
     1.0000   1.0000   1.0000   1.0000   1.0000   1.0000   1.0000   1.0000
     1.0000   1.0000   1.0000   1.0000   1.0000   1.0000   1.0000   1.0000
     1.0000   1.0000   1.0000   1.0000   1.0000   0.0000   0.0000   0.0000
     0.0000   0.0000   0.0000   0.0000   0.0000   0.0000   0.0000   0.0000
     0.0000   0.0000   0.0000

          k = 0.5000 0.1443 0.0000 ( 11841 PWs)   bands (ev):

   -83.6062 -53.1966 -52.9791 -52.7610 -24.2819 -24.2462 -22.8262 -22.0747
   -16.7278 -16.4400 -13.6154 -13.1086 -12.7150 -12.3304 -12.0354 -10.8020
    -9.9128  -9.2703  -9.0754  -8.5488  -7.2529  -4.1065  -3.4695  -2.0868
    -1.7521  -0.7230  -0.3382   2.7308   3.2511   3.9501   4.3510   5.3756
     6.2339   6.3134   7.0531

     occupation numbers 
     1.0000   1.0000   1.0000   1.0000   1.0000   1.0000   1.0000   1.0000
     1.0000   1.0000   1.0000   1.0000   1.0000   1.0000   1.0000   1.0000
     1.0000   1.0000   1.0000   1.0000   1.0000   0.0000   0.0000   0.0000
     0.0000   0.0000   0.0000   0.0000   0.0000   0.0000   0.0000   0.0000
     0.0000   0.0000   0.0000

          k =-0.3750-0.3608 0.0000 ( 11841 PWs)   bands (ev):

   -83.6062 -53.1966 -52.9791 -52.7610 -24.2819 -24.2462 -22.8262 -22.0747
   -16.7278 -16.4400 -13.6154 -13.1086 -12.7150 -12.3304 -12.0354 -10.8020
    -9.9128  -9.2703  -9.0754  -8.5488  -7.2528  -4.1065  -3.4696  -2.0868
    -1.7522  -0.7230  -0.3382   2.7309   3.2511   3.9501   4.3510   5.3755
     6.2339   6.3135   7.0531

     occupation numbers 
     1.0000   1.0000   1.0000   1.0000   1.0000   1.0000   1.0000   1.0000
     1.0000   1.0000   1.0000   1.0000   1.0000   1.0000   1.0000   1.0000
     1.0000   1.0000   1.0000   1.0000   1.0000   0.0000   0.0000   0.0000
     0.0000   0.0000   0.0000   0.0000   0.0000   0.0000   0.0000   0.0000
     0.0000   0.0000   0.0000

          k = 0.5000-0.1443 0.0000 ( 11841 PWs)   bands (ev):

   -83.6062 -53.1966 -52.9791 -52.7610 -24.2819 -24.2462 -22.8262 -22.0747
   -16.7279 -16.4401 -13.6154 -13.1086 -12.7149 -12.3304 -12.0354 -10.8019
    -9.9128  -9.2703  -9.0754  -8.5489  -7.2529  -4.1066  -3.4696  -2.0868
    -1.7521  -0.7230  -0.3382   2.7309   3.2511   3.9501   4.3510   5.3756
     6.2339   6.3134   7.0530

     occupation numbers 
     1.0000   1.0000   1.0000   1.0000   1.0000   1.0000   1.0000   1.0000
     1.0000   1.0000   1.0000   1.0000   1.0000   1.0000   1.0000   1.0000
     1.0000   1.0000   1.0000   1.0000   1.0000   0.0000   0.0000   0.0000
     0.0000   0.0000   0.0000   0.0000   0.0000   0.0000   0.0000   0.0000
     0.0000   0.0000   0.0000

          k =-0.2500 0.4330 0.0000 ( 11844 PWs)   bands (ev):

   -83.6135 -53.1801 -53.1208 -52.6570 -24.3245 -24.2814 -22.7974 -22.0299
   -16.1279 -15.7820 -14.0053 -13.7998 -13.2886 -11.9822 -11.8359 -11.1878
   -10.0789  -9.5777  -9.0424  -8.5243  -7.3326  -4.0039  -3.4137  -2.1495
    -1.6655   0.5054   0.7404   2.6205   3.0285   4.4548   4.7121   5.0806
     5.4753   6.1225   6.8620

     occupation numbers 
     1.0000   1.0000   1.0000   1.0000   1.0000   1.0000   1.0000   1.0000
     1.0000   1.0000   1.0000   1.0000   1.0000   1.0000   1.0000   1.0000
     1.0000   1.0000   1.0000   1.0000   1.0000   0.0000   0.0000   0.0000
     0.0000   0.0000   0.0000   0.0000   0.0000   0.0000   0.0000   0.0000
     0.0000   0.0000   0.0000

          k = 0.5000-0.0000 0.0000 ( 11844 PWs)   bands (ev):

   -83.6135 -53.1801 -53.1208 -52.6570 -24.3245 -24.2814 -22.7974 -22.0299
   -16.1279 -15.7820 -14.0054 -13.7998 -13.2886 -11.9822 -11.8359 -11.1878
   -10.0789  -9.5777  -9.0423  -8.5243  -7.3326  -4.0039  -3.4137  -2.1495
    -1.6655   0.5054   0.7404   2.6205   3.0285   4.4548   4.7121   5.0806
     5.4754   6.1226   6.8620

     occupation numbers 
     1.0000   1.0000   1.0000   1.0000   1.0000   1.0000   1.0000   1.0000
     1.0000   1.0000   1.0000   1.0000   1.0000   1.0000   1.0000   1.0000
     1.0000   1.0000   1.0000   1.0000   1.0000   0.0000   0.0000   0.0000
     0.0000   0.0000   0.0000   0.0000   0.0000   0.0000   0.0000   0.0000
     0.0000   0.0000   0.0000

          k =-0.3750 0.5052 0.0000 ( 11800 PWs)   bands (ev):

   -83.6028 -53.2074 -53.1346 -52.6267 -23.7835 -23.7559 -22.7483 -22.0512
   -16.3800 -16.0483 -14.6478 -14.5198 -12.8142 -12.3612 -12.1084 -10.8397
   -10.5804  -9.9952  -8.9873  -8.3417  -6.9630  -4.4055  -3.2512  -2.0455
    -1.7592   0.2875   0.6864   2.8439   3.2815   4.3315   4.7381   5.2491
     5.8545   6.3479   6.4453

     occupation numbers 
     1.0000   1.0000   1.0000   1.0000   1.0000   1.0000   1.0000   1.0000
     1.0000   1.0000   1.0000   1.0000   1.0000   1.0000   1.0000   1.0000
     1.0000   1.0000   1.0000   1.0000   1.0000   0.0000   0.0000   0.0000
     0.0000   0.0000   0.0000   0.0000   0.0000   0.0000   0.0000   0.0000
     0.0000   0.0000   0.0000

          k = 0.6250 0.0722 0.0000 ( 11800 PWs)   bands (ev):

   -83.6028 -53.2074 -53.1346 -52.6267 -23.7835 -23.7559 -22.7483 -22.0512
   -16.3800 -16.0483 -14.6478 -14.5199 -12.8142 -12.3612 -12.1084 -10.8397
   -10.5804  -9.9952  -8.9872  -8.3417  -6.9630  -4.4054  -3.2512  -2.0454
    -1.7592   0.2874   0.6864   2.8439   3.2816   4.3314   4.7380   5.2490
     5.8546   6.3479   6.4453

     occupation numbers 
     1.0000   1.0000   1.0000   1.0000   1.0000   1.0000   1.0000   1.0000
     1.0000   1.0000   1.0000   1.0000   1.0000   1.0000   1.0000   1.0000
     1.0000   1.0000   1.0000   1.0000   1.0000   0.0000   0.0000   0.0000
     0.0000   0.0000   0.0000   0.0000   0.0000   0.0000   0.0000   0.0000
     0.0000   0.0000   0.0000

     highest occupied, lowest unoccupied level (ev):    -6.5711   -4.4055

     Writing all to output data dir ./tmp/crsi2n4.save/ :
     XML data file, pseudopotentials, collected wavefunctions

     init_run     :      0.56s CPU      0.61s WALL (       1 calls)
     electrons    :    497.56s CPU    523.02s WALL (       1 calls)

     Called by init_run:
     aceinit0     :      0.07s CPU      0.11s WALL (       1 calls)
     wfcinit      :      0.00s CPU      0.00s WALL (       1 calls)
     wfcinit:atom :      0.05s CPU      0.06s WALL (      68 calls)
     wfcinit:wfcr :      4.56s CPU      4.72s WALL (      68 calls)
     potinit      :      0.14s CPU      0.15s WALL (       1 calls)
     hinit0       :      0.32s CPU      0.32s WALL (       1 calls)

     Called by electrons:
     c_bands      :    173.11s CPU    176.63s WALL (       2 calls)
     sum_band     :      0.43s CPU      0.47s WALL (       1 calls)
     v_of_rho     :      0.10s CPU      0.11s WALL (       2 calls)
     v_h          :      0.00s CPU      0.00s WALL (       2 calls)
     v_xc         :      0.10s CPU      0.10s WALL (       2 calls)

     Called by c_bands:
     init_us_2    :      0.12s CPU      0.14s WALL (     102 calls)
     cegterg      :    168.18s CPU    171.50s WALL (     169 calls)

     Called by sum_band:
     sum_band:wei :      0.00s CPU      0.00s WALL (       1 calls)
     sum_band:loo :      0.43s CPU      0.47s WALL (       1 calls)
     sum_band:buf :      0.01s CPU      0.01s WALL (      34 calls)
     sum_band:ini :      0.04s CPU      0.05s WALL (      34 calls)

     Called by *egterg:
     cdiaghg      :      5.09s CPU      5.10s WALL (    2665 calls)
     cegterg:over :     26.01s CPU     26.08s WALL (    2597 calls)
     cegterg:upda :     16.65s CPU     16.70s WALL (    2597 calls)
     cegterg:last :     35.43s CPU     35.44s WALL (    1670 calls)
     h_psi        :     84.95s CPU     88.23s WALL (    2834 calls)
     g_psi        :      0.44s CPU      0.44s WALL (    2597 calls)

     Called by h_psi:
     h_psi:calbec :     16.23s CPU     16.39s WALL (    2834 calls)
     vloc_psi     :     34.20s CPU     37.13s WALL (    2834 calls)
     add_vuspsi   :     16.14s CPU     16.15s WALL (    2834 calls)

     General routines
     calbec       :     25.25s CPU     25.48s WALL (    5702 calls)
     fft          :      0.30s CPU      0.30s WALL (      21 calls)
     ffts         :      0.09s CPU      0.09s WALL (       3 calls)
     fftw         :     28.39s CPU     30.83s WALL (  117510 calls)
     fftc         :    185.59s CPU    203.82s WALL (  333200 calls)
     fftcw        :      0.96s CPU      1.18s WALL (    3570 calls)
     interpolate  :      0.09s CPU      0.09s WALL (       2 calls)
     davcio       :      0.03s CPU      0.06s WALL (     204 calls)

     Parallel routines

     EXX routines
     exx_grid     :      0.00s CPU      0.00s WALL (       1 calls)
     exxinit      :      2.70s CPU      3.75s WALL (       1 calls)
     vexx         :    320.99s CPU    341.82s WALL (      34 calls)
     matcalc      :      9.03s CPU      9.10s WALL (    2868 calls)
     aceupdate    :      0.09s CPU      0.09s WALL (      34 calls)
     vexxace      :     17.99s CPU     18.11s WALL (    2834 calls)
     aceinit      :    321.26s CPU    342.09s WALL (      34 calls)

     PWSCF        :   8m18.30s CPU   8m44.14s WALL


   This run was terminated on:  19:45:45   5Jan2026            

=------------------------------------------------------------------------------=
   JOB DONE.
=------------------------------------------------------------------------------=
