
     Program PWSCF v.7.3.1 starts on  5Jan2026 at 16: 7:44 

     This program is part of the open-source Quantum ESPRESSO suite
     for quantum simulation of materials; please cite
         "P. Giannozzi et al., J. Phys.:Condens. Matter 21 395502 (2009);
         "P. Giannozzi et al., J. Phys.:Condens. Matter 29 465901 (2017);
         "P. Giannozzi et al., J. Chem. Phys. 152 154105 (2020);
          URL http://www.quantum-espresso.org", 
     in publications or presentations arising from this work. More details at
     http://www.quantum-espresso.org/quote

     Parallel version (MPI), running on     4 processors

     MPI processes distributed on     1 nodes
     21312 MiB available memory on the printing compute node when the environment starts

     Waiting for input...
     Reading input from standard input

     Current dimensions of program PWSCF are:
     Max number of different atomic species (ntypx) = 10
     Max number of k-points (npk) =  40000
     Max angular momentum in pseudopotentials (lmaxx) =  4

     IMPORTANT: XC functional enforced from input :
     Exchange-correlation= HSE
                           (   1   4  12   4   0   0   0)
     EXX-fraction              =        0.25
     Any further DFT definition will be discarded
     Please, verify this is what you really want

     Message from routine setup:
     no reason to have ecutrho>4*ecutwfc

     R & G space division:  proc/nbgrp/npool/nimage =       4
     Subspace diagonalization in iterative solution of the eigenvalue problem:
     a serial algorithm will be used

     EXX: q-point mesh:     2    2    1
     EXX: setup a grid of 60 q-points centered on each k-point
     (k+q)-points:
   0.0000000   0.0000000   0.0000000         1    1
   0.0000000  -0.5773503   0.0000000         5    1
  -0.5000000  -0.2886752   0.0000000        18    1
   0.5000000  -0.2886752   0.0000000        17    1
   0.0000000   0.1443376   0.0000000         2    1
  -0.0000000  -0.4330127   0.0000000         4   -1
  -0.5000000  -0.1443376   0.0000000        28   -1
   0.5000000  -0.1443376   0.0000000        30    1
   0.0000000   0.2886752   0.0000000         3    1
  -0.0000000  -0.2886752   0.0000000         3   -1
  -0.5000000   0.0000000   0.0000000        32   -1
   0.5000000  -0.0000000   0.0000000        32    1
   0.0000000   0.4330127   0.0000000         4    1
  -0.0000000  -0.1443376   0.0000000         2   -1
  -0.5000000   0.1443376   0.0000000        30   -1
   0.5000000   0.1443376   0.0000000        28    1
   0.1250000   0.2165064   0.0000000         6    1
   0.1250000  -0.3608440  -0.0000000        21   -1
  -0.3750000  -0.0721688   0.0000000        23   -1
  -0.3750000   0.5051815   0.0000000        33    1
   0.1250000   0.3608440   0.0000000         7    1
   0.1250000  -0.2165064  -0.0000000        19   -1
  -0.3750000   0.0721688   0.0000000        25   -1
   0.6250000   0.0721688   0.0000000        34    1
   0.1250000   0.5051815   0.0000000         8    1
   0.1250000  -0.0721688  -0.0000000        11   -1
  -0.3750000   0.2165064   0.0000000        15    1
  -0.3750000  -0.3608440   0.0000000        29    1
   0.2500000   0.4330127   0.0000000         9    1
   0.2500000  -0.1443376  -0.0000000        13   -1
  -0.2500000   0.1443376   0.0000000        13    1
  -0.2500000  -0.4330127   0.0000000         9   -1
   0.2500000   0.5773503   0.0000000        10    1
   0.2500000  -0.0000000   0.0000000        20    1
  -0.2500000   0.2886752   0.0000000        22    1
  -0.2500000  -0.2886752   0.0000000        24    1
  -0.1250000   0.0721688   0.0000000        11    1
  -0.1250000  -0.5051815   0.0000000         8   -1
   0.3750000   0.3608440   0.0000000        29   -1
   0.3750000  -0.2165064  -0.0000000        15   -1
   0.1250000   0.0721688   0.0000000        12    1
   0.1250000  -0.5051815  -0.0000000        26   -1
  -0.3750000  -0.2165064   0.0000000        16   -1
  -0.3750000   0.3608440   0.0000000        27    1
   0.2500000   0.1443376   0.0000000        14    1
   0.2500000  -0.4330127  -0.0000000        31   -1
  -0.2500000  -0.1443376   0.0000000        14   -1
  -0.2500000   0.4330127   0.0000000        31    1
   0.3750000   0.2165064   0.0000000        16    1
   0.3750000  -0.3608440  -0.0000000        27   -1
  -0.1250000  -0.0721688   0.0000000        12   -1
  -0.1250000   0.5051815   0.0000000        26    1
  -0.1250000   0.2165064   0.0000000        19    1
  -0.1250000  -0.3608440   0.0000000         7   -1
  -0.6250000  -0.0721688   0.0000000        34   -1
   0.3750000  -0.0721688   0.0000000        25    1
  -0.1250000   0.3608440   0.0000000        21    1
  -0.1250000  -0.2165064   0.0000000         6   -1
   0.3750000  -0.5051815  -0.0000000        33   -1
   0.3750000   0.0721688   0.0000000        23    1

     Parallelization info
     --------------------
     sticks:   dense  smooth     PW     G-vecs:    dense   smooth      PW
     Min         171     162     46                27026    23758    3758
     Max         176     163     47                27038    23770    3785
     Sum         691     649    187               108119    95059   15091

     Using Slab Decomposition



     bravais-lattice index     =            0
     lattice parameter (alat)  =       5.3744  a.u.
     unit-cell volume          =     981.6153 (a.u.)^3
     number of atoms/cell      =            7
     number of atomic types    =            3
     number of electrons       =        42.00
     number of Kohn-Sham states=           35
     kinetic-energy cutoff     =      80.0000  Ry
     charge density cutoff     =     350.0000  Ry
     cutoff for Fock operator  =     320.0000  Ry
     scf convergence threshold =      1.0E-10
     mixing beta               =       0.5000
     number of iterations used =            8  plain     mixing
     Exchange-correlation= HSE
                           (   1   4  12   4   0   0   0)
     EXX-fraction              =        0.25

     celldm(1)=   5.374381  celldm(2)=   0.000000  celldm(3)=   0.000000
     celldm(4)=   0.000000  celldm(5)=   0.000000  celldm(6)=   0.000000

     crystal axes: (cart. coord. in units of alat)
               a(1) = (   1.000000   0.000000   0.000000 )  
               a(2) = (  -0.500000   0.866025   0.000000 )  
               a(3) = (   0.000000   0.000000   7.301723 )  

     reciprocal axes: (cart. coord. in units 2 pi/alat)
               b(1) = (  1.000000  0.577350 -0.000000 )  
               b(2) = (  0.000000  1.154701  0.000000 )  
               b(3) = (  0.000000 -0.000000  0.136954 )  


     PseudoPot. # 1 for Cr read from file:
     ./../../../pseudo/ONCVPSP/sg15/Cr_ONCV_PBE_sr.upf
     MD5 check sum: 8c25700f94aee329d8014e8d8708abb4
     Pseudo is Norm-conserving, Zval = 14.0
     Generated using ONCVPSP code by D. R. Hamann
     Using radial grid of 1490 points,  6 beta functions with: 
                l(1) =   0
                l(2) =   0
                l(3) =   1
                l(4) =   1
                l(5) =   2
                l(6) =   2

     PseudoPot. # 2 for Si read from file:
     ./../../../pseudo/ONCVPSP/sg15/Si_ONCV_PBE_sr.upf
     MD5 check sum: 8553c464762ac42b85b1eed164b4d029
     Pseudo is Norm-conserving, Zval =  4.0
     Generated using ONCVPSP code by D. R. Hamann
     Using radial grid of 1510 points,  4 beta functions with: 
                l(1) =   0
                l(2) =   0
                l(3) =   1
                l(4) =   1

     PseudoPot. # 3 for N  read from file:
     ./../../../pseudo/ONCVPSP/sg15/N_ONCV_PBE_sr.upf
     MD5 check sum: 584dff68b02d160f04ff099e3496afa1
     Pseudo is Norm-conserving, Zval =  5.0
     Generated using ONCVPSP code by D. R. Hamann
     Using radial grid of 1058 points,  4 beta functions with: 
                l(1) =   0
                l(2) =   0
                l(3) =   1
                l(4) =   1

     atomic species   valence    mass     pseudopotential
     Cr               14.00    51.99600     Cr( 1.00)
     Si                4.00    28.08600     Si( 1.00)
     N                 5.00    14.00700     N ( 1.00)

     No symmetry found


                                    s                        frac. trans.

      isym =  1     identity                                     

 cryst.   s( 1) = (     1          0          0      )
                  (     0          1          0      )
                  (     0          0          1      )

 cart.    s( 1) = (  1.0000000  0.0000000  0.0000000 )
                  (  0.0000000  1.0000000  0.0000000 )
                  (  0.0000000  0.0000000  1.0000000 )


   Cartesian axes

     site n.     atom                  positions (alat units)
         1        Cr     tau(   1) = (   0.7856992   0.1237169   3.1237137  )
         2        N      tau(   2) = (   0.2857045   0.4123895   2.7238712  )
         3        N      tau(   3) = (   0.2857069   0.4123867   3.5287613  )
         4        N      tau(   4) = (   0.7857152   0.1236985   4.3391106  )
         5        N      tau(   5) = (  -0.2142868   0.7010642   1.9209304  )
         6        Si     tau(   6) = (   0.2857130   0.4123891   2.1091259  )
         7        Si     tau(   7) = (   0.2857150   0.4123739   4.1477101  )

   Crystallographic axes

     site n.     atom                  positions (cryst. coord.)
         1        Cr     tau(   1) = (  0.8571272  0.1428560  0.4278050  )
         2        N      tau(   2) = (  0.5237977  0.4761865  0.3730450  )
         3        N      tau(   3) = (  0.5237985  0.4761832  0.4832779  )
         4        N      tau(   4) = (  0.8571325  0.1428347  0.5942585  )
         5        N      tau(   5) = (  0.1904728  0.8095192  0.2630791  )
         6        Si     tau(   6) = (  0.5238059  0.4761860  0.2888532  )
         7        Si     tau(   7) = (  0.5237992  0.4761684  0.5680454  )

     number of k points=    34
                       cart. coord. in units 2pi/alat
        k(    1) = (   0.0000000   0.0000000   0.0000000), wk =   0.0312500
        k(    2) = (   0.0000000   0.1443376   0.0000000), wk =   0.0625000
        k(    3) = (   0.0000000   0.2886752   0.0000000), wk =   0.0625000
        k(    4) = (   0.0000000   0.4330127   0.0000000), wk =   0.0625000
        k(    5) = (   0.0000000  -0.5773503   0.0000000), wk =   0.0312500
        k(    6) = (   0.1250000   0.2165064   0.0000000), wk =   0.0625000
        k(    7) = (   0.1250000   0.3608440   0.0000000), wk =   0.0625000
        k(    8) = (   0.1250000   0.5051815   0.0000000), wk =   0.0625000
        k(    9) = (   0.2500000   0.4330127   0.0000000), wk =   0.0625000
        k(   10) = (   0.2500000   0.5773503   0.0000000), wk =   0.0625000
        k(   11) = (  -0.1250000   0.0721688   0.0000000), wk =   0.0625000
        k(   12) = (   0.1250000   0.0721688   0.0000000), wk =   0.0625000
        k(   13) = (  -0.2500000   0.1443376   0.0000000), wk =   0.0625000
        k(   14) = (   0.2500000   0.1443376   0.0000000), wk =   0.0625000
        k(   15) = (  -0.3750000   0.2165064   0.0000000), wk =   0.0625000
        k(   16) = (   0.3750000   0.2165064   0.0000000), wk =   0.0625000
        k(   17) = (   0.5000000  -0.2886752   0.0000000), wk =   0.0312500
        k(   18) = (  -0.5000000  -0.2886752   0.0000000), wk =   0.0312500
        k(   19) = (  -0.1250000   0.2165064   0.0000000), wk =   0.0625000
        k(   20) = (   0.2500000  -0.0000000   0.0000000), wk =   0.0625000
        k(   21) = (  -0.1250000   0.3608440   0.0000000), wk =   0.0625000
        k(   22) = (  -0.2500000   0.2886752   0.0000000), wk =   0.0625000
        k(   23) = (   0.3750000   0.0721688   0.0000000), wk =   0.0625000
        k(   24) = (  -0.2500000  -0.2886752   0.0000000), wk =   0.0625000
        k(   25) = (   0.3750000  -0.0721688   0.0000000), wk =   0.0625000
        k(   26) = (  -0.1250000   0.5051815   0.0000000), wk =   0.0625000
        k(   27) = (  -0.3750000   0.3608440   0.0000000), wk =   0.0625000
        k(   28) = (   0.5000000   0.1443376   0.0000000), wk =   0.0625000
        k(   29) = (  -0.3750000  -0.3608440   0.0000000), wk =   0.0625000
        k(   30) = (   0.5000000  -0.1443376   0.0000000), wk =   0.0625000
        k(   31) = (  -0.2500000   0.4330127   0.0000000), wk =   0.0625000
        k(   32) = (   0.5000000  -0.0000000   0.0000000), wk =   0.0625000
        k(   33) = (  -0.3750000   0.5051815   0.0000000), wk =   0.0625000
        k(   34) = (   0.6250000   0.0721688   0.0000000), wk =   0.0625000

                       cryst. coord.
        k(    1) = (   0.0000000   0.0000000   0.0000000), wk =   0.0312500
        k(    2) = (   0.0000000   0.1250000   0.0000000), wk =   0.0625000
        k(    3) = (   0.0000000   0.2500000   0.0000000), wk =   0.0625000
        k(    4) = (   0.0000000   0.3750000   0.0000000), wk =   0.0625000
        k(    5) = (   0.0000000  -0.5000000   0.0000000), wk =   0.0312500
        k(    6) = (   0.1250000   0.1250000   0.0000000), wk =   0.0625000
        k(    7) = (   0.1250000   0.2500000   0.0000000), wk =   0.0625000
        k(    8) = (   0.1250000   0.3750000   0.0000000), wk =   0.0625000
        k(    9) = (   0.2500000   0.2500000   0.0000000), wk =   0.0625000
        k(   10) = (   0.2500000   0.3750000   0.0000000), wk =   0.0625000
        k(   11) = (  -0.1250000   0.1250000   0.0000000), wk =   0.0625000
        k(   12) = (   0.1250000  -0.0000000   0.0000000), wk =   0.0625000
        k(   13) = (  -0.2500000   0.2500000   0.0000000), wk =   0.0625000
        k(   14) = (   0.2500000  -0.0000000   0.0000000), wk =   0.0625000
        k(   15) = (  -0.3750000   0.3750000   0.0000000), wk =   0.0625000
        k(   16) = (   0.3750000  -0.0000000   0.0000000), wk =   0.0625000
        k(   17) = (   0.5000000  -0.5000000   0.0000000), wk =   0.0312500
        k(   18) = (  -0.5000000   0.0000000   0.0000000), wk =   0.0312500
        k(   19) = (  -0.1250000   0.2500000   0.0000000), wk =   0.0625000
        k(   20) = (   0.2500000  -0.1250000   0.0000000), wk =   0.0625000
        k(   21) = (  -0.1250000   0.3750000   0.0000000), wk =   0.0625000
        k(   22) = (  -0.2500000   0.3750000   0.0000000), wk =   0.0625000
        k(   23) = (   0.3750000  -0.1250000   0.0000000), wk =   0.0625000
        k(   24) = (  -0.2500000  -0.1250000   0.0000000), wk =   0.0625000
        k(   25) = (   0.3750000  -0.2500000   0.0000000), wk =   0.0625000
        k(   26) = (  -0.1250000   0.5000000   0.0000000), wk =   0.0625000
        k(   27) = (  -0.3750000   0.5000000   0.0000000), wk =   0.0625000
        k(   28) = (   0.5000000  -0.1250000   0.0000000), wk =   0.0625000
        k(   29) = (  -0.3750000  -0.1250000   0.0000000), wk =   0.0625000
        k(   30) = (   0.5000000  -0.3750000   0.0000000), wk =   0.0625000
        k(   31) = (  -0.2500000   0.5000000   0.0000000), wk =   0.0625000
        k(   32) = (   0.5000000  -0.2500000   0.0000000), wk =   0.0625000
        k(   33) = (  -0.3750000   0.6250000   0.0000000), wk =   0.0625000
        k(   34) = (   0.6250000  -0.2500000   0.0000000), wk =   0.0625000

     Dense  grid:   108119 G-vectors     FFT dimensions: (  36,  36, 240)

     Smooth grid:    95059 G-vectors     FFT dimensions: (  32,  32, 225)

     Dynamical RAM for                 wfc:       1.58 MB

     Dynamical RAM for     wfc (w. buffer):      55.42 MB

     Dynamical RAM for                 EXX:    1581.35 MB

     Dynamical RAM for           str. fact:       1.24 MB

     Dynamical RAM for           local pot:       0.00 MB

     Dynamical RAM for          nlocal pot:       2.99 MB

     Dynamical RAM for                qrad:       4.86 MB

     Dynamical RAM for          rho,v,vnew:       3.02 MB

     Dynamical RAM for               rhoin:       1.01 MB

     Dynamical RAM for            rho*nmix:       6.60 MB

     Dynamical RAM for           G-vectors:       1.73 MB

     Dynamical RAM for          h,s,v(r/c):       0.22 MB

     Dynamical RAM for          <psi|beta>:       0.04 MB

     Dynamical RAM for                 psi:       3.17 MB

     Dynamical RAM for                hpsi:       3.17 MB

     Dynamical RAM for      wfcinit/wfcrot:       3.20 MB

     Estimated static dynamical RAM per process >       1.62 GB

     Estimated max dynamical RAM per process >       1.63 GB

     Estimated total dynamical RAM >       6.52 GB
 ----2D----2D----2D----2D----2D----2D----2D----2D----2D----2D----2D----2D
  The code is running with the 2D cutoff
  Please refer to:
  Sohier, T., Calandra, M., & Mauri, F. (2017), 
  Density functional perturbation theory for gated two-dimensional heterostructures:
  Theoretical developments and application to flexural phonons in graphene.
  Physical Review B, 96(7), 75448. https://doi.org/10.1103/PhysRevB.96.075448
 ----2D----2D----2D----2D----2D----2D----2D----2D----2D----2D----2D----2D
     EXX: ACE will be initialized later

     Initial potential from superposition of free atoms

     starting charge      41.9980, renormalised to      42.0000

     negative rho (up, down):  3.799E-06 0.000E+00
     Starting wfcs are   34 randomized atomic wfcs +    1 random wfcs

     total cpu time spent up to now is        2.8 secs

     Self-consistent Calculation

     iteration #  1     ecut=    80.00 Ry     beta= 0.50
     Davidson diagonalization with overlap

---- Real-time Memory Report at c_bands before calling an iterative solver
           103 MiB given to the printing process from OS
             0 MiB allocation reported by mallinfo(arena+hblkhd)
         21040 MiB available memory on the node where the printing process lives
------------------
     ethr =  1.00E-02,  avg # of iterations =  5.4

     negative rho (up, down):  7.386E-07 0.000E+00

     total cpu time spent up to now is       13.0 secs

     total energy              =    -262.48228632 Ry
     estimated scf accuracy    <       2.32514304 Ry

     iteration #  2     ecut=    80.00 Ry     beta= 0.50
     Davidson diagonalization with overlap

---- Real-time Memory Report at c_bands before calling an iterative solver
           114 MiB given to the printing process from OS
             0 MiB allocation reported by mallinfo(arena+hblkhd)
         21001 MiB available memory on the node where the printing process lives
------------------
     ethr =  5.54E-03,  avg # of iterations =  2.0

     negative rho (up, down):  4.397E-07 0.000E+00

     total cpu time spent up to now is       20.0 secs

     total energy              =    -260.84745774 Ry
     estimated scf accuracy    <      19.36299813 Ry

     iteration #  3     ecut=    80.00 Ry     beta= 0.50
     Davidson diagonalization with overlap

---- Real-time Memory Report at c_bands before calling an iterative solver
           115 MiB given to the printing process from OS
             0 MiB allocation reported by mallinfo(arena+hblkhd)
         20995 MiB available memory on the node where the printing process lives
------------------
     ethr =  5.54E-03,  avg # of iterations =  3.1

     negative rho (up, down):  2.513E-07 0.000E+00

     total cpu time spent up to now is       26.9 secs

     total energy              =    -262.57441235 Ry
     estimated scf accuracy    <       6.66780096 Ry

     iteration #  4     ecut=    80.00 Ry     beta= 0.50
     Davidson diagonalization with overlap

---- Real-time Memory Report at c_bands before calling an iterative solver
           116 MiB given to the printing process from OS
             0 MiB allocation reported by mallinfo(arena+hblkhd)
         20996 MiB available memory on the node where the printing process lives
------------------
     ethr =  5.54E-03,  avg # of iterations =  5.1

     negative rho (up, down):  3.425E-07 0.000E+00

     total cpu time spent up to now is       34.0 secs

     total energy              =    -262.24669397 Ry
     estimated scf accuracy    <      15.26569401 Ry

     iteration #  5     ecut=    80.00 Ry     beta= 0.50
     Davidson diagonalization with overlap

---- Real-time Memory Report at c_bands before calling an iterative solver
           117 MiB given to the printing process from OS
             0 MiB allocation reported by mallinfo(arena+hblkhd)
         20998 MiB available memory on the node where the printing process lives
------------------
     ethr =  5.54E-03,  avg # of iterations =  1.8

     negative rho (up, down):  4.996E-08 0.000E+00

     total cpu time spent up to now is       40.0 secs

     total energy              =    -263.33931171 Ry
     estimated scf accuracy    <       0.17166977 Ry

     iteration #  6     ecut=    80.00 Ry     beta= 0.50
     Davidson diagonalization with overlap

---- Real-time Memory Report at c_bands before calling an iterative solver
           118 MiB given to the printing process from OS
             0 MiB allocation reported by mallinfo(arena+hblkhd)
         20944 MiB available memory on the node where the printing process lives
------------------
     ethr =  4.09E-04,  avg # of iterations =  8.0

     total cpu time spent up to now is       48.1 secs

     total energy              =    -263.34697491 Ry
     estimated scf accuracy    <       0.03745880 Ry

     iteration #  7     ecut=    80.00 Ry     beta= 0.50
     Davidson diagonalization with overlap

---- Real-time Memory Report at c_bands before calling an iterative solver
           118 MiB given to the printing process from OS
             0 MiB allocation reported by mallinfo(arena+hblkhd)
         20930 MiB available memory on the node where the printing process lives
------------------
     ethr =  8.92E-05,  avg # of iterations =  2.5

     total cpu time spent up to now is       54.3 secs

     total energy              =    -263.34645406 Ry
     estimated scf accuracy    <       0.01602102 Ry

     iteration #  8     ecut=    80.00 Ry     beta= 0.50
     Davidson diagonalization with overlap

---- Real-time Memory Report at c_bands before calling an iterative solver
           119 MiB given to the printing process from OS
             0 MiB allocation reported by mallinfo(arena+hblkhd)
         20915 MiB available memory on the node where the printing process lives
------------------
     ethr =  3.81E-05,  avg # of iterations =  6.2

     total cpu time spent up to now is       61.3 secs

     total energy              =    -263.34722238 Ry
     estimated scf accuracy    <       0.00491995 Ry

     iteration #  9     ecut=    80.00 Ry     beta= 0.50
     Davidson diagonalization with overlap

---- Real-time Memory Report at c_bands before calling an iterative solver
           120 MiB given to the printing process from OS
             0 MiB allocation reported by mallinfo(arena+hblkhd)
         20901 MiB available memory on the node where the printing process lives
------------------
     ethr =  1.17E-05,  avg # of iterations =  3.6

     total cpu time spent up to now is       67.8 secs

     total energy              =    -263.34752601 Ry
     estimated scf accuracy    <       0.00158233 Ry

     iteration # 10     ecut=    80.00 Ry     beta= 0.50
     Davidson diagonalization with overlap

---- Real-time Memory Report at c_bands before calling an iterative solver
           121 MiB given to the printing process from OS
             0 MiB allocation reported by mallinfo(arena+hblkhd)
         20895 MiB available memory on the node where the printing process lives
------------------
     ethr =  3.77E-06,  avg # of iterations =  6.9

     total cpu time spent up to now is       74.9 secs

     total energy              =    -263.34749905 Ry
     estimated scf accuracy    <       0.00072101 Ry

     iteration # 11     ecut=    80.00 Ry     beta= 0.50
     Davidson diagonalization with overlap

---- Real-time Memory Report at c_bands before calling an iterative solver
           121 MiB given to the printing process from OS
             0 MiB allocation reported by mallinfo(arena+hblkhd)
         20900 MiB available memory on the node where the printing process lives
------------------
     ethr =  1.72E-06,  avg # of iterations =  5.5

     total cpu time spent up to now is       81.6 secs

     total energy              =    -263.34746595 Ry
     estimated scf accuracy    <       0.00034948 Ry

     iteration # 12     ecut=    80.00 Ry     beta= 0.50
     Davidson diagonalization with overlap

---- Real-time Memory Report at c_bands before calling an iterative solver
           121 MiB given to the printing process from OS
             0 MiB allocation reported by mallinfo(arena+hblkhd)
         20903 MiB available memory on the node where the printing process lives
------------------
     ethr =  8.32E-07,  avg # of iterations =  3.6

     negative rho (up, down):  1.096E-08 0.000E+00

     total cpu time spent up to now is       87.8 secs

     total energy              =    -263.34743415 Ry
     estimated scf accuracy    <       0.00014772 Ry

     iteration # 13     ecut=    80.00 Ry     beta= 0.50
     Davidson diagonalization with overlap

---- Real-time Memory Report at c_bands before calling an iterative solver
           121 MiB given to the printing process from OS
             0 MiB allocation reported by mallinfo(arena+hblkhd)
         20905 MiB available memory on the node where the printing process lives
------------------
     ethr =  3.52E-07,  avg # of iterations =  6.8

     total cpu time spent up to now is       94.6 secs

     total energy              =    -263.34744206 Ry
     estimated scf accuracy    <       0.00001324 Ry

     iteration # 14     ecut=    80.00 Ry     beta= 0.50
     Davidson diagonalization with overlap

---- Real-time Memory Report at c_bands before calling an iterative solver
           121 MiB given to the printing process from OS
             0 MiB allocation reported by mallinfo(arena+hblkhd)
         20904 MiB available memory on the node where the printing process lives
------------------
     ethr =  3.15E-08,  avg # of iterations =  2.1

     total cpu time spent up to now is      101.0 secs

     total energy              =    -263.34744488 Ry
     estimated scf accuracy    <       0.00000002 Ry

     iteration # 15     ecut=    80.00 Ry     beta= 0.50
     Davidson diagonalization with overlap

---- Real-time Memory Report at c_bands before calling an iterative solver
           121 MiB given to the printing process from OS
             0 MiB allocation reported by mallinfo(arena+hblkhd)
         20905 MiB available memory on the node where the printing process lives
------------------
     ethr =  5.34E-11,  avg # of iterations =  4.4

     total cpu time spent up to now is      111.4 secs

     total energy              =    -263.34744499 Ry
     estimated scf accuracy    <       0.00000002 Ry

     iteration # 16     ecut=    80.00 Ry     beta= 0.50
     Davidson diagonalization with overlap

---- Real-time Memory Report at c_bands before calling an iterative solver
           121 MiB given to the printing process from OS
             0 MiB allocation reported by mallinfo(arena+hblkhd)
         20932 MiB available memory on the node where the printing process lives
------------------
     ethr =  4.98E-11,  avg # of iterations =  1.2

     total cpu time spent up to now is      116.9 secs

     total energy              =    -263.34744499 Ry
     estimated scf accuracy    <          4.3E-09 Ry

     iteration # 17     ecut=    80.00 Ry     beta= 0.50
     Davidson diagonalization with overlap

---- Real-time Memory Report at c_bands before calling an iterative solver
           121 MiB given to the printing process from OS
             0 MiB allocation reported by mallinfo(arena+hblkhd)
         20937 MiB available memory on the node where the printing process lives
------------------
     ethr =  1.03E-11,  avg # of iterations =  2.0

     total cpu time spent up to now is      123.7 secs

     total energy              =    -263.34744500 Ry
     estimated scf accuracy    <          3.0E-10 Ry

     iteration # 18     ecut=    80.00 Ry     beta= 0.50
     Davidson diagonalization with overlap

---- Real-time Memory Report at c_bands before calling an iterative solver
           121 MiB given to the printing process from OS
             0 MiB allocation reported by mallinfo(arena+hblkhd)
         20936 MiB available memory on the node where the printing process lives
------------------
     ethr =  7.17E-13,  avg # of iterations =  2.0

     total cpu time spent up to now is      130.2 secs

     End of self-consistent calculation

          k = 0.0000 0.0000 0.0000 ( 11937 PWs)   bands (ev):

   -77.7807 -48.9947 -48.9947 -48.9372 -24.4693 -24.3814 -21.7476 -20.3071
   -13.9624 -11.2841  -9.3668  -9.2264  -9.2263  -9.1625  -9.1624  -8.8312
    -8.8311  -7.5194  -7.5191  -7.4136  -5.2966  -3.2413  -3.2411  -3.0501
    -3.0500  -0.8549  -0.5501   1.8639   1.9799   2.0361   3.1999   3.1999
     3.2747   3.2747   3.4989

     occupation numbers 
     1.0000   1.0000   1.0000   1.0000   1.0000   1.0000   1.0000   1.0000
     1.0000   1.0000   1.0000   1.0000   1.0000   1.0000   1.0000   1.0000
     1.0000   1.0000   1.0000   1.0000   1.0000   0.0000   0.0000   0.0000
     0.0000   0.0000   0.0000   0.0000   0.0000   0.0000   0.0000   0.0000
     0.0000   0.0000   0.0000

          k = 0.0000 0.1443 0.0000 ( 11905 PWs)   bands (ev):

   -77.7755 -49.0348 -49.0038 -48.9299 -24.2023 -24.1183 -21.5455 -20.1994
   -13.7578 -11.1973 -10.3478 -10.2916  -9.4559  -9.4187  -9.3055  -9.0738
    -8.6701  -7.9021  -7.7775  -7.2419  -5.5211  -3.3875  -3.2838  -3.2349
    -2.9809  -0.1677   0.0438   1.9065   1.9667   2.4632   2.5698   2.8499
     3.8600   3.9408   4.3051

     occupation numbers 
     1.0000   1.0000   1.0000   1.0000   1.0000   1.0000   1.0000   1.0000
     1.0000   1.0000   1.0000   1.0000   1.0000   1.0000   1.0000   1.0000
     1.0000   1.0000   1.0000   1.0000   1.0000   0.0000   0.0000   0.0000
     0.0000   0.0000   0.0000   0.0000   0.0000   0.0000   0.0000   0.0000
     0.0000   0.0000   0.0000

          k = 0.0000 0.2887 0.0000 ( 11885 PWs)   bands (ev):

   -77.7632 -49.1307 -49.0257 -48.9124 -23.4475 -23.3738 -21.0390 -19.9419
   -13.4912 -12.5269 -12.1573 -10.9481 -10.2048  -9.9836  -9.9545  -8.7591
    -8.5422  -8.3222  -8.1978  -7.4829  -6.0960  -3.6611  -3.5880  -3.1349
    -2.5013  -0.5114  -0.3661   1.8630   2.0553   2.8097   3.1883   4.3361
     5.1229   5.2314   5.4039

     occupation numbers 
     1.0000   1.0000   1.0000   1.0000   1.0000   1.0000   1.0000   1.0000
     1.0000   1.0000   1.0000   1.0000   1.0000   1.0000   1.0000   1.0000
     1.0000   1.0000   1.0000   1.0000   1.0000   0.0000   0.0000   0.0000
     0.0000   0.0000   0.0000   0.0000   0.0000   0.0000   0.0000   0.0000
     0.0000   0.0000   0.0000

          k = 0.0000 0.4330 0.0000 ( 11860 PWs)   bands (ev):

   -77.7508 -49.2255 -49.0475 -48.8948 -22.4039 -22.3447 -20.5518 -19.7519
   -14.7574 -14.4811 -12.3408 -11.2228 -10.7538 -10.4491 -10.4077  -9.2207
    -8.7511  -8.3225  -7.6987  -7.6190  -6.3069  -4.0808  -3.8853  -2.8572
    -2.1478  -1.8472  -1.4255   1.7777   2.3387   3.3534   3.6206   4.9970
     5.6383   5.7177   6.1816

     occupation numbers 
     1.0000   1.0000   1.0000   1.0000   1.0000   1.0000   1.0000   1.0000
     1.0000   1.0000   1.0000   1.0000   1.0000   1.0000   1.0000   1.0000
     1.0000   1.0000   1.0000   1.0000   1.0000   0.0000   0.0000   0.0000
     0.0000   0.0000   0.0000   0.0000   0.0000   0.0000   0.0000   0.0000
     0.0000   0.0000   0.0000

          k = 0.0000-0.5774 0.0000 ( 11846 PWs)   bands (ev):

   -77.7456 -49.2644 -49.0565 -48.8875 -21.7583 -21.7092 -20.4440 -19.7842
   -15.5644 -15.3062 -12.1543 -11.6304 -10.8936 -10.6254 -10.5788  -9.3502
    -8.9165  -8.0621  -7.6371  -7.4663  -6.2560  -4.2563  -4.0653  -2.9243
    -2.4599  -2.0287  -1.7058   1.4842   2.0720   3.7292   4.3375   5.0983
     5.5085   5.6439   6.2578

     occupation numbers 
     1.0000   1.0000   1.0000   1.0000   1.0000   1.0000   1.0000   1.0000
     1.0000   1.0000   1.0000   1.0000   1.0000   1.0000   1.0000   1.0000
     1.0000   1.0000   1.0000   1.0000   1.0000   0.0000   0.0000   0.0000
     0.0000   0.0000   0.0000   0.0000   0.0000   0.0000   0.0000   0.0000
     0.0000   0.0000   0.0000

          k = 0.1250 0.2165 0.0000 ( 11867 PWs)   bands (ev):

   -77.7668 -49.0984 -49.0237 -48.9175 -23.6902 -23.6132 -21.1895 -20.0147
   -13.4765 -11.7802 -11.5781 -10.9654 -10.3111 -10.0859  -9.6790  -8.8257
    -8.5563  -8.4030  -8.0020  -7.3292  -5.9469  -3.5938  -3.4717  -3.3205
    -2.5703   0.3697   0.5358   1.3953   1.4290   2.8329   3.0325   3.4297
     4.2662   4.9064   5.5502

     occupation numbers 
     1.0000   1.0000   1.0000   1.0000   1.0000   1.0000   1.0000   1.0000
     1.0000   1.0000   1.0000   1.0000   1.0000   1.0000   1.0000   1.0000
     1.0000   1.0000   1.0000   1.0000   1.0000   0.0000   0.0000   0.0000
     0.0000   0.0000   0.0000   0.0000   0.0000   0.0000   0.0000   0.0000
     0.0000   0.0000   0.0000

          k = 0.1250 0.3608 0.0000 ( 11871 PWs)   bands (ev):

   -77.7544 -49.1839 -49.0552 -48.9000 -22.7744 -22.7096 -20.6806 -19.7776
   -13.9686 -13.5726 -12.3338 -11.2517 -11.0291 -10.6854 -10.3469  -9.4348
    -8.5213  -8.2361  -8.0220  -7.5996  -6.3137  -3.9707  -3.7045  -3.0181
    -2.2422  -0.4793  -0.2842   2.0480   2.1576   2.9891   3.3740   4.5049
     5.1143   5.4410   5.8498

     occupation numbers 
     1.0000   1.0000   1.0000   1.0000   1.0000   1.0000   1.0000   1.0000
     1.0000   1.0000   1.0000   1.0000   1.0000   1.0000   1.0000   1.0000
     1.0000   1.0000   1.0000   1.0000   1.0000   0.0000   0.0000   0.0000
     0.0000   0.0000   0.0000   0.0000   0.0000   0.0000   0.0000   0.0000
     0.0000   0.0000   0.0000

          k = 0.1250 0.5052 0.0000 ( 11841 PWs)   bands (ev):

   -77.7456 -49.2434 -49.0779 -48.8875 -21.8262 -21.7752 -20.4078 -19.7263
   -15.1779 -14.9171 -12.1676 -11.7505 -11.3857 -11.0212 -10.7759  -9.5845
    -8.7797  -8.1858  -7.9576  -7.4945  -6.2181  -4.3096  -3.8395  -2.7080
    -2.3468  -1.3351  -0.9895   2.0438   2.5572   3.2427   3.5999   4.6649
     5.4201   5.5570   6.1782

     occupation numbers 
     1.0000   1.0000   1.0000   1.0000   1.0000   1.0000   1.0000   1.0000
     1.0000   1.0000   1.0000   1.0000   1.0000   1.0000   1.0000   1.0000
     1.0000   1.0000   1.0000   1.0000   1.0000   0.0000   0.0000   0.0000
     0.0000   0.0000   0.0000   0.0000   0.0000   0.0000   0.0000   0.0000
     0.0000   0.0000   0.0000

          k = 0.2500 0.4330 0.0000 ( 11844 PWs)   bands (ev):

   -77.7456 -49.2146 -49.1072 -48.8875 -21.8889 -21.8359 -20.3782 -19.6740
   -14.5940 -14.2924 -12.6660 -12.4994 -11.8706 -10.7500 -10.5968  -9.9189
    -8.9065  -8.4634  -7.9836  -7.5016  -6.2106  -4.3359  -3.6749  -2.8343
    -2.2507  -0.1121   0.0474   2.0169   2.3808   3.5365   3.9328   4.3573
     4.6992   5.3369   6.0937

     occupation numbers 
     1.0000   1.0000   1.0000   1.0000   1.0000   1.0000   1.0000   1.0000
     1.0000   1.0000   1.0000   1.0000   1.0000   1.0000   1.0000   1.0000
     1.0000   1.0000   1.0000   1.0000   1.0000   0.0000   0.0000   0.0000
     0.0000   0.0000   0.0000   0.0000   0.0000   0.0000   0.0000   0.0000
     0.0000   0.0000   0.0000

          k = 0.2500 0.5774 0.0000 ( 11800 PWs)   bands (ev):

   -77.7420 -49.2180 -49.1380 -48.8824 -21.3852 -21.3345 -20.3320 -19.6973
   -14.8559 -14.5673 -13.2727 -13.1531 -11.4209 -11.0532 -10.8440  -9.6100
    -9.3896  -8.8653  -7.8908  -7.3185  -5.9913  -4.6723  -3.4965  -2.6824
    -2.3990  -0.2983   0.0043   2.2003   2.6065   3.5524   3.9570   4.4758
     4.9798   5.5142   5.5986

     occupation numbers 
     1.0000   1.0000   1.0000   1.0000   1.0000   1.0000   1.0000   1.0000
     1.0000   1.0000   1.0000   1.0000   1.0000   1.0000   1.0000   1.0000
     1.0000   1.0000   1.0000   1.0000   1.0000   0.0000   0.0000   0.0000
     0.0000   0.0000   0.0000   0.0000   0.0000   0.0000   0.0000   0.0000
     0.0000   0.0000   0.0000

          k =-0.1250 0.0722 0.0000 ( 11905 PWs)   bands (ev):

   -77.7755 -49.0348 -49.0038 -48.9299 -24.2023 -24.1183 -21.5455 -20.1994
   -13.7578 -11.1973 -10.3478 -10.2917  -9.4558  -9.4186  -9.3056  -9.0738
    -8.6701  -7.9023  -7.7773  -7.2420  -5.5212  -3.3874  -3.2838  -3.2348
    -2.9810  -0.1677   0.0438   1.9065   1.9667   2.4632   2.5698   2.8499
     3.8600   3.9408   4.3050

     occupation numbers 
     1.0000   1.0000   1.0000   1.0000   1.0000   1.0000   1.0000   1.0000
     1.0000   1.0000   1.0000   1.0000   1.0000   1.0000   1.0000   1.0000
     1.0000   1.0000   1.0000   1.0000   1.0000   0.0000   0.0000   0.0000
     0.0000   0.0000   0.0000   0.0000   0.0000   0.0000   0.0000   0.0000
     0.0000   0.0000   0.0000

          k = 0.1250 0.0722 0.0000 ( 11905 PWs)   bands (ev):

   -77.7755 -49.0348 -49.0038 -48.9299 -24.2023 -24.1183 -21.5455 -20.1994
   -13.7578 -11.1973 -10.3478 -10.2916  -9.4559  -9.4187  -9.3055  -9.0738
    -8.6701  -7.9021  -7.7775  -7.2419  -5.5211  -3.3875  -3.2838  -3.2349
    -2.9809  -0.1676   0.0438   1.9065   1.9666   2.4632   2.5698   2.8499
     3.8600   3.9408   4.3051

     occupation numbers 
     1.0000   1.0000   1.0000   1.0000   1.0000   1.0000   1.0000   1.0000
     1.0000   1.0000   1.0000   1.0000   1.0000   1.0000   1.0000   1.0000
     1.0000   1.0000   1.0000   1.0000   1.0000   0.0000   0.0000   0.0000
     0.0000   0.0000   0.0000   0.0000   0.0000   0.0000   0.0000   0.0000
     0.0000   0.0000   0.0000

          k =-0.2500 0.1443 0.0000 ( 11885 PWs)   bands (ev):

   -77.7632 -49.1307 -49.0257 -48.9124 -23.4475 -23.3738 -21.0390 -19.9419
   -13.4912 -12.5269 -12.1574 -10.9481 -10.2048  -9.9836  -9.9544  -8.7591
    -8.5422  -8.3220  -8.1977  -7.4830  -6.0961  -3.6610  -3.5881  -3.1349
    -2.5014  -0.5114  -0.3662   1.8631   2.0553   2.8097   3.1882   4.3361
     5.1231   5.2314   5.4039

     occupation numbers 
     1.0000   1.0000   1.0000   1.0000   1.0000   1.0000   1.0000   1.0000
     1.0000   1.0000   1.0000   1.0000   1.0000   1.0000   1.0000   1.0000
     1.0000   1.0000   1.0000   1.0000   1.0000   0.0000   0.0000   0.0000
     0.0000   0.0000   0.0000   0.0000   0.0000   0.0000   0.0000   0.0000
     0.0000   0.0000   0.0000

          k = 0.2500 0.1443 0.0000 ( 11885 PWs)   bands (ev):

   -77.7632 -49.1307 -49.0257 -48.9124 -23.4475 -23.3738 -21.0390 -19.9419
   -13.4912 -12.5269 -12.1573 -10.9481 -10.2048  -9.9837  -9.9545  -8.7591
    -8.5422  -8.3222  -8.1978  -7.4830  -6.0960  -3.6611  -3.5880  -3.1349
    -2.5013  -0.5114  -0.3661   1.8630   2.0553   2.8097   3.1882   4.3361
     5.1230   5.2314   5.4039

     occupation numbers 
     1.0000   1.0000   1.0000   1.0000   1.0000   1.0000   1.0000   1.0000
     1.0000   1.0000   1.0000   1.0000   1.0000   1.0000   1.0000   1.0000
     1.0000   1.0000   1.0000   1.0000   1.0000   0.0000   0.0000   0.0000
     0.0000   0.0000   0.0000   0.0000   0.0000   0.0000   0.0000   0.0000
     0.0000   0.0000   0.0000

          k =-0.3750 0.2165 0.0000 ( 11860 PWs)   bands (ev):

   -77.7508 -49.2255 -49.0475 -48.8948 -22.4039 -22.3447 -20.5518 -19.7519
   -14.7574 -14.4811 -12.3408 -11.2228 -10.7539 -10.4490 -10.4076  -9.2207
    -8.7509  -8.3225  -7.6986  -7.6190  -6.3070  -4.0808  -3.8853  -2.8571
    -2.1479  -1.8472  -1.4255   1.7777   2.3387   3.3534   3.6206   4.9971
     5.6380   5.7177   6.1816

     occupation numbers 
     1.0000   1.0000   1.0000   1.0000   1.0000   1.0000   1.0000   1.0000
     1.0000   1.0000   1.0000   1.0000   1.0000   1.0000   1.0000   1.0000
     1.0000   1.0000   1.0000   1.0000   1.0000   0.0000   0.0000   0.0000
     0.0000   0.0000   0.0000   0.0000   0.0000   0.0000   0.0000   0.0000
     0.0000   0.0000   0.0000

          k = 0.3750 0.2165 0.0000 ( 11860 PWs)   bands (ev):

   -77.7508 -49.2255 -49.0475 -48.8948 -22.4039 -22.3447 -20.5518 -19.7519
   -14.7574 -14.4811 -12.3408 -11.2228 -10.7538 -10.4491 -10.4077  -9.2207
    -8.7511  -8.3225  -7.6987  -7.6190  -6.3069  -4.0808  -3.8853  -2.8572
    -2.1478  -1.8472  -1.4255   1.7777   2.3387   3.3534   3.6206   4.9970
     5.6380   5.7177   6.1816

     occupation numbers 
     1.0000   1.0000   1.0000   1.0000   1.0000   1.0000   1.0000   1.0000
     1.0000   1.0000   1.0000   1.0000   1.0000   1.0000   1.0000   1.0000
     1.0000   1.0000   1.0000   1.0000   1.0000   0.0000   0.0000   0.0000
     0.0000   0.0000   0.0000   0.0000   0.0000   0.0000   0.0000   0.0000
     0.0000   0.0000   0.0000

          k = 0.5000-0.2887 0.0000 ( 11846 PWs)   bands (ev):

   -77.7456 -49.2644 -49.0565 -48.8875 -21.7583 -21.7092 -20.4440 -19.7843
   -15.5644 -15.3062 -12.1543 -11.6303 -10.8936 -10.6253 -10.5787  -9.3502
    -8.9163  -8.0620  -7.6372  -7.4661  -6.2561  -4.2563  -4.0653  -2.9242
    -2.4599  -2.0287  -1.7058   1.4842   2.0720   3.7292   4.3375   5.0984
     5.5085   5.6439   6.2579

     occupation numbers 
     1.0000   1.0000   1.0000   1.0000   1.0000   1.0000   1.0000   1.0000
     1.0000   1.0000   1.0000   1.0000   1.0000   1.0000   1.0000   1.0000
     1.0000   1.0000   1.0000   1.0000   1.0000   0.0000   0.0000   0.0000
     0.0000   0.0000   0.0000   0.0000   0.0000   0.0000   0.0000   0.0000
     0.0000   0.0000   0.0000

          k =-0.5000-0.2887 0.0000 ( 11846 PWs)   bands (ev):

   -77.7456 -49.2644 -49.0565 -48.8875 -21.7583 -21.7092 -20.4440 -19.7842
   -15.5644 -15.3062 -12.1543 -11.6303 -10.8936 -10.6254 -10.5788  -9.3502
    -8.9165  -8.0621  -7.6371  -7.4663  -6.2560  -4.2563  -4.0653  -2.9243
    -2.4599  -2.0287  -1.7057   1.4842   2.0720   3.7292   4.3375   5.0983
     5.5086   5.6439   6.2578

     occupation numbers 
     1.0000   1.0000   1.0000   1.0000   1.0000   1.0000   1.0000   1.0000
     1.0000   1.0000   1.0000   1.0000   1.0000   1.0000   1.0000   1.0000
     1.0000   1.0000   1.0000   1.0000   1.0000   0.0000   0.0000   0.0000
     0.0000   0.0000   0.0000   0.0000   0.0000   0.0000   0.0000   0.0000
     0.0000   0.0000   0.0000

          k =-0.1250 0.2165 0.0000 ( 11867 PWs)   bands (ev):

   -77.7668 -49.0984 -49.0237 -48.9175 -23.6902 -23.6132 -21.1895 -20.0147
   -13.4765 -11.7802 -11.5782 -10.9654 -10.3111 -10.0858  -9.6789  -8.8257
    -8.5563  -8.4030  -8.0021  -7.3291  -5.9470  -3.5937  -3.4718  -3.3205
    -2.5704   0.3696   0.5358   1.3953   1.4291   2.8329   3.0325   3.4297
     4.2662   4.9064   5.5502

     occupation numbers 
     1.0000   1.0000   1.0000   1.0000   1.0000   1.0000   1.0000   1.0000
     1.0000   1.0000   1.0000   1.0000   1.0000   1.0000   1.0000   1.0000
     1.0000   1.0000   1.0000   1.0000   1.0000   0.0000   0.0000   0.0000
     0.0000   0.0000   0.0000   0.0000   0.0000   0.0000   0.0000   0.0000
     0.0000   0.0000   0.0000

          k = 0.2500-0.0000 0.0000 ( 11867 PWs)   bands (ev):

   -77.7668 -49.0984 -49.0237 -48.9175 -23.6902 -23.6132 -21.1895 -20.0147
   -13.4765 -11.7802 -11.5782 -10.9654 -10.3111 -10.0858  -9.6789  -8.8257
    -8.5563  -8.4030  -8.0021  -7.3291  -5.9470  -3.5937  -3.4718  -3.3205
    -2.5704   0.3696   0.5358   1.3953   1.4291   2.8329   3.0325   3.4297
     4.2661   4.9064   5.5503

     occupation numbers 
     1.0000   1.0000   1.0000   1.0000   1.0000   1.0000   1.0000   1.0000
     1.0000   1.0000   1.0000   1.0000   1.0000   1.0000   1.0000   1.0000
     1.0000   1.0000   1.0000   1.0000   1.0000   0.0000   0.0000   0.0000
     0.0000   0.0000   0.0000   0.0000   0.0000   0.0000   0.0000   0.0000
     0.0000   0.0000   0.0000

          k =-0.1250 0.3608 0.0000 ( 11871 PWs)   bands (ev):

   -77.7544 -49.1839 -49.0552 -48.9000 -22.7744 -22.7096 -20.6806 -19.7776
   -13.9686 -13.5727 -12.3338 -11.2516 -11.0291 -10.6855 -10.3469  -9.4348
    -8.5213  -8.2361  -8.0219  -7.5996  -6.3137  -3.9707  -3.7045  -3.0181
    -2.2422  -0.4793  -0.2842   2.0479   2.1576   2.9891   3.3740   4.5049
     5.1143   5.4410   5.8499

     occupation numbers 
     1.0000   1.0000   1.0000   1.0000   1.0000   1.0000   1.0000   1.0000
     1.0000   1.0000   1.0000   1.0000   1.0000   1.0000   1.0000   1.0000
     1.0000   1.0000   1.0000   1.0000   1.0000   0.0000   0.0000   0.0000
     0.0000   0.0000   0.0000   0.0000   0.0000   0.0000   0.0000   0.0000
     0.0000   0.0000   0.0000

          k =-0.2500 0.2887 0.0000 ( 11871 PWs)   bands (ev):

   -77.7544 -49.1839 -49.0552 -48.9000 -22.7744 -22.7096 -20.6806 -19.7776
   -13.9686 -13.5727 -12.3338 -11.2516 -11.0290 -10.6855 -10.3469  -9.4348
    -8.5213  -8.2360  -8.0219  -7.5997  -6.3138  -3.9707  -3.7045  -3.0181
    -2.2422  -0.4793  -0.2842   2.0480   2.1576   2.9890   3.3740   4.5049
     5.1143   5.4410   5.8498

     occupation numbers 
     1.0000   1.0000   1.0000   1.0000   1.0000   1.0000   1.0000   1.0000
     1.0000   1.0000   1.0000   1.0000   1.0000   1.0000   1.0000   1.0000
     1.0000   1.0000   1.0000   1.0000   1.0000   0.0000   0.0000   0.0000
     0.0000   0.0000   0.0000   0.0000   0.0000   0.0000   0.0000   0.0000
     0.0000   0.0000   0.0000

          k = 0.3750 0.0722 0.0000 ( 11871 PWs)   bands (ev):

   -77.7544 -49.1839 -49.0552 -48.9000 -22.7744 -22.7096 -20.6806 -19.7776
   -13.9686 -13.5727 -12.3338 -11.2516 -11.0291 -10.6855 -10.3469  -9.4348
    -8.5213  -8.2361  -8.0219  -7.5996  -6.3137  -3.9707  -3.7045  -3.0181
    -2.2422  -0.4793  -0.2842   2.0479   2.1576   2.9891   3.3740   4.5049
     5.1143   5.4410   5.8498

     occupation numbers 
     1.0000   1.0000   1.0000   1.0000   1.0000   1.0000   1.0000   1.0000
     1.0000   1.0000   1.0000   1.0000   1.0000   1.0000   1.0000   1.0000
     1.0000   1.0000   1.0000   1.0000   1.0000   0.0000   0.0000   0.0000
     0.0000   0.0000   0.0000   0.0000   0.0000   0.0000   0.0000   0.0000
     0.0000   0.0000   0.0000

          k =-0.2500-0.2887 0.0000 ( 11871 PWs)   bands (ev):

   -77.7544 -49.1839 -49.0552 -48.9000 -22.7744 -22.7096 -20.6806 -19.7776
   -13.9686 -13.5726 -12.3338 -11.2516 -11.0291 -10.6854 -10.3469  -9.4348
    -8.5213  -8.2360  -8.0220  -7.5996  -6.3137  -3.9707  -3.7045  -3.0181
    -2.2422  -0.4793  -0.2842   2.0480   2.1576   2.9890   3.3740   4.5049
     5.1143   5.4410   5.8498

     occupation numbers 
     1.0000   1.0000   1.0000   1.0000   1.0000   1.0000   1.0000   1.0000
     1.0000   1.0000   1.0000   1.0000   1.0000   1.0000   1.0000   1.0000
     1.0000   1.0000   1.0000   1.0000   1.0000   0.0000   0.0000   0.0000
     0.0000   0.0000   0.0000   0.0000   0.0000   0.0000   0.0000   0.0000
     0.0000   0.0000   0.0000

          k = 0.3750-0.0722 0.0000 ( 11871 PWs)   bands (ev):

   -77.7544 -49.1839 -49.0552 -48.9000 -22.7744 -22.7096 -20.6806 -19.7776
   -13.9686 -13.5727 -12.3338 -11.2516 -11.0291 -10.6855 -10.3469  -9.4347
    -8.5213  -8.2360  -8.0219  -7.5997  -6.3138  -3.9707  -3.7045  -3.0181
    -2.2422  -0.4793  -0.2842   2.0480   2.1576   2.9890   3.3740   4.5049
     5.1143   5.4410   5.8498

     occupation numbers 
     1.0000   1.0000   1.0000   1.0000   1.0000   1.0000   1.0000   1.0000
     1.0000   1.0000   1.0000   1.0000   1.0000   1.0000   1.0000   1.0000
     1.0000   1.0000   1.0000   1.0000   1.0000   0.0000   0.0000   0.0000
     0.0000   0.0000   0.0000   0.0000   0.0000   0.0000   0.0000   0.0000
     0.0000   0.0000   0.0000

          k =-0.1250 0.5052 0.0000 ( 11841 PWs)   bands (ev):

   -77.7456 -49.2434 -49.0779 -48.8875 -21.8262 -21.7752 -20.4078 -19.7263
   -15.1779 -14.9171 -12.1676 -11.7505 -11.3857 -11.0211 -10.7759  -9.5845
    -8.7797  -8.1858  -7.9575  -7.4945  -6.2181  -4.3097  -3.8395  -2.7080
    -2.3468  -1.3351  -0.9895   2.0437   2.5572   3.2427   3.5999   4.6650
     5.4201   5.5569   6.1782

     occupation numbers 
     1.0000   1.0000   1.0000   1.0000   1.0000   1.0000   1.0000   1.0000
     1.0000   1.0000   1.0000   1.0000   1.0000   1.0000   1.0000   1.0000
     1.0000   1.0000   1.0000   1.0000   1.0000   0.0000   0.0000   0.0000
     0.0000   0.0000   0.0000   0.0000   0.0000   0.0000   0.0000   0.0000
     0.0000   0.0000   0.0000

          k =-0.3750 0.3608 0.0000 ( 11841 PWs)   bands (ev):

   -77.7456 -49.2434 -49.0779 -48.8875 -21.8262 -21.7752 -20.4078 -19.7264
   -15.1779 -14.9171 -12.1676 -11.7505 -11.3857 -11.0211 -10.7759  -9.5845
    -8.7797  -8.1858  -7.9575  -7.4945  -6.2182  -4.3097  -3.8395  -2.7080
    -2.3468  -1.3351  -0.9895   2.0438   2.5572   3.2427   3.5999   4.6649
     5.4201   5.5569   6.1787

     occupation numbers 
     1.0000   1.0000   1.0000   1.0000   1.0000   1.0000   1.0000   1.0000
     1.0000   1.0000   1.0000   1.0000   1.0000   1.0000   1.0000   1.0000
     1.0000   1.0000   1.0000   1.0000   1.0000   0.0000   0.0000   0.0000
     0.0000   0.0000   0.0000   0.0000   0.0000   0.0000   0.0000   0.0000
     0.0000   0.0000   0.0000

          k = 0.5000 0.1443 0.0000 ( 11841 PWs)   bands (ev):

   -77.7456 -49.2434 -49.0779 -48.8875 -21.8262 -21.7752 -20.4078 -19.7263
   -15.1779 -14.9171 -12.1676 -11.7505 -11.3857 -11.0211 -10.7759  -9.5845
    -8.7797  -8.1858  -7.9575  -7.4945  -6.2181  -4.3097  -3.8395  -2.7080
    -2.3468  -1.3351  -0.9895   2.0437   2.5572   3.2427   3.5999   4.6650
     5.4201   5.5570   6.1787

     occupation numbers 
     1.0000   1.0000   1.0000   1.0000   1.0000   1.0000   1.0000   1.0000
     1.0000   1.0000   1.0000   1.0000   1.0000   1.0000   1.0000   1.0000
     1.0000   1.0000   1.0000   1.0000   1.0000   0.0000   0.0000   0.0000
     0.0000   0.0000   0.0000   0.0000   0.0000   0.0000   0.0000   0.0000
     0.0000   0.0000   0.0000

          k =-0.3750-0.3608 0.0000 ( 11841 PWs)   bands (ev):

   -77.7456 -49.2434 -49.0779 -48.8875 -21.8262 -21.7752 -20.4078 -19.7263
   -15.1779 -14.9171 -12.1676 -11.7505 -11.3857 -11.0211 -10.7759  -9.5845
    -8.7797  -8.1858  -7.9576  -7.4945  -6.2181  -4.3096  -3.8395  -2.7080
    -2.3468  -1.3351  -0.9895   2.0438   2.5572   3.2427   3.5999   4.6649
     5.4201   5.5570   6.1786

     occupation numbers 
     1.0000   1.0000   1.0000   1.0000   1.0000   1.0000   1.0000   1.0000
     1.0000   1.0000   1.0000   1.0000   1.0000   1.0000   1.0000   1.0000
     1.0000   1.0000   1.0000   1.0000   1.0000   0.0000   0.0000   0.0000
     0.0000   0.0000   0.0000   0.0000   0.0000   0.0000   0.0000   0.0000
     0.0000   0.0000   0.0000

          k = 0.5000-0.1443 0.0000 ( 11841 PWs)   bands (ev):

   -77.7456 -49.2434 -49.0779 -48.8875 -21.8262 -21.7752 -20.4078 -19.7264
   -15.1779 -14.9171 -12.1676 -11.7505 -11.3857 -11.0211 -10.7759  -9.5845
    -8.7797  -8.1858  -7.9575  -7.4945  -6.2182  -4.3097  -3.8395  -2.7080
    -2.3468  -1.3351  -0.9895   2.0437   2.5572   3.2427   3.5999   4.6650
     5.4201   5.5570   6.1787

     occupation numbers 
     1.0000   1.0000   1.0000   1.0000   1.0000   1.0000   1.0000   1.0000
     1.0000   1.0000   1.0000   1.0000   1.0000   1.0000   1.0000   1.0000
     1.0000   1.0000   1.0000   1.0000   1.0000   0.0000   0.0000   0.0000
     0.0000   0.0000   0.0000   0.0000   0.0000   0.0000   0.0000   0.0000
     0.0000   0.0000   0.0000

          k =-0.2500 0.4330 0.0000 ( 11844 PWs)   bands (ev):

   -77.7456 -49.2146 -49.1072 -48.8875 -21.8889 -21.8359 -20.3782 -19.6740
   -14.5940 -14.2925 -12.6660 -12.4994 -11.8706 -10.7500 -10.5967  -9.9189
    -8.9064  -8.4634  -7.9837  -7.5016  -6.2106  -4.3359  -3.6749  -2.8343
    -2.2506  -0.1120   0.0474   2.0169   2.3808   3.5365   3.9328   4.3574
     4.6991   5.3370   6.0937

     occupation numbers 
     1.0000   1.0000   1.0000   1.0000   1.0000   1.0000   1.0000   1.0000
     1.0000   1.0000   1.0000   1.0000   1.0000   1.0000   1.0000   1.0000
     1.0000   1.0000   1.0000   1.0000   1.0000   0.0000   0.0000   0.0000
     0.0000   0.0000   0.0000   0.0000   0.0000   0.0000   0.0000   0.0000
     0.0000   0.0000   0.0000

          k = 0.5000-0.0000 0.0000 ( 11844 PWs)   bands (ev):

   -77.7456 -49.2146 -49.1072 -48.8875 -21.8889 -21.8359 -20.3782 -19.6740
   -14.5940 -14.2925 -12.6660 -12.4994 -11.8706 -10.7500 -10.5967  -9.9189
    -8.9064  -8.4634  -7.9837  -7.5016  -6.2106  -4.3359  -3.6750  -2.8343
    -2.2506  -0.1121   0.0474   2.0168   2.3808   3.5366   3.9327   4.3575
     4.6992   5.3371   6.0936

     occupation numbers 
     1.0000   1.0000   1.0000   1.0000   1.0000   1.0000   1.0000   1.0000
     1.0000   1.0000   1.0000   1.0000   1.0000   1.0000   1.0000   1.0000
     1.0000   1.0000   1.0000   1.0000   1.0000   0.0000   0.0000   0.0000
     0.0000   0.0000   0.0000   0.0000   0.0000   0.0000   0.0000   0.0000
     0.0000   0.0000   0.0000

          k =-0.3750 0.5052 0.0000 ( 11800 PWs)   bands (ev):

   -77.7420 -49.2181 -49.1380 -48.8824 -21.3853 -21.3345 -20.3320 -19.6974
   -14.8560 -14.5673 -13.2727 -13.1531 -11.4209 -11.0532 -10.8440  -9.6100
    -9.3896  -8.8653  -7.8908  -7.3185  -5.9913  -4.6724  -3.4965  -2.6825
    -2.3990  -0.2983   0.0043   2.2004   2.6065   3.5524   3.9571   4.4758
     4.9797   5.5141   5.5989

     occupation numbers 
     1.0000   1.0000   1.0000   1.0000   1.0000   1.0000   1.0000   1.0000
     1.0000   1.0000   1.0000   1.0000   1.0000   1.0000   1.0000   1.0000
     1.0000   1.0000   1.0000   1.0000   1.0000   0.0000   0.0000   0.0000
     0.0000   0.0000   0.0000   0.0000   0.0000   0.0000   0.0000   0.0000
     0.0000   0.0000   0.0000

          k = 0.6250 0.0722 0.0000 ( 11800 PWs)   bands (ev):

   -77.7420 -49.2180 -49.1380 -48.8824 -21.3852 -21.3345 -20.3320 -19.6973
   -14.8559 -14.5673 -13.2727 -13.1531 -11.4209 -11.0532 -10.8440  -9.6101
    -9.3896  -8.8653  -7.8908  -7.3185  -5.9913  -4.6723  -3.4965  -2.6824
    -2.3990  -0.2983   0.0043   2.2003   2.6065   3.5524   3.9570   4.4758
     4.9798   5.5143   5.5987

     occupation numbers 
     1.0000   1.0000   1.0000   1.0000   1.0000   1.0000   1.0000   1.0000
     1.0000   1.0000   1.0000   1.0000   1.0000   1.0000   1.0000   1.0000
     1.0000   1.0000   1.0000   1.0000   1.0000   0.0000   0.0000   0.0000
     0.0000   0.0000   0.0000   0.0000   0.0000   0.0000   0.0000   0.0000
     0.0000   0.0000   0.0000

     highest occupied, lowest unoccupied level (ev):    -5.2966   -4.6724

!    total energy              =    -263.34744500 Ry
     estimated scf accuracy    <          7.8E-11 Ry

     convergence has been achieved in  18 iterations

     Using ACE for calculation of exact exchange

     EXX grid:    95059 G-vectors     FFT dimensions: (  32,  32, 225)
     ACE projected onto    35 (nbndproj) and applied to    35 (nbnd) bands

     EXX: now go back to refine exchange calculation

     total cpu time spent up to now is      482.0 secs

     Self-consistent Calculation

     iteration #  1     ecut=    80.00 Ry     beta= 0.50
     Davidson diagonalization with overlap

---- Real-time Memory Report at c_bands before calling an iterative solver
          2134 MiB given to the printing process from OS
             0 MiB allocation reported by mallinfo(arena+hblkhd)
         12863 MiB available memory on the node where the printing process lives
------------------
     ethr =  7.17E-13,  avg # of iterations = 14.5

     total cpu time spent up to now is      519.9 secs

     total energy              =    -263.19218422 Ry
     estimated scf accuracy    <       0.03030136 Ry

     iteration #  2     ecut=    80.00 Ry     beta= 0.50
     Davidson diagonalization with overlap

---- Real-time Memory Report at c_bands before calling an iterative solver
          2134 MiB given to the printing process from OS
             0 MiB allocation reported by mallinfo(arena+hblkhd)
         12890 MiB available memory on the node where the printing process lives
------------------
     ethr =  7.21E-05,  avg # of iterations =  2.7

     total cpu time spent up to now is      528.9 secs

     total energy              =    -263.18754738 Ry
     estimated scf accuracy    <       0.15343663 Ry

     iteration #  3     ecut=    80.00 Ry     beta= 0.50
     Davidson diagonalization with overlap

---- Real-time Memory Report at c_bands before calling an iterative solver
          2134 MiB given to the printing process from OS
             0 MiB allocation reported by mallinfo(arena+hblkhd)
         12891 MiB available memory on the node where the printing process lives
------------------
     ethr =  7.21E-05,  avg # of iterations =  2.0

     total cpu time spent up to now is      536.2 secs

     total energy              =    -263.20743171 Ry
     estimated scf accuracy    <       0.00056292 Ry

     iteration #  4     ecut=    80.00 Ry     beta= 0.50
     Davidson diagonalization with overlap

---- Real-time Memory Report at c_bands before calling an iterative solver
          2134 MiB given to the printing process from OS
             0 MiB allocation reported by mallinfo(arena+hblkhd)
         12909 MiB available memory on the node where the printing process lives
------------------
     ethr =  1.34E-06,  avg # of iterations =  4.4

     total cpu time spent up to now is      544.9 secs

     total energy              =    -263.20749797 Ry
     estimated scf accuracy    <       0.00015382 Ry

     iteration #  5     ecut=    80.00 Ry     beta= 0.50
     Davidson diagonalization with overlap

---- Real-time Memory Report at c_bands before calling an iterative solver
          2134 MiB given to the printing process from OS
             0 MiB allocation reported by mallinfo(arena+hblkhd)
         12930 MiB available memory on the node where the printing process lives
------------------
     ethr =  3.66E-07,  avg # of iterations =  3.4

     total cpu time spent up to now is      552.3 secs

     total energy              =    -263.20751565 Ry
     estimated scf accuracy    <       0.00011321 Ry

     iteration #  6     ecut=    80.00 Ry     beta= 0.50
     Davidson diagonalization with overlap

---- Real-time Memory Report at c_bands before calling an iterative solver
          2134 MiB given to the printing process from OS
             0 MiB allocation reported by mallinfo(arena+hblkhd)
         13091 MiB available memory on the node where the printing process lives
------------------
     ethr =  2.70E-07,  avg # of iterations =  2.4

     total cpu time spent up to now is      559.4 secs

     total energy              =    -263.20753707 Ry
     estimated scf accuracy    <       0.00001329 Ry

     iteration #  7     ecut=    80.00 Ry     beta= 0.50
     Davidson diagonalization with overlap

---- Real-time Memory Report at c_bands before calling an iterative solver
          2134 MiB given to the printing process from OS
             0 MiB allocation reported by mallinfo(arena+hblkhd)
         13090 MiB available memory on the node where the printing process lives
------------------
     ethr =  3.16E-08,  avg # of iterations =  1.0

     total cpu time spent up to now is      565.6 secs

     total energy              =    -263.20753885 Ry
     estimated scf accuracy    <       0.00000013 Ry

     iteration #  8     ecut=    80.00 Ry     beta= 0.50
     Davidson diagonalization with overlap

---- Real-time Memory Report at c_bands before calling an iterative solver
          2134 MiB given to the printing process from OS
             0 MiB allocation reported by mallinfo(arena+hblkhd)
         13087 MiB available memory on the node where the printing process lives
------------------
     ethr =  3.01E-10,  avg # of iterations =  2.7

     total cpu time spent up to now is      573.6 secs

     total energy              =    -263.20753888 Ry
     estimated scf accuracy    <       0.00000001 Ry

     iteration #  9     ecut=    80.00 Ry     beta= 0.50
     Davidson diagonalization with overlap

---- Real-time Memory Report at c_bands before calling an iterative solver
          2134 MiB given to the printing process from OS
             0 MiB allocation reported by mallinfo(arena+hblkhd)
         13085 MiB available memory on the node where the printing process lives
------------------
     ethr =  2.39E-11,  avg # of iterations =  2.2

     total cpu time spent up to now is      581.2 secs

     total energy              =    -263.20753888 Ry
     estimated scf accuracy    <          2.8E-09 Ry

     iteration # 10     ecut=    80.00 Ry     beta= 0.50
     Davidson diagonalization with overlap

---- Real-time Memory Report at c_bands before calling an iterative solver
          2134 MiB given to the printing process from OS
             0 MiB allocation reported by mallinfo(arena+hblkhd)
         13081 MiB available memory on the node where the printing process lives
------------------
     ethr =  6.72E-12,  avg # of iterations =  1.7

     total cpu time spent up to now is      587.9 secs

     total energy              =    -263.20753888 Ry
     estimated scf accuracy    <          2.2E-10 Ry

     iteration # 11     ecut=    80.00 Ry     beta= 0.50
     Davidson diagonalization with overlap

---- Real-time Memory Report at c_bands before calling an iterative solver
          2134 MiB given to the printing process from OS
             0 MiB allocation reported by mallinfo(arena+hblkhd)
         13081 MiB available memory on the node where the printing process lives
------------------
     ethr =  5.31E-13,  avg # of iterations =  2.0

     total cpu time spent up to now is      595.8 secs

     End of self-consistent calculation

          k = 0.0000 0.0000 0.0000 ( 11937 PWs)   bands (ev):

   -83.5652 -52.7878 -52.7342 -52.7342 -27.0901 -26.9907 -24.3215 -22.7414
   -15.6275 -12.7339 -10.6162 -10.4637 -10.4636 -10.4098 -10.4097  -9.9381
    -9.9380  -8.5277  -8.5274  -8.4905  -6.2566  -2.7351  -2.7349  -2.5216
    -2.5215  -0.2410   0.0908   2.3403   2.3724   2.4885   3.9932   3.9932
     4.0516   4.0517   4.2433

     occupation numbers 
     1.0000   1.0000   1.0000   1.0000   1.0000   1.0000   1.0000   1.0000
     1.0000   1.0000   1.0000   1.0000   1.0000   1.0000   1.0000   1.0000
     1.0000   1.0000   1.0000   1.0000   1.0000   0.0000   0.0000   0.0000
     0.0000   0.0000   0.0000   0.0000   0.0000   0.0000   0.0000   0.0000
     0.0000   0.0000   0.0000

          k = 0.0000 0.1443 0.0000 ( 11905 PWs)   bands (ev):

   -83.5822 -52.8923 -52.7802 -52.7381 -26.7869 -26.6910 -24.0891 -22.6252
   -15.3793 -12.6066 -11.5918 -11.5271 -10.6841 -10.6520 -10.5366 -10.2575
    -9.7857  -8.9284  -8.7962  -8.3063  -6.4223  -2.9599  -2.8110  -2.7873
    -2.4437   0.4885   0.7147   2.4315   2.4814   3.0432   3.2297   3.5195
     4.6626   4.7314   5.1196

     occupation numbers 
     1.0000   1.0000   1.0000   1.0000   1.0000   1.0000   1.0000   1.0000
     1.0000   1.0000   1.0000   1.0000   1.0000   1.0000   1.0000   1.0000
     1.0000   1.0000   1.0000   1.0000   1.0000   0.0000   0.0000   0.0000
     0.0000   0.0000   0.0000   0.0000   0.0000   0.0000   0.0000   0.0000
     0.0000   0.0000   0.0000

          k = 0.0000 0.2887 0.0000 ( 11885 PWs)   bands (ev):

   -83.5933 -53.1023 -52.8452 -52.6979 -25.9817 -25.8998 -23.5313 -22.3476
   -15.0316 -13.8417 -13.4745 -12.3029 -11.5356 -11.2157 -11.2012  -9.9185
    -9.6521  -9.3882  -9.2881  -8.5096  -6.8808  -3.4590  -3.3157  -2.5502
    -1.9175   0.0988   0.2787   2.4203   2.5648   3.4792   3.9824   5.0870
     5.8968   6.0980   6.2803

     occupation numbers 
     1.0000   1.0000   1.0000   1.0000   1.0000   1.0000   1.0000   1.0000
     1.0000   1.0000   1.0000   1.0000   1.0000   1.0000   1.0000   1.0000
     1.0000   1.0000   1.0000   1.0000   1.0000   0.0000   0.0000   0.0000
     0.0000   0.0000   0.0000   0.0000   0.0000   0.0000   0.0000   0.0000
     0.0000   0.0000   0.0000

          k = 0.0000 0.4330 0.0000 ( 11860 PWs)   bands (ev):

   -83.5919 -53.2114 -52.8639 -52.7661 -24.9013 -24.8449 -22.9919 -22.1202
   -16.2498 -15.9378 -13.8311 -12.5958 -12.0732 -11.7403 -11.7045 -10.4101
    -9.8557  -9.4616  -8.7195  -8.6931  -7.0745  -3.8802  -3.7149  -2.3172
    -1.5369  -1.3032  -0.8135   2.4180   2.9792   4.0102   4.2873   5.7804
     6.4054   6.6027   7.1480

     occupation numbers 
     1.0000   1.0000   1.0000   1.0000   1.0000   1.0000   1.0000   1.0000
     1.0000   1.0000   1.0000   1.0000   1.0000   1.0000   1.0000   1.0000
     1.0000   1.0000   1.0000   1.0000   1.0000   0.0000   0.0000   0.0000
     0.0000   0.0000   0.0000   0.0000   0.0000   0.0000   0.0000   0.0000
     0.0000   0.0000   0.0000

          k = 0.0000-0.5774 0.0000 ( 11846 PWs)   bands (ev):

   -83.5847 -53.2155 -52.8545 -52.8384 -24.2299 -24.1987 -22.8580 -22.1294
   -17.1689 -16.8942 -13.5637 -13.0489 -12.1826 -11.9624 -11.9196 -10.6121
   -10.0511  -9.2187  -8.7479  -8.4400  -7.1364  -3.9427  -3.8125  -2.4440
    -1.9302  -1.4087  -1.1086   2.1290   2.7462   4.4161   5.1052   5.8173
     6.1726   6.5071   7.2414

     occupation numbers 
     1.0000   1.0000   1.0000   1.0000   1.0000   1.0000   1.0000   1.0000
     1.0000   1.0000   1.0000   1.0000   1.0000   1.0000   1.0000   1.0000
     1.0000   1.0000   1.0000   1.0000   1.0000   0.0000   0.0000   0.0000
     0.0000   0.0000   0.0000   0.0000   0.0000   0.0000   0.0000   0.0000
     0.0000   0.0000   0.0000

          k = 0.1250 0.2165 0.0000 ( 11867 PWs)   bands (ev):

   -83.5901 -53.0462 -52.8525 -52.6773 -26.2336 -26.1462 -23.6984 -22.4310
   -15.0484 -13.0856 -12.8554 -12.3027 -11.6021 -11.3036 -10.9140  -9.9710
    -9.6664  -9.5472  -9.0376  -8.3646  -6.7584  -3.3174  -3.1737  -2.7839
    -1.9761   1.0305   1.2167   2.0041   2.0190   3.4791   3.6318   4.0456
     5.0818   5.7018   6.4602

     occupation numbers 
     1.0000   1.0000   1.0000   1.0000   1.0000   1.0000   1.0000   1.0000
     1.0000   1.0000   1.0000   1.0000   1.0000   1.0000   1.0000   1.0000
     1.0000   1.0000   1.0000   1.0000   1.0000   0.0000   0.0000   0.0000
     0.0000   0.0000   0.0000   0.0000   0.0000   0.0000   0.0000   0.0000
     0.0000   0.0000   0.0000

          k = 0.1250 0.3608 0.0000 ( 11871 PWs)   bands (ev):

   -83.5938 -53.1652 -52.9325 -52.6911 -25.2718 -25.2035 -23.1413 -22.1678
   -15.4516 -14.9693 -13.7827 -12.5730 -12.2989 -11.9928 -11.6034 -10.6100
    -9.6583  -9.3432  -9.0963  -8.6359  -7.1157  -3.7403  -3.5179  -2.4383
    -1.6585   0.1231   0.3501   2.6568   2.7311   3.7820   4.1750   5.1175
     5.7453   6.1928   6.6264

     occupation numbers 
     1.0000   1.0000   1.0000   1.0000   1.0000   1.0000   1.0000   1.0000
     1.0000   1.0000   1.0000   1.0000   1.0000   1.0000   1.0000   1.0000
     1.0000   1.0000   1.0000   1.0000   1.0000   0.0000   0.0000   0.0000
     0.0000   0.0000   0.0000   0.0000   0.0000   0.0000   0.0000   0.0000
     0.0000   0.0000   0.0000

          k = 0.1250 0.5052 0.0000 ( 11841 PWs)   bands (ev):

   -83.5941 -53.2065 -52.9496 -52.7832 -24.2768 -24.2368 -22.8280 -22.0837
   -16.7334 -16.4470 -13.6145 -13.1151 -12.7132 -12.3262 -12.0530 -10.8175
    -9.9267  -9.2695  -9.0725  -8.5458  -7.1153  -4.0975  -3.5477  -2.1596
    -1.8108  -0.7501  -0.3709   2.7195   3.2412   3.9416   4.3381   5.3706
     6.2260   6.3085   7.0439

     occupation numbers 
     1.0000   1.0000   1.0000   1.0000   1.0000   1.0000   1.0000   1.0000
     1.0000   1.0000   1.0000   1.0000   1.0000   1.0000   1.0000   1.0000
     1.0000   1.0000   1.0000   1.0000   1.0000   0.0000   0.0000   0.0000
     0.0000   0.0000   0.0000   0.0000   0.0000   0.0000   0.0000   0.0000
     0.0000   0.0000   0.0000

          k = 0.2500 0.4330 0.0000 ( 11844 PWs)   bands (ev):

   -83.5987 -53.1777 -53.0431 -52.7309 -24.3239 -24.2768 -22.8044 -22.0435
   -16.1310 -15.7871 -14.0098 -13.8062 -13.2899 -12.0079 -11.8514 -11.2067
   -10.0865  -9.5797  -9.0416  -8.5317  -7.1422  -4.1031  -3.4219  -2.2392
    -1.7177   0.4883   0.7125   2.6122   3.0175   4.4422   4.7056   5.0767
     5.4683   6.1238   6.8889

     occupation numbers 
     1.0000   1.0000   1.0000   1.0000   1.0000   1.0000   1.0000   1.0000
     1.0000   1.0000   1.0000   1.0000   1.0000   1.0000   1.0000   1.0000
     1.0000   1.0000   1.0000   1.0000   1.0000   0.0000   0.0000   0.0000
     0.0000   0.0000   0.0000   0.0000   0.0000   0.0000   0.0000   0.0000
     0.0000   0.0000   0.0000

          k = 0.2500 0.5774 0.0000 ( 11800 PWs)   bands (ev):

   -83.5951 -53.1804 -53.0795 -52.7306 -23.7811 -23.7457 -22.7541 -22.0635
   -16.3832 -16.0543 -14.6538 -14.5251 -12.8001 -12.3856 -12.1327 -10.8403
   -10.5926 -10.0003  -8.9725  -8.3390  -6.8497  -4.5335  -3.2169  -2.1241
    -1.8279   0.2731   0.6568   2.8317   3.2707   4.3250   4.7327   5.2563
     5.8408   6.3406   6.4339

     occupation numbers 
     1.0000   1.0000   1.0000   1.0000   1.0000   1.0000   1.0000   1.0000
     1.0000   1.0000   1.0000   1.0000   1.0000   1.0000   1.0000   1.0000
     1.0000   1.0000   1.0000   1.0000   1.0000   0.0000   0.0000   0.0000
     0.0000   0.0000   0.0000   0.0000   0.0000   0.0000   0.0000   0.0000
     0.0000   0.0000   0.0000

          k =-0.1250 0.0722 0.0000 ( 11905 PWs)   bands (ev):

   -83.5822 -52.8924 -52.7802 -52.7381 -26.7869 -26.6910 -24.0891 -22.6252
   -15.3793 -12.6066 -11.5918 -11.5272 -10.6840 -10.6519 -10.5366 -10.2576
    -9.7857  -8.9286  -8.7960  -8.3063  -6.4224  -2.9599  -2.8109  -2.7872
    -2.4438   0.4885   0.7147   2.4315   2.4814   3.0432   3.2297   3.5195
     4.6626   4.7314   5.1197

     occupation numbers 
     1.0000   1.0000   1.0000   1.0000   1.0000   1.0000   1.0000   1.0000
     1.0000   1.0000   1.0000   1.0000   1.0000   1.0000   1.0000   1.0000
     1.0000   1.0000   1.0000   1.0000   1.0000   0.0000   0.0000   0.0000
     0.0000   0.0000   0.0000   0.0000   0.0000   0.0000   0.0000   0.0000
     0.0000   0.0000   0.0000

          k = 0.1250 0.0722 0.0000 ( 11905 PWs)   bands (ev):

   -83.5822 -52.8923 -52.7802 -52.7381 -26.7869 -26.6910 -24.0891 -22.6252
   -15.3793 -12.6066 -11.5918 -11.5271 -10.6841 -10.6520 -10.5366 -10.2575
    -9.7857  -8.9284  -8.7962  -8.3063  -6.4223  -2.9599  -2.8110  -2.7873
    -2.4437   0.4885   0.7147   2.4315   2.4814   3.0432   3.2297   3.5195
     4.6626   4.7313   5.1196

     occupation numbers 
     1.0000   1.0000   1.0000   1.0000   1.0000   1.0000   1.0000   1.0000
     1.0000   1.0000   1.0000   1.0000   1.0000   1.0000   1.0000   1.0000
     1.0000   1.0000   1.0000   1.0000   1.0000   0.0000   0.0000   0.0000
     0.0000   0.0000   0.0000   0.0000   0.0000   0.0000   0.0000   0.0000
     0.0000   0.0000   0.0000

          k =-0.2500 0.1443 0.0000 ( 11885 PWs)   bands (ev):

   -83.5933 -53.1023 -52.8452 -52.6979 -25.9817 -25.8998 -23.5313 -22.3476
   -15.0316 -13.8417 -13.4746 -12.3029 -11.5356 -11.2156 -11.2012  -9.9185
    -9.6521  -9.3881  -9.2880  -8.5097  -6.8809  -3.4590  -3.3156  -2.5501
    -1.9176   0.0988   0.2787   2.4203   2.5649   3.4791   3.9824   5.0870
     5.8969   6.0980   6.2803

     occupation numbers 
     1.0000   1.0000   1.0000   1.0000   1.0000   1.0000   1.0000   1.0000
     1.0000   1.0000   1.0000   1.0000   1.0000   1.0000   1.0000   1.0000
     1.0000   1.0000   1.0000   1.0000   1.0000   0.0000   0.0000   0.0000
     0.0000   0.0000   0.0000   0.0000   0.0000   0.0000   0.0000   0.0000
     0.0000   0.0000   0.0000

          k = 0.2500 0.1443 0.0000 ( 11885 PWs)   bands (ev):

   -83.5933 -53.1023 -52.8452 -52.6979 -25.9817 -25.8998 -23.5313 -22.3476
   -15.0316 -13.8417 -13.4745 -12.3029 -11.5356 -11.2157 -11.2013  -9.9185
    -9.6521  -9.3882  -9.2881  -8.5096  -6.8808  -3.4590  -3.3157  -2.5502
    -1.9175   0.0988   0.2787   2.4203   2.5649   3.4791   3.9824   5.0870
     5.8969   6.0980   6.2803

     occupation numbers 
     1.0000   1.0000   1.0000   1.0000   1.0000   1.0000   1.0000   1.0000
     1.0000   1.0000   1.0000   1.0000   1.0000   1.0000   1.0000   1.0000
     1.0000   1.0000   1.0000   1.0000   1.0000   0.0000   0.0000   0.0000
     0.0000   0.0000   0.0000   0.0000   0.0000   0.0000   0.0000   0.0000
     0.0000   0.0000   0.0000

          k =-0.3750 0.2165 0.0000 ( 11860 PWs)   bands (ev):

   -83.5919 -53.2114 -52.8639 -52.7661 -24.9013 -24.8449 -22.9919 -22.1202
   -16.2498 -15.9378 -13.8311 -12.5958 -12.0733 -11.7402 -11.7044 -10.4101
    -9.8556  -9.4615  -8.7194  -8.6932  -7.0746  -3.8802  -3.7149  -2.3171
    -1.5369  -1.3032  -0.8135   2.4180   2.9792   4.0102   4.2872   5.7803
     6.4054   6.6027   7.1480

     occupation numbers 
     1.0000   1.0000   1.0000   1.0000   1.0000   1.0000   1.0000   1.0000
     1.0000   1.0000   1.0000   1.0000   1.0000   1.0000   1.0000   1.0000
     1.0000   1.0000   1.0000   1.0000   1.0000   0.0000   0.0000   0.0000
     0.0000   0.0000   0.0000   0.0000   0.0000   0.0000   0.0000   0.0000
     0.0000   0.0000   0.0000

          k = 0.3750 0.2165 0.0000 ( 11860 PWs)   bands (ev):

   -83.5919 -53.2114 -52.8639 -52.7661 -24.9013 -24.8449 -22.9919 -22.1202
   -16.2498 -15.9378 -13.8311 -12.5958 -12.0733 -11.7403 -11.7045 -10.4101
    -9.8557  -9.4615  -8.7195  -8.6932  -7.0745  -3.8802  -3.7149  -2.3172
    -1.5369  -1.3032  -0.8135   2.4180   2.9792   4.0102   4.2872   5.7803
     6.4055   6.6027   7.1480

     occupation numbers 
     1.0000   1.0000   1.0000   1.0000   1.0000   1.0000   1.0000   1.0000
     1.0000   1.0000   1.0000   1.0000   1.0000   1.0000   1.0000   1.0000
     1.0000   1.0000   1.0000   1.0000   1.0000   0.0000   0.0000   0.0000
     0.0000   0.0000   0.0000   0.0000   0.0000   0.0000   0.0000   0.0000
     0.0000   0.0000   0.0000

          k = 0.5000-0.2887 0.0000 ( 11846 PWs)   bands (ev):

   -83.5847 -53.2155 -52.8544 -52.8384 -24.2299 -24.1987 -22.8579 -22.1295
   -17.1690 -16.8943 -13.5637 -13.0488 -12.1826 -11.9623 -11.9196 -10.6121
   -10.0509  -9.2186  -8.7480  -8.4399  -7.1364  -3.9428  -3.8125  -2.4439
    -1.9302  -1.4088  -1.1086   2.1290   2.7462   4.4161   5.1051   5.8174
     6.1725   6.5071   7.2414

     occupation numbers 
     1.0000   1.0000   1.0000   1.0000   1.0000   1.0000   1.0000   1.0000
     1.0000   1.0000   1.0000   1.0000   1.0000   1.0000   1.0000   1.0000
     1.0000   1.0000   1.0000   1.0000   1.0000   0.0000   0.0000   0.0000
     0.0000   0.0000   0.0000   0.0000   0.0000   0.0000   0.0000   0.0000
     0.0000   0.0000   0.0000

          k =-0.5000-0.2887 0.0000 ( 11846 PWs)   bands (ev):

   -83.5847 -53.2155 -52.8545 -52.8384 -24.2299 -24.1987 -22.8579 -22.1294
   -17.1690 -16.8942 -13.5637 -13.0489 -12.1826 -11.9624 -11.9196 -10.6121
   -10.0511  -9.2186  -8.7479  -8.4400  -7.1364  -3.9428  -3.8125  -2.4440
    -1.9302  -1.4087  -1.1086   2.1290   2.7462   4.4161   5.1052   5.8173
     6.1725   6.5071   7.2414

     occupation numbers 
     1.0000   1.0000   1.0000   1.0000   1.0000   1.0000   1.0000   1.0000
     1.0000   1.0000   1.0000   1.0000   1.0000   1.0000   1.0000   1.0000
     1.0000   1.0000   1.0000   1.0000   1.0000   0.0000   0.0000   0.0000
     0.0000   0.0000   0.0000   0.0000   0.0000   0.0000   0.0000   0.0000
     0.0000   0.0000   0.0000

          k =-0.1250 0.2165 0.0000 ( 11867 PWs)   bands (ev):

   -83.5901 -53.0462 -52.8525 -52.6773 -26.2336 -26.1462 -23.6984 -22.4310
   -15.0484 -13.0857 -12.8555 -12.3028 -11.6021 -11.3035 -10.9140  -9.9710
    -9.6663  -9.5471  -9.0377  -8.3645  -6.7585  -3.3173  -3.1738  -2.7839
    -1.9762   1.0304   1.2166   2.0041   2.0190   3.4792   3.6318   4.0456
     5.0818   5.7018   6.4602

     occupation numbers 
     1.0000   1.0000   1.0000   1.0000   1.0000   1.0000   1.0000   1.0000
     1.0000   1.0000   1.0000   1.0000   1.0000   1.0000   1.0000   1.0000
     1.0000   1.0000   1.0000   1.0000   1.0000   0.0000   0.0000   0.0000
     0.0000   0.0000   0.0000   0.0000   0.0000   0.0000   0.0000   0.0000
     0.0000   0.0000   0.0000

          k = 0.2500-0.0000 0.0000 ( 11867 PWs)   bands (ev):

   -83.5901 -53.0462 -52.8525 -52.6773 -26.2336 -26.1462 -23.6984 -22.4310
   -15.0484 -13.0856 -12.8555 -12.3028 -11.6021 -11.3035 -10.9140  -9.9710
    -9.6663  -9.5471  -9.0377  -8.3645  -6.7585  -3.3173  -3.1738  -2.7839
    -1.9762   1.0304   1.2167   2.0041   2.0190   3.4792   3.6318   4.0455
     5.0817   5.7018   6.4602

     occupation numbers 
     1.0000   1.0000   1.0000   1.0000   1.0000   1.0000   1.0000   1.0000
     1.0000   1.0000   1.0000   1.0000   1.0000   1.0000   1.0000   1.0000
     1.0000   1.0000   1.0000   1.0000   1.0000   0.0000   0.0000   0.0000
     0.0000   0.0000   0.0000   0.0000   0.0000   0.0000   0.0000   0.0000
     0.0000   0.0000   0.0000

          k =-0.1250 0.3608 0.0000 ( 11871 PWs)   bands (ev):

   -83.5938 -53.1652 -52.9325 -52.6911 -25.2718 -25.2035 -23.1413 -22.1678
   -15.4516 -14.9693 -13.7827 -12.5730 -12.2989 -11.9928 -11.6033 -10.6099
    -9.6583  -9.3432  -9.0962  -8.6359  -7.1157  -3.7403  -3.5180  -2.4383
    -1.6584   0.1231   0.3501   2.6568   2.7311   3.7821   4.1750   5.1176
     5.7453   6.1928   6.6265

     occupation numbers 
     1.0000   1.0000   1.0000   1.0000   1.0000   1.0000   1.0000   1.0000
     1.0000   1.0000   1.0000   1.0000   1.0000   1.0000   1.0000   1.0000
     1.0000   1.0000   1.0000   1.0000   1.0000   0.0000   0.0000   0.0000
     0.0000   0.0000   0.0000   0.0000   0.0000   0.0000   0.0000   0.0000
     0.0000   0.0000   0.0000

          k =-0.2500 0.2887 0.0000 ( 11871 PWs)   bands (ev):

   -83.5938 -53.1652 -52.9325 -52.6911 -25.2718 -25.2035 -23.1413 -22.1678
   -15.4516 -14.9693 -13.7827 -12.5730 -12.2988 -11.9928 -11.6033 -10.6099
    -9.6583  -9.3431  -9.0962  -8.6360  -7.1158  -3.7404  -3.5179  -2.4383
    -1.6585   0.1231   0.3501   2.6568   2.7311   3.7820   4.1750   5.1176
     5.7453   6.1928   6.6264

     occupation numbers 
     1.0000   1.0000   1.0000   1.0000   1.0000   1.0000   1.0000   1.0000
     1.0000   1.0000   1.0000   1.0000   1.0000   1.0000   1.0000   1.0000
     1.0000   1.0000   1.0000   1.0000   1.0000   0.0000   0.0000   0.0000
     0.0000   0.0000   0.0000   0.0000   0.0000   0.0000   0.0000   0.0000
     0.0000   0.0000   0.0000

          k = 0.3750 0.0722 0.0000 ( 11871 PWs)   bands (ev):

   -83.5938 -53.1652 -52.9325 -52.6911 -25.2718 -25.2035 -23.1413 -22.1678
   -15.4516 -14.9693 -13.7827 -12.5730 -12.2989 -11.9928 -11.6033 -10.6099
    -9.6583  -9.3432  -9.0962  -8.6359  -7.1157  -3.7403  -3.5180  -2.4383
    -1.6584   0.1231   0.3501   2.6568   2.7311   3.7821   4.1750   5.1176
     5.7453   6.1928   6.6264

     occupation numbers 
     1.0000   1.0000   1.0000   1.0000   1.0000   1.0000   1.0000   1.0000
     1.0000   1.0000   1.0000   1.0000   1.0000   1.0000   1.0000   1.0000
     1.0000   1.0000   1.0000   1.0000   1.0000   0.0000   0.0000   0.0000
     0.0000   0.0000   0.0000   0.0000   0.0000   0.0000   0.0000   0.0000
     0.0000   0.0000   0.0000

          k =-0.2500-0.2887 0.0000 ( 11871 PWs)   bands (ev):

   -83.5938 -53.1652 -52.9325 -52.6911 -25.2718 -25.2035 -23.1413 -22.1678
   -15.4516 -14.9693 -13.7827 -12.5730 -12.2989 -11.9928 -11.6034 -10.6100
    -9.6583  -9.3432  -9.0963  -8.6359  -7.1157  -3.7403  -3.5179  -2.4383
    -1.6585   0.1231   0.3501   2.6568   2.7311   3.7820   4.1749   5.1176
     5.7453   6.1928   6.6265

     occupation numbers 
     1.0000   1.0000   1.0000   1.0000   1.0000   1.0000   1.0000   1.0000
     1.0000   1.0000   1.0000   1.0000   1.0000   1.0000   1.0000   1.0000
     1.0000   1.0000   1.0000   1.0000   1.0000   0.0000   0.0000   0.0000
     0.0000   0.0000   0.0000   0.0000   0.0000   0.0000   0.0000   0.0000
     0.0000   0.0000   0.0000

          k = 0.3750-0.0722 0.0000 ( 11871 PWs)   bands (ev):

   -83.5938 -53.1652 -52.9325 -52.6911 -25.2718 -25.2035 -23.1413 -22.1678
   -15.4516 -14.9693 -13.7827 -12.5730 -12.2988 -11.9928 -11.6033 -10.6099
    -9.6583  -9.3431  -9.0962  -8.6360  -7.1158  -3.7404  -3.5180  -2.4383
    -1.6585   0.1231   0.3501   2.6568   2.7311   3.7820   4.1750   5.1176
     5.7453   6.1928   6.6264

     occupation numbers 
     1.0000   1.0000   1.0000   1.0000   1.0000   1.0000   1.0000   1.0000
     1.0000   1.0000   1.0000   1.0000   1.0000   1.0000   1.0000   1.0000
     1.0000   1.0000   1.0000   1.0000   1.0000   0.0000   0.0000   0.0000
     0.0000   0.0000   0.0000   0.0000   0.0000   0.0000   0.0000   0.0000
     0.0000   0.0000   0.0000

          k =-0.1250 0.5052 0.0000 ( 11841 PWs)   bands (ev):

   -83.5941 -53.2065 -52.9496 -52.7832 -24.2768 -24.2368 -22.8280 -22.0837
   -16.7334 -16.4470 -13.6145 -13.1151 -12.7132 -12.3262 -12.0529 -10.8175
    -9.9267  -9.2695  -9.0725  -8.5458  -7.1153  -4.0975  -3.5477  -2.1596
    -1.8107  -0.7501  -0.3709   2.7195   3.2412   3.9416   4.3381   5.3706
     6.2260   6.3084   7.0439

     occupation numbers 
     1.0000   1.0000   1.0000   1.0000   1.0000   1.0000   1.0000   1.0000
     1.0000   1.0000   1.0000   1.0000   1.0000   1.0000   1.0000   1.0000
     1.0000   1.0000   1.0000   1.0000   1.0000   0.0000   0.0000   0.0000
     0.0000   0.0000   0.0000   0.0000   0.0000   0.0000   0.0000   0.0000
     0.0000   0.0000   0.0000

          k =-0.3750 0.3608 0.0000 ( 11841 PWs)   bands (ev):

   -83.5941 -53.2065 -52.9496 -52.7832 -24.2769 -24.2368 -22.8280 -22.0837
   -16.7334 -16.4471 -13.6145 -13.1150 -12.7131 -12.3261 -12.0530 -10.8175
    -9.9267  -9.2694  -9.0724  -8.5459  -7.1153  -4.0976  -3.5477  -2.1595
    -1.8107  -0.7501  -0.3709   2.7195   3.2412   3.9416   4.3381   5.3706
     6.2261   6.3084   7.0450

     occupation numbers 
     1.0000   1.0000   1.0000   1.0000   1.0000   1.0000   1.0000   1.0000
     1.0000   1.0000   1.0000   1.0000   1.0000   1.0000   1.0000   1.0000
     1.0000   1.0000   1.0000   1.0000   1.0000   0.0000   0.0000   0.0000
     0.0000   0.0000   0.0000   0.0000   0.0000   0.0000   0.0000   0.0000
     0.0000   0.0000   0.0000

          k = 0.5000 0.1443 0.0000 ( 11841 PWs)   bands (ev):

   -83.5941 -53.2065 -52.9496 -52.7832 -24.2769 -24.2368 -22.8280 -22.0836
   -16.7334 -16.4471 -13.6145 -13.1151 -12.7132 -12.3262 -12.0529 -10.8175
    -9.9267  -9.2695  -9.0724  -8.5459  -7.1153  -4.0975  -3.5477  -2.1596
    -1.8107  -0.7501  -0.3709   2.7195   3.2412   3.9416   4.3381   5.3707
     6.2261   6.3084   7.0449

     occupation numbers 
     1.0000   1.0000   1.0000   1.0000   1.0000   1.0000   1.0000   1.0000
     1.0000   1.0000   1.0000   1.0000   1.0000   1.0000   1.0000   1.0000
     1.0000   1.0000   1.0000   1.0000   1.0000   0.0000   0.0000   0.0000
     0.0000   0.0000   0.0000   0.0000   0.0000   0.0000   0.0000   0.0000
     0.0000   0.0000   0.0000

          k =-0.3750-0.3608 0.0000 ( 11841 PWs)   bands (ev):

   -83.5941 -53.2065 -52.9496 -52.7832 -24.2769 -24.2368 -22.8280 -22.0836
   -16.7334 -16.4470 -13.6145 -13.1150 -12.7132 -12.3262 -12.0530 -10.8175
    -9.9267  -9.2695  -9.0725  -8.5459  -7.1153  -4.0975  -3.5477  -2.1596
    -1.8108  -0.7501  -0.3709   2.7195   3.2412   3.9416   4.3381   5.3706
     6.2260   6.3085   7.0448

     occupation numbers 
     1.0000   1.0000   1.0000   1.0000   1.0000   1.0000   1.0000   1.0000
     1.0000   1.0000   1.0000   1.0000   1.0000   1.0000   1.0000   1.0000
     1.0000   1.0000   1.0000   1.0000   1.0000   0.0000   0.0000   0.0000
     0.0000   0.0000   0.0000   0.0000   0.0000   0.0000   0.0000   0.0000
     0.0000   0.0000   0.0000

          k = 0.5000-0.1443 0.0000 ( 11841 PWs)   bands (ev):

   -83.5941 -53.2065 -52.9496 -52.7832 -24.2769 -24.2368 -22.8280 -22.0837
   -16.7334 -16.4471 -13.6145 -13.1151 -12.7131 -12.3261 -12.0530 -10.8175
    -9.9267  -9.2695  -9.0724  -8.5459  -7.1153  -4.0976  -3.5477  -2.1595
    -1.8107  -0.7501  -0.3709   2.7195   3.2412   3.9416   4.3381   5.3707
     6.2261   6.3084   7.0449

     occupation numbers 
     1.0000   1.0000   1.0000   1.0000   1.0000   1.0000   1.0000   1.0000
     1.0000   1.0000   1.0000   1.0000   1.0000   1.0000   1.0000   1.0000
     1.0000   1.0000   1.0000   1.0000   1.0000   0.0000   0.0000   0.0000
     0.0000   0.0000   0.0000   0.0000   0.0000   0.0000   0.0000   0.0000
     0.0000   0.0000   0.0000

          k =-0.2500 0.4330 0.0000 ( 11844 PWs)   bands (ev):

   -83.5987 -53.1777 -53.0431 -52.7309 -24.3239 -24.2768 -22.8044 -22.0435
   -16.1311 -15.7872 -14.0098 -13.8061 -13.2899 -12.0079 -11.8514 -11.2067
   -10.0865  -9.5796  -9.0416  -8.5317  -7.1423  -4.1031  -3.4219  -2.2392
    -1.7176   0.4884   0.7125   2.6122   3.0174   4.4423   4.7056   5.0768
     5.4682   6.1239   6.8889

     occupation numbers 
     1.0000   1.0000   1.0000   1.0000   1.0000   1.0000   1.0000   1.0000
     1.0000   1.0000   1.0000   1.0000   1.0000   1.0000   1.0000   1.0000
     1.0000   1.0000   1.0000   1.0000   1.0000   0.0000   0.0000   0.0000
     0.0000   0.0000   0.0000   0.0000   0.0000   0.0000   0.0000   0.0000
     0.0000   0.0000   0.0000

          k = 0.5000-0.0000 0.0000 ( 11844 PWs)   bands (ev):

   -83.5987 -53.1777 -53.0431 -52.7309 -24.3239 -24.2768 -22.8044 -22.0435
   -16.1311 -15.7872 -14.0098 -13.8061 -13.2899 -12.0079 -11.8513 -11.2067
   -10.0865  -9.5796  -9.0416  -8.5317  -7.1423  -4.1031  -3.4219  -2.2392
    -1.7176   0.4884   0.7125   2.6122   3.0174   4.4423   4.7055   5.0768
     5.4683   6.1240   6.8885

     occupation numbers 
     1.0000   1.0000   1.0000   1.0000   1.0000   1.0000   1.0000   1.0000
     1.0000   1.0000   1.0000   1.0000   1.0000   1.0000   1.0000   1.0000
     1.0000   1.0000   1.0000   1.0000   1.0000   0.0000   0.0000   0.0000
     0.0000   0.0000   0.0000   0.0000   0.0000   0.0000   0.0000   0.0000
     0.0000   0.0000   0.0000

          k =-0.3750 0.5052 0.0000 ( 11800 PWs)   bands (ev):

   -83.5951 -53.1804 -53.0795 -52.7306 -23.7811 -23.7457 -22.7541 -22.0635
   -16.3832 -16.0544 -14.6538 -14.5251 -12.8001 -12.3856 -12.1327 -10.8403
   -10.5926 -10.0003  -8.9725  -8.3390  -6.8497  -4.5335  -3.2169  -2.1242
    -1.8278   0.2731   0.6568   2.8317   3.2707   4.3250   4.7327   5.2564
     5.8407   6.3407   6.4343

     occupation numbers 
     1.0000   1.0000   1.0000   1.0000   1.0000   1.0000   1.0000   1.0000
     1.0000   1.0000   1.0000   1.0000   1.0000   1.0000   1.0000   1.0000
     1.0000   1.0000   1.0000   1.0000   1.0000   0.0000   0.0000   0.0000
     0.0000   0.0000   0.0000   0.0000   0.0000   0.0000   0.0000   0.0000
     0.0000   0.0000   0.0000

          k = 0.6250 0.0722 0.0000 ( 11800 PWs)   bands (ev):

   -83.5951 -53.1804 -53.0795 -52.7306 -23.7811 -23.7457 -22.7541 -22.0635
   -16.3832 -16.0544 -14.6538 -14.5251 -12.8001 -12.3856 -12.1327 -10.8403
   -10.5927 -10.0002  -8.9725  -8.3390  -6.8497  -4.5335  -3.2169  -2.1241
    -1.8279   0.2730   0.6568   2.8317   3.2708   4.3250   4.7327   5.2563
     5.8408   6.3406   6.4339

     occupation numbers 
     1.0000   1.0000   1.0000   1.0000   1.0000   1.0000   1.0000   1.0000
     1.0000   1.0000   1.0000   1.0000   1.0000   1.0000   1.0000   1.0000
     1.0000   1.0000   1.0000   1.0000   1.0000   0.0000   0.0000   0.0000
     0.0000   0.0000   0.0000   0.0000   0.0000   0.0000   0.0000   0.0000
     0.0000   0.0000   0.0000

     highest occupied, lowest unoccupied level (ev):    -6.2566   -4.5335

!    total energy              =    -263.20753888 Ry
     estimated scf accuracy    <          1.5E-11 Ry

     convergence has been achieved in  11 iterations

     Using ACE for calculation of exact exchange
     ACE projected onto    35 (nbndproj) and applied to    35 (nbnd) bands

     total energy              =    -263.20925846 Ry
     Harris-Foulkes estimate   =    -263.20925846 Ry
     est. exchange err (dexx)  =       0.00171958 Ry
     - averaged Fock potential =      17.81920973 Ry
     + Fock energy (ACE)       =      -8.91199374 Ry

     EXX: now go back to refine exchange calculation

     total cpu time spent up to now is      942.9 secs

     Self-consistent Calculation

     iteration #  1     ecut=    80.00 Ry     beta= 0.50
     Davidson diagonalization with overlap

---- Real-time Memory Report at c_bands before calling an iterative solver
          2135 MiB given to the printing process from OS
             0 MiB allocation reported by mallinfo(arena+hblkhd)
         12830 MiB available memory on the node where the printing process lives
------------------
     ethr =  5.31E-13,  avg # of iterations = 10.5

     total cpu time spent up to now is      968.3 secs

     total energy              =    -263.20973297 Ry
     estimated scf accuracy    <       0.00036480 Ry

     iteration #  2     ecut=    80.00 Ry     beta= 0.50
     Davidson diagonalization with overlap

---- Real-time Memory Report at c_bands before calling an iterative solver
          2135 MiB given to the printing process from OS
             0 MiB allocation reported by mallinfo(arena+hblkhd)
         12830 MiB available memory on the node where the printing process lives
------------------
     ethr =  8.69E-07,  avg # of iterations =  2.0

     total cpu time spent up to now is      975.5 secs

     total energy              =    -263.20970290 Ry
     estimated scf accuracy    <       0.00069643 Ry

     iteration #  3     ecut=    80.00 Ry     beta= 0.50
     Davidson diagonalization with overlap

---- Real-time Memory Report at c_bands before calling an iterative solver
          2135 MiB given to the printing process from OS
             0 MiB allocation reported by mallinfo(arena+hblkhd)
         12828 MiB available memory on the node where the printing process lives
------------------
     ethr =  8.69E-07,  avg # of iterations =  2.0

     total cpu time spent up to now is      982.4 secs

     total energy              =    -263.20982508 Ry
     estimated scf accuracy    <       0.00006473 Ry

     iteration #  4     ecut=    80.00 Ry     beta= 0.50
     Davidson diagonalization with overlap

---- Real-time Memory Report at c_bands before calling an iterative solver
          2135 MiB given to the printing process from OS
             0 MiB allocation reported by mallinfo(arena+hblkhd)
         12827 MiB available memory on the node where the printing process lives
------------------
     ethr =  1.54E-07,  avg # of iterations =  1.0

     total cpu time spent up to now is      988.6 secs

     total energy              =    -263.20983243 Ry
     estimated scf accuracy    <       0.00000381 Ry

     iteration #  5     ecut=    80.00 Ry     beta= 0.50
     Davidson diagonalization with overlap

---- Real-time Memory Report at c_bands before calling an iterative solver
          2135 MiB given to the printing process from OS
             0 MiB allocation reported by mallinfo(arena+hblkhd)
         12818 MiB available memory on the node where the printing process lives
------------------
     ethr =  9.07E-09,  avg # of iterations =  2.0

     total cpu time spent up to now is      995.8 secs

     total energy              =    -263.20983276 Ry
     estimated scf accuracy    <       0.00000312 Ry

     iteration #  6     ecut=    80.00 Ry     beta= 0.50
     Davidson diagonalization with overlap

---- Real-time Memory Report at c_bands before calling an iterative solver
          2135 MiB given to the printing process from OS
             0 MiB allocation reported by mallinfo(arena+hblkhd)
         12817 MiB available memory on the node where the printing process lives
------------------
     ethr =  7.42E-09,  avg # of iterations =  2.0

     total cpu time spent up to now is     1002.8 secs

     total energy              =    -263.20983336 Ry
     estimated scf accuracy    <       0.00000077 Ry

     iteration #  7     ecut=    80.00 Ry     beta= 0.50
     Davidson diagonalization with overlap

---- Real-time Memory Report at c_bands before calling an iterative solver
          2135 MiB given to the printing process from OS
             0 MiB allocation reported by mallinfo(arena+hblkhd)
         12812 MiB available memory on the node where the printing process lives
------------------
     ethr =  1.83E-09,  avg # of iterations =  1.0

     total cpu time spent up to now is     1009.0 secs

     total energy              =    -263.20983346 Ry
     estimated scf accuracy    <          5.2E-09 Ry

     iteration #  8     ecut=    80.00 Ry     beta= 0.50
     Davidson diagonalization with overlap

---- Real-time Memory Report at c_bands before calling an iterative solver
          2135 MiB given to the printing process from OS
             0 MiB allocation reported by mallinfo(arena+hblkhd)
         12809 MiB available memory on the node where the printing process lives
------------------
     ethr =  1.23E-11,  avg # of iterations =  3.0

     total cpu time spent up to now is     1017.0 secs

     total energy              =    -263.20983346 Ry
     estimated scf accuracy    <          3.6E-10 Ry

     iteration #  9     ecut=    80.00 Ry     beta= 0.50
     Davidson diagonalization with overlap

---- Real-time Memory Report at c_bands before calling an iterative solver
          2135 MiB given to the printing process from OS
             0 MiB allocation reported by mallinfo(arena+hblkhd)
         12985 MiB available memory on the node where the printing process lives
------------------
     ethr =  8.58E-13,  avg # of iterations =  2.1

     total cpu time spent up to now is     1024.3 secs

     End of self-consistent calculation

          k = 0.0000 0.0000 0.0000 ( 11937 PWs)   bands (ev):

   -83.5973 -52.8241 -52.7489 -52.7489 -27.0904 -26.9918 -24.3252 -22.7399
   -15.6387 -12.7323 -10.6319 -10.4762 -10.4762 -10.4264 -10.4263  -9.9288
    -9.9288  -8.5156  -8.5152  -8.4990  -6.4019  -2.7080  -2.7077  -2.4850
    -2.4848  -0.2256   0.1056   2.3463   2.3795   2.4909   4.0078   4.0078
     4.0647   4.0647   4.2521

     occupation numbers 
     1.0000   1.0000   1.0000   1.0000   1.0000   1.0000   1.0000   1.0000
     1.0000   1.0000   1.0000   1.0000   1.0000   1.0000   1.0000   1.0000
     1.0000   1.0000   1.0000   1.0000   1.0000   0.0000   0.0000   0.0000
     0.0000   0.0000   0.0000   0.0000   0.0000   0.0000   0.0000   0.0000
     0.0000   0.0000   0.0000

          k = 0.0000 0.1443 0.0000 ( 11905 PWs)   bands (ev):

   -83.6115 -52.9235 -52.7932 -52.7467 -26.7866 -26.6916 -24.0912 -22.6228
   -15.3876 -12.6049 -11.5965 -11.5327 -10.6946 -10.6647 -10.5466 -10.2669
    -9.7771  -8.9172  -8.7804  -8.3135  -6.5070  -2.9486  -2.7750  -2.7558
    -2.4148   0.5017   0.7267   2.4376   2.4887   3.0497   3.2392   3.5238
     4.6721   4.7380   5.1272

     occupation numbers 
     1.0000   1.0000   1.0000   1.0000   1.0000   1.0000   1.0000   1.0000
     1.0000   1.0000   1.0000   1.0000   1.0000   1.0000   1.0000   1.0000
     1.0000   1.0000   1.0000   1.0000   1.0000   0.0000   0.0000   0.0000
     0.0000   0.0000   0.0000   0.0000   0.0000   0.0000   0.0000   0.0000
     0.0000   0.0000   0.0000

          k = 0.0000 0.2887 0.0000 ( 11885 PWs)   bands (ev):

   -83.6215 -53.1509 -52.8583 -52.6842 -25.9816 -25.9007 -23.5324 -22.3447
   -15.0354 -13.8390 -13.4742 -12.2985 -11.5515 -11.2226 -11.2107  -9.9302
    -9.6496  -9.3738  -9.2779  -8.5123  -6.9034  -3.5003  -3.2925  -2.4996
    -1.8866   0.1104   0.2944   2.4264   2.5697   3.4876   3.9923   5.0888
     5.8999   6.1044   6.2853

     occupation numbers 
     1.0000   1.0000   1.0000   1.0000   1.0000   1.0000   1.0000   1.0000
     1.0000   1.0000   1.0000   1.0000   1.0000   1.0000   1.0000   1.0000
     1.0000   1.0000   1.0000   1.0000   1.0000   0.0000   0.0000   0.0000
     0.0000   0.0000   0.0000   0.0000   0.0000   0.0000   0.0000   0.0000
     0.0000   0.0000   0.0000

          k = 0.0000 0.4330 0.0000 ( 11860 PWs)   bands (ev):

   -83.6182 -53.2397 -52.8731 -52.7675 -24.9064 -24.8514 -22.9976 -22.1213
   -16.2471 -15.9337 -13.8374 -12.6024 -12.0733 -11.7484 -11.7147 -10.4152
    -9.8426  -9.4703  -8.7156  -8.6991  -7.0976  -3.9456  -3.6767  -2.2764
    -1.5057  -1.2875  -0.7908   2.4267   2.9862   4.0166   4.2951   5.7830
     6.4093   6.6103   7.1573

     occupation numbers 
     1.0000   1.0000   1.0000   1.0000   1.0000   1.0000   1.0000   1.0000
     1.0000   1.0000   1.0000   1.0000   1.0000   1.0000   1.0000   1.0000
     1.0000   1.0000   1.0000   1.0000   1.0000   0.0000   0.0000   0.0000
     0.0000   0.0000   0.0000   0.0000   0.0000   0.0000   0.0000   0.0000
     0.0000   0.0000   0.0000

          k = 0.0000-0.5774 0.0000 ( 11846 PWs)   bands (ev):

   -83.6117 -53.2216 -52.8668 -52.8615 -24.2415 -24.2128 -22.8658 -22.1328
   -17.1630 -16.8881 -13.5675 -13.0606 -12.1845 -11.9718 -11.9312 -10.6157
   -10.0428  -9.2277  -8.7588  -8.4472  -7.2157  -3.9744  -3.7525  -2.4129
    -1.9084  -1.3777  -1.0827   2.1407   2.7550   4.4201   5.1152   5.8197
     6.1742   6.5149   7.2515

     occupation numbers 
     1.0000   1.0000   1.0000   1.0000   1.0000   1.0000   1.0000   1.0000
     1.0000   1.0000   1.0000   1.0000   1.0000   1.0000   1.0000   1.0000
     1.0000   1.0000   1.0000   1.0000   1.0000   0.0000   0.0000   0.0000
     0.0000   0.0000   0.0000   0.0000   0.0000   0.0000   0.0000   0.0000
     0.0000   0.0000   0.0000

          k = 0.1250 0.2165 0.0000 ( 11867 PWs)   bands (ev):

   -83.6163 -53.0911 -52.8698 -52.6525 -26.2333 -26.1467 -23.7004 -22.4293
   -15.0517 -13.0843 -12.8553 -12.3002 -11.6100 -11.3094 -10.9257  -9.9782
    -9.6613  -9.5508  -9.0279  -8.3690  -6.7831  -3.3399  -3.1485  -2.7381
    -1.9394   1.0420   1.2282   2.0114   2.0255   3.4862   3.6379   4.0471
     5.0891   5.7017   6.4659

     occupation numbers 
     1.0000   1.0000   1.0000   1.0000   1.0000   1.0000   1.0000   1.0000
     1.0000   1.0000   1.0000   1.0000   1.0000   1.0000   1.0000   1.0000
     1.0000   1.0000   1.0000   1.0000   1.0000   0.0000   0.0000   0.0000
     0.0000   0.0000   0.0000   0.0000   0.0000   0.0000   0.0000   0.0000
     0.0000   0.0000   0.0000

          k = 0.1250 0.3608 0.0000 ( 11871 PWs)   bands (ev):

   -83.6190 -53.1989 -52.9589 -52.6646 -25.2735 -25.2063 -23.1453 -22.1678
   -15.4523 -14.9666 -13.7885 -12.5747 -12.2983 -11.9900 -11.6107 -10.6003
    -9.6696  -9.3420  -9.0956  -8.6403  -7.1349  -3.7520  -3.5167  -2.3881
    -1.6258   0.1335   0.3633   2.6644   2.7374   3.7910   4.1820   5.1188
     5.7485   6.1921   6.6264

     occupation numbers 
     1.0000   1.0000   1.0000   1.0000   1.0000   1.0000   1.0000   1.0000
     1.0000   1.0000   1.0000   1.0000   1.0000   1.0000   1.0000   1.0000
     1.0000   1.0000   1.0000   1.0000   1.0000   0.0000   0.0000   0.0000
     0.0000   0.0000   0.0000   0.0000   0.0000   0.0000   0.0000   0.0000
     0.0000   0.0000   0.0000

          k = 0.1250 0.5052 0.0000 ( 11841 PWs)   bands (ev):

   -83.6203 -53.2183 -52.9764 -52.7830 -24.2840 -24.2462 -22.8332 -22.0847
   -16.7297 -16.4424 -13.6198 -13.1151 -12.7167 -12.3323 -12.0480 -10.8145
    -9.9248  -9.2760  -9.0808  -8.5537  -7.1782  -4.0996  -3.5242  -2.1210
    -1.7803  -0.7331  -0.3518   2.7277   3.2478   3.9476   4.3477   5.3724
     6.2298   6.3104   7.0492

     occupation numbers 
     1.0000   1.0000   1.0000   1.0000   1.0000   1.0000   1.0000   1.0000
     1.0000   1.0000   1.0000   1.0000   1.0000   1.0000   1.0000   1.0000
     1.0000   1.0000   1.0000   1.0000   1.0000   0.0000   0.0000   0.0000
     0.0000   0.0000   0.0000   0.0000   0.0000   0.0000   0.0000   0.0000
     0.0000   0.0000   0.0000

          k = 0.2500 0.4330 0.0000 ( 11844 PWs)   bands (ev):

   -83.6261 -53.1892 -53.0920 -52.7136 -24.3275 -24.2823 -22.8065 -22.0419
   -16.1295 -15.7840 -14.0083 -13.8026 -13.2937 -11.9959 -11.8482 -11.2021
   -10.0904  -9.5846  -9.0477  -8.5345  -7.2228  -4.0763  -3.4190  -2.1889
    -1.6897   0.4997   0.7291   2.6189   3.0254   4.4514   4.7096   5.0785
     5.4731   6.1207   6.8769

     occupation numbers 
     1.0000   1.0000   1.0000   1.0000   1.0000   1.0000   1.0000   1.0000
     1.0000   1.0000   1.0000   1.0000   1.0000   1.0000   1.0000   1.0000
     1.0000   1.0000   1.0000   1.0000   1.0000   0.0000   0.0000   0.0000
     0.0000   0.0000   0.0000   0.0000   0.0000   0.0000   0.0000   0.0000
     0.0000   0.0000   0.0000

          k = 0.2500 0.5774 0.0000 ( 11800 PWs)   bands (ev):

   -83.6194 -53.1992 -53.1226 -52.6987 -23.7861 -23.7543 -22.7567 -22.0628
   -16.3809 -16.0504 -14.6508 -14.5221 -12.8103 -12.3769 -12.1258 -10.8446
   -10.5918 -10.0014  -8.9855  -8.3462  -6.9063  -4.4955  -3.2277  -2.0793
    -1.7917   0.2839   0.6743   2.8405   3.2787   4.3299   4.7366   5.2528
     5.8499   6.3452   6.4413

     occupation numbers 
     1.0000   1.0000   1.0000   1.0000   1.0000   1.0000   1.0000   1.0000
     1.0000   1.0000   1.0000   1.0000   1.0000   1.0000   1.0000   1.0000
     1.0000   1.0000   1.0000   1.0000   1.0000   0.0000   0.0000   0.0000
     0.0000   0.0000   0.0000   0.0000   0.0000   0.0000   0.0000   0.0000
     0.0000   0.0000   0.0000

          k =-0.1250 0.0722 0.0000 ( 11905 PWs)   bands (ev):

   -83.6115 -52.9236 -52.7932 -52.7467 -26.7866 -26.6916 -24.0912 -22.6228
   -15.3876 -12.6049 -11.5965 -11.5327 -10.6945 -10.6646 -10.5466 -10.2669
    -9.7771  -8.9174  -8.7802  -8.3135  -6.5071  -2.9487  -2.7749  -2.7557
    -2.4150   0.5017   0.7267   2.4376   2.4887   3.0497   3.2392   3.5238
     4.6721   4.7381   5.1273

     occupation numbers 
     1.0000   1.0000   1.0000   1.0000   1.0000   1.0000   1.0000   1.0000
     1.0000   1.0000   1.0000   1.0000   1.0000   1.0000   1.0000   1.0000
     1.0000   1.0000   1.0000   1.0000   1.0000   0.0000   0.0000   0.0000
     0.0000   0.0000   0.0000   0.0000   0.0000   0.0000   0.0000   0.0000
     0.0000   0.0000   0.0000

          k = 0.1250 0.0722 0.0000 ( 11905 PWs)   bands (ev):

   -83.6115 -52.9235 -52.7932 -52.7467 -26.7866 -26.6916 -24.0912 -22.6228
   -15.3876 -12.6049 -11.5964 -11.5327 -10.6946 -10.6647 -10.5466 -10.2669
    -9.7771  -8.9172  -8.7804  -8.3135  -6.5071  -2.9486  -2.7750  -2.7558
    -2.4148   0.5017   0.7267   2.4376   2.4887   3.0497   3.2392   3.5238
     4.6721   4.7380   5.1272

     occupation numbers 
     1.0000   1.0000   1.0000   1.0000   1.0000   1.0000   1.0000   1.0000
     1.0000   1.0000   1.0000   1.0000   1.0000   1.0000   1.0000   1.0000
     1.0000   1.0000   1.0000   1.0000   1.0000   0.0000   0.0000   0.0000
     0.0000   0.0000   0.0000   0.0000   0.0000   0.0000   0.0000   0.0000
     0.0000   0.0000   0.0000

          k =-0.2500 0.1443 0.0000 ( 11885 PWs)   bands (ev):

   -83.6215 -53.1509 -52.8583 -52.6842 -25.9816 -25.9007 -23.5324 -22.3447
   -15.0354 -13.8390 -13.4742 -12.2985 -11.5515 -11.2225 -11.2106  -9.9302
    -9.6496  -9.3737  -9.2778  -8.5123  -6.9035  -3.5003  -3.2924  -2.4995
    -1.8867   0.1104   0.2944   2.4265   2.5697   3.4875   3.9922   5.0888
     5.8999   6.1044   6.2854

     occupation numbers 
     1.0000   1.0000   1.0000   1.0000   1.0000   1.0000   1.0000   1.0000
     1.0000   1.0000   1.0000   1.0000   1.0000   1.0000   1.0000   1.0000
     1.0000   1.0000   1.0000   1.0000   1.0000   0.0000   0.0000   0.0000
     0.0000   0.0000   0.0000   0.0000   0.0000   0.0000   0.0000   0.0000
     0.0000   0.0000   0.0000

          k = 0.2500 0.1443 0.0000 ( 11885 PWs)   bands (ev):

   -83.6215 -53.1509 -52.8583 -52.6842 -25.9816 -25.9007 -23.5324 -22.3447
   -15.0354 -13.8390 -13.4742 -12.2984 -11.5515 -11.2226 -11.2107  -9.9302
    -9.6495  -9.3738  -9.2779  -8.5123  -6.9034  -3.5003  -3.2925  -2.4996
    -1.8866   0.1104   0.2944   2.4264   2.5697   3.4875   3.9922   5.0888
     5.8999   6.1043   6.2853

     occupation numbers 
     1.0000   1.0000   1.0000   1.0000   1.0000   1.0000   1.0000   1.0000
     1.0000   1.0000   1.0000   1.0000   1.0000   1.0000   1.0000   1.0000
     1.0000   1.0000   1.0000   1.0000   1.0000   0.0000   0.0000   0.0000
     0.0000   0.0000   0.0000   0.0000   0.0000   0.0000   0.0000   0.0000
     0.0000   0.0000   0.0000

          k =-0.3750 0.2165 0.0000 ( 11860 PWs)   bands (ev):

   -83.6182 -53.2397 -52.8731 -52.7675 -24.9064 -24.8514 -22.9976 -22.1214
   -16.2471 -15.9337 -13.8374 -12.6025 -12.0733 -11.7483 -11.7146 -10.4152
    -9.8425  -9.4702  -8.7155  -8.6992  -7.0977  -3.9457  -3.6767  -2.2764
    -1.5057  -1.2875  -0.7907   2.4267   2.9861   4.0165   4.2950   5.7831
     6.4093   6.6103   7.1574

     occupation numbers 
     1.0000   1.0000   1.0000   1.0000   1.0000   1.0000   1.0000   1.0000
     1.0000   1.0000   1.0000   1.0000   1.0000   1.0000   1.0000   1.0000
     1.0000   1.0000   1.0000   1.0000   1.0000   0.0000   0.0000   0.0000
     0.0000   0.0000   0.0000   0.0000   0.0000   0.0000   0.0000   0.0000
     0.0000   0.0000   0.0000

          k = 0.3750 0.2165 0.0000 ( 11860 PWs)   bands (ev):

   -83.6182 -53.2397 -52.8731 -52.7675 -24.9064 -24.8514 -22.9976 -22.1213
   -16.2471 -15.9337 -13.8374 -12.6024 -12.0733 -11.7484 -11.7147 -10.4153
    -9.8426  -9.4703  -8.7155  -8.6991  -7.0976  -3.9457  -3.6767  -2.2764
    -1.5057  -1.2875  -0.7907   2.4267   2.9862   4.0165   4.2950   5.7830
     6.4094   6.6103   7.1573

     occupation numbers 
     1.0000   1.0000   1.0000   1.0000   1.0000   1.0000   1.0000   1.0000
     1.0000   1.0000   1.0000   1.0000   1.0000   1.0000   1.0000   1.0000
     1.0000   1.0000   1.0000   1.0000   1.0000   0.0000   0.0000   0.0000
     0.0000   0.0000   0.0000   0.0000   0.0000   0.0000   0.0000   0.0000
     0.0000   0.0000   0.0000

          k = 0.5000-0.2887 0.0000 ( 11846 PWs)   bands (ev):

   -83.6117 -53.2216 -52.8668 -52.8615 -24.2415 -24.2128 -22.8657 -22.1328
   -17.1630 -16.8881 -13.5676 -13.0605 -12.1845 -11.9717 -11.9312 -10.6157
   -10.0427  -9.2277  -8.7588  -8.4471  -7.2157  -3.9744  -3.7526  -2.4129
    -1.9084  -1.3778  -1.0827   2.1407   2.7549   4.4201   5.1151   5.8197
     6.1741   6.5149   7.2515

     occupation numbers 
     1.0000   1.0000   1.0000   1.0000   1.0000   1.0000   1.0000   1.0000
     1.0000   1.0000   1.0000   1.0000   1.0000   1.0000   1.0000   1.0000
     1.0000   1.0000   1.0000   1.0000   1.0000   0.0000   0.0000   0.0000
     0.0000   0.0000   0.0000   0.0000   0.0000   0.0000   0.0000   0.0000
     0.0000   0.0000   0.0000

          k =-0.5000-0.2887 0.0000 ( 11846 PWs)   bands (ev):

   -83.6117 -53.2216 -52.8668 -52.8615 -24.2415 -24.2128 -22.8657 -22.1328
   -17.1630 -16.8881 -13.5675 -13.0605 -12.1845 -11.9718 -11.9312 -10.6157
   -10.0428  -9.2277  -8.7588  -8.4472  -7.2157  -3.9744  -3.7525  -2.4129
    -1.9084  -1.3777  -1.0827   2.1407   2.7549   4.4201   5.1152   5.8197
     6.1742   6.5149   7.2515

     occupation numbers 
     1.0000   1.0000   1.0000   1.0000   1.0000   1.0000   1.0000   1.0000
     1.0000   1.0000   1.0000   1.0000   1.0000   1.0000   1.0000   1.0000
     1.0000   1.0000   1.0000   1.0000   1.0000   0.0000   0.0000   0.0000
     0.0000   0.0000   0.0000   0.0000   0.0000   0.0000   0.0000   0.0000
     0.0000   0.0000   0.0000

          k =-0.1250 0.2165 0.0000 ( 11867 PWs)   bands (ev):

   -83.6163 -53.0911 -52.8698 -52.6525 -26.2333 -26.1467 -23.7004 -22.4293
   -15.0517 -13.0844 -12.8554 -12.3003 -11.6099 -11.3093 -10.9257  -9.9782
    -9.6612  -9.5507  -9.0280  -8.3690  -6.7832  -3.3399  -3.1486  -2.7381
    -1.9394   1.0420   1.2282   2.0114   2.0255   3.4862   3.6379   4.0471
     5.0891   5.7017   6.4659

     occupation numbers 
     1.0000   1.0000   1.0000   1.0000   1.0000   1.0000   1.0000   1.0000
     1.0000   1.0000   1.0000   1.0000   1.0000   1.0000   1.0000   1.0000
     1.0000   1.0000   1.0000   1.0000   1.0000   0.0000   0.0000   0.0000
     0.0000   0.0000   0.0000   0.0000   0.0000   0.0000   0.0000   0.0000
     0.0000   0.0000   0.0000

          k = 0.2500-0.0000 0.0000 ( 11867 PWs)   bands (ev):

   -83.6163 -53.0911 -52.8698 -52.6525 -26.2333 -26.1467 -23.7004 -22.4293
   -15.0517 -13.0844 -12.8554 -12.3003 -11.6099 -11.3093 -10.9257  -9.9782
    -9.6612  -9.5507  -9.0280  -8.3690  -6.7832  -3.3399  -3.1486  -2.7381
    -1.9394   1.0420   1.2282   2.0114   2.0255   3.4862   3.6379   4.0471
     5.0890   5.7017   6.4660

     occupation numbers 
     1.0000   1.0000   1.0000   1.0000   1.0000   1.0000   1.0000   1.0000
     1.0000   1.0000   1.0000   1.0000   1.0000   1.0000   1.0000   1.0000
     1.0000   1.0000   1.0000   1.0000   1.0000   0.0000   0.0000   0.0000
     0.0000   0.0000   0.0000   0.0000   0.0000   0.0000   0.0000   0.0000
     0.0000   0.0000   0.0000

          k =-0.1250 0.3608 0.0000 ( 11871 PWs)   bands (ev):

   -83.6190 -53.1989 -52.9589 -52.6646 -25.2735 -25.2063 -23.1453 -22.1678
   -15.4523 -14.9666 -13.7885 -12.5747 -12.2983 -11.9900 -11.6107 -10.6003
    -9.6696  -9.3420  -9.0956  -8.6403  -7.1350  -3.7520  -3.5168  -2.3881
    -1.6257   0.1335   0.3633   2.6644   2.7374   3.7910   4.1820   5.1188
     5.7485   6.1921   6.6264

     occupation numbers 
     1.0000   1.0000   1.0000   1.0000   1.0000   1.0000   1.0000   1.0000
     1.0000   1.0000   1.0000   1.0000   1.0000   1.0000   1.0000   1.0000
     1.0000   1.0000   1.0000   1.0000   1.0000   0.0000   0.0000   0.0000
     0.0000   0.0000   0.0000   0.0000   0.0000   0.0000   0.0000   0.0000
     0.0000   0.0000   0.0000

          k =-0.2500 0.2887 0.0000 ( 11871 PWs)   bands (ev):

   -83.6190 -53.1989 -52.9589 -52.6646 -25.2735 -25.2063 -23.1453 -22.1678
   -15.4523 -14.9666 -13.7885 -12.5747 -12.2982 -11.9900 -11.6107 -10.6002
    -9.6696  -9.3419  -9.0955  -8.6404  -7.1350  -3.7520  -3.5168  -2.3881
    -1.6257   0.1335   0.3633   2.6645   2.7374   3.7909   4.1820   5.1188
     5.7485   6.1921   6.6264

     occupation numbers 
     1.0000   1.0000   1.0000   1.0000   1.0000   1.0000   1.0000   1.0000
     1.0000   1.0000   1.0000   1.0000   1.0000   1.0000   1.0000   1.0000
     1.0000   1.0000   1.0000   1.0000   1.0000   0.0000   0.0000   0.0000
     0.0000   0.0000   0.0000   0.0000   0.0000   0.0000   0.0000   0.0000
     0.0000   0.0000   0.0000

          k = 0.3750 0.0722 0.0000 ( 11871 PWs)   bands (ev):

   -83.6190 -53.1989 -52.9589 -52.6646 -25.2735 -25.2063 -23.1453 -22.1678
   -15.4523 -14.9666 -13.7885 -12.5747 -12.2983 -11.9900 -11.6107 -10.6003
    -9.6696  -9.3420  -9.0956  -8.6403  -7.1350  -3.7520  -3.5168  -2.3881
    -1.6257   0.1335   0.3633   2.6644   2.7374   3.7910   4.1820   5.1188
     5.7484   6.1921   6.6264

     occupation numbers 
     1.0000   1.0000   1.0000   1.0000   1.0000   1.0000   1.0000   1.0000
     1.0000   1.0000   1.0000   1.0000   1.0000   1.0000   1.0000   1.0000
     1.0000   1.0000   1.0000   1.0000   1.0000   0.0000   0.0000   0.0000
     0.0000   0.0000   0.0000   0.0000   0.0000   0.0000   0.0000   0.0000
     0.0000   0.0000   0.0000

          k =-0.2500-0.2887 0.0000 ( 11871 PWs)   bands (ev):

   -83.6190 -53.1989 -52.9589 -52.6646 -25.2735 -25.2063 -23.1453 -22.1678
   -15.4523 -14.9666 -13.7885 -12.5747 -12.2983 -11.9900 -11.6107 -10.6003
    -9.6696  -9.3420  -9.0956  -8.6403  -7.1349  -3.7520  -3.5167  -2.3881
    -1.6258   0.1335   0.3633   2.6645   2.7374   3.7909   4.1820   5.1188
     5.7485   6.1921   6.6265

     occupation numbers 
     1.0000   1.0000   1.0000   1.0000   1.0000   1.0000   1.0000   1.0000
     1.0000   1.0000   1.0000   1.0000   1.0000   1.0000   1.0000   1.0000
     1.0000   1.0000   1.0000   1.0000   1.0000   0.0000   0.0000   0.0000
     0.0000   0.0000   0.0000   0.0000   0.0000   0.0000   0.0000   0.0000
     0.0000   0.0000   0.0000

          k = 0.3750-0.0722 0.0000 ( 11871 PWs)   bands (ev):

   -83.6190 -53.1989 -52.9589 -52.6646 -25.2735 -25.2063 -23.1453 -22.1678
   -15.4523 -14.9666 -13.7885 -12.5747 -12.2983 -11.9900 -11.6107 -10.6002
    -9.6696  -9.3419  -9.0955  -8.6404  -7.1350  -3.7520  -3.5168  -2.3881
    -1.6257   0.1335   0.3633   2.6645   2.7374   3.7910   4.1820   5.1188
     5.7484   6.1921   6.6264

     occupation numbers 
     1.0000   1.0000   1.0000   1.0000   1.0000   1.0000   1.0000   1.0000
     1.0000   1.0000   1.0000   1.0000   1.0000   1.0000   1.0000   1.0000
     1.0000   1.0000   1.0000   1.0000   1.0000   0.0000   0.0000   0.0000
     0.0000   0.0000   0.0000   0.0000   0.0000   0.0000   0.0000   0.0000
     0.0000   0.0000   0.0000

          k =-0.1250 0.5052 0.0000 ( 11841 PWs)   bands (ev):

   -83.6203 -53.2183 -52.9764 -52.7830 -24.2840 -24.2462 -22.8332 -22.0847
   -16.7297 -16.4424 -13.6198 -13.1151 -12.7167 -12.3323 -12.0480 -10.8146
    -9.9248  -9.2760  -9.0808  -8.5537  -7.1783  -4.0996  -3.5242  -2.1211
    -1.7802  -0.7331  -0.3518   2.7277   3.2478   3.9477   4.3476   5.3725
     6.2298   6.3103   7.0492

     occupation numbers 
     1.0000   1.0000   1.0000   1.0000   1.0000   1.0000   1.0000   1.0000
     1.0000   1.0000   1.0000   1.0000   1.0000   1.0000   1.0000   1.0000
     1.0000   1.0000   1.0000   1.0000   1.0000   0.0000   0.0000   0.0000
     0.0000   0.0000   0.0000   0.0000   0.0000   0.0000   0.0000   0.0000
     0.0000   0.0000   0.0000

          k =-0.3750 0.3608 0.0000 ( 11841 PWs)   bands (ev):

   -83.6203 -53.2183 -52.9764 -52.7830 -24.2840 -24.2462 -22.8331 -22.0847
   -16.7297 -16.4425 -13.6198 -13.1151 -12.7166 -12.3323 -12.0480 -10.8145
    -9.9247  -9.2759  -9.0808  -8.5538  -7.1783  -4.0996  -3.5242  -2.1210
    -1.7802  -0.7332  -0.3518   2.7278   3.2478   3.9477   4.3476   5.3724
     6.2298   6.3103   7.0497

     occupation numbers 
     1.0000   1.0000   1.0000   1.0000   1.0000   1.0000   1.0000   1.0000
     1.0000   1.0000   1.0000   1.0000   1.0000   1.0000   1.0000   1.0000
     1.0000   1.0000   1.0000   1.0000   1.0000   0.0000   0.0000   0.0000
     0.0000   0.0000   0.0000   0.0000   0.0000   0.0000   0.0000   0.0000
     0.0000   0.0000   0.0000

          k = 0.5000 0.1443 0.0000 ( 11841 PWs)   bands (ev):

   -83.6203 -53.2183 -52.9764 -52.7830 -24.2840 -24.2462 -22.8331 -22.0847
   -16.7297 -16.4424 -13.6198 -13.1151 -12.7167 -12.3323 -12.0480 -10.8146
    -9.9248  -9.2760  -9.0808  -8.5538  -7.1783  -4.0996  -3.5242  -2.1211
    -1.7802  -0.7331  -0.3518   2.7277   3.2477   3.9477   4.3477   5.3725
     6.2298   6.3104   7.0496

     occupation numbers 
     1.0000   1.0000   1.0000   1.0000   1.0000   1.0000   1.0000   1.0000
     1.0000   1.0000   1.0000   1.0000   1.0000   1.0000   1.0000   1.0000
     1.0000   1.0000   1.0000   1.0000   1.0000   0.0000   0.0000   0.0000
     0.0000   0.0000   0.0000   0.0000   0.0000   0.0000   0.0000   0.0000
     0.0000   0.0000   0.0000

          k =-0.3750-0.3608 0.0000 ( 11841 PWs)   bands (ev):

   -83.6203 -53.2183 -52.9764 -52.7830 -24.2840 -24.2462 -22.8331 -22.0847
   -16.7297 -16.4424 -13.6198 -13.1151 -12.7167 -12.3323 -12.0480 -10.8145
    -9.9248  -9.2760  -9.0808  -8.5538  -7.1782  -4.0996  -3.5242  -2.1210
    -1.7803  -0.7332  -0.3518   2.7277   3.2478   3.9476   4.3476   5.3724
     6.2298   6.3104   7.0496

     occupation numbers 
     1.0000   1.0000   1.0000   1.0000   1.0000   1.0000   1.0000   1.0000
     1.0000   1.0000   1.0000   1.0000   1.0000   1.0000   1.0000   1.0000
     1.0000   1.0000   1.0000   1.0000   1.0000   0.0000   0.0000   0.0000
     0.0000   0.0000   0.0000   0.0000   0.0000   0.0000   0.0000   0.0000
     0.0000   0.0000   0.0000

          k = 0.5000-0.1443 0.0000 ( 11841 PWs)   bands (ev):

   -83.6203 -53.2183 -52.9764 -52.7830 -24.2840 -24.2462 -22.8331 -22.0847
   -16.7297 -16.4425 -13.6198 -13.1151 -12.7167 -12.3323 -12.0480 -10.8145
    -9.9248  -9.2759  -9.0808  -8.5538  -7.1783  -4.0996  -3.5242  -2.1210
    -1.7802  -0.7332  -0.3518   2.7278   3.2477   3.9477   4.3477   5.3725
     6.2298   6.3104   7.0496

     occupation numbers 
     1.0000   1.0000   1.0000   1.0000   1.0000   1.0000   1.0000   1.0000
     1.0000   1.0000   1.0000   1.0000   1.0000   1.0000   1.0000   1.0000
     1.0000   1.0000   1.0000   1.0000   1.0000   0.0000   0.0000   0.0000
     0.0000   0.0000   0.0000   0.0000   0.0000   0.0000   0.0000   0.0000
     0.0000   0.0000   0.0000

          k =-0.2500 0.4330 0.0000 ( 11844 PWs)   bands (ev):

   -83.6261 -53.1892 -53.0920 -52.7136 -24.3275 -24.2823 -22.8065 -22.0419
   -16.1295 -15.7841 -14.0083 -13.8026 -13.2937 -11.9959 -11.8482 -11.2021
   -10.0903  -9.5846  -9.0477  -8.5345  -7.2228  -4.0764  -3.4190  -2.1890
    -1.6896   0.4997   0.7291   2.6189   3.0254   4.4515   4.7096   5.0786
     5.4730   6.1208   6.8769

     occupation numbers 
     1.0000   1.0000   1.0000   1.0000   1.0000   1.0000   1.0000   1.0000
     1.0000   1.0000   1.0000   1.0000   1.0000   1.0000   1.0000   1.0000
     1.0000   1.0000   1.0000   1.0000   1.0000   0.0000   0.0000   0.0000
     0.0000   0.0000   0.0000   0.0000   0.0000   0.0000   0.0000   0.0000
     0.0000   0.0000   0.0000

          k = 0.5000-0.0000 0.0000 ( 11844 PWs)   bands (ev):

   -83.6261 -53.1892 -53.0920 -52.7136 -24.3275 -24.2823 -22.8065 -22.0419
   -16.1295 -15.7841 -14.0083 -13.8026 -13.2937 -11.9959 -11.8482 -11.2021
   -10.0903  -9.5846  -9.0477  -8.5345  -7.2228  -4.0764  -3.4190  -2.1890
    -1.6896   0.4997   0.7290   2.6189   3.0254   4.4515   4.7096   5.0786
     5.4731   6.1209   6.8767

     occupation numbers 
     1.0000   1.0000   1.0000   1.0000   1.0000   1.0000   1.0000   1.0000
     1.0000   1.0000   1.0000   1.0000   1.0000   1.0000   1.0000   1.0000
     1.0000   1.0000   1.0000   1.0000   1.0000   0.0000   0.0000   0.0000
     0.0000   0.0000   0.0000   0.0000   0.0000   0.0000   0.0000   0.0000
     0.0000   0.0000   0.0000

          k =-0.3750 0.5052 0.0000 ( 11800 PWs)   bands (ev):

   -83.6194 -53.1992 -53.1226 -52.6987 -23.7861 -23.7543 -22.7567 -22.0628
   -16.3809 -16.0504 -14.6507 -14.5220 -12.8103 -12.3769 -12.1258 -10.8445
   -10.5917 -10.0014  -8.9855  -8.3462  -6.9063  -4.4955  -3.2277  -2.0794
    -1.7916   0.2839   0.6742   2.8405   3.2787   4.3299   4.7366   5.2528
     5.8497   6.3453   6.4414

     occupation numbers 
     1.0000   1.0000   1.0000   1.0000   1.0000   1.0000   1.0000   1.0000
     1.0000   1.0000   1.0000   1.0000   1.0000   1.0000   1.0000   1.0000
     1.0000   1.0000   1.0000   1.0000   1.0000   0.0000   0.0000   0.0000
     0.0000   0.0000   0.0000   0.0000   0.0000   0.0000   0.0000   0.0000
     0.0000   0.0000   0.0000

          k = 0.6250 0.0722 0.0000 ( 11800 PWs)   bands (ev):

   -83.6194 -53.1992 -53.1226 -52.6987 -23.7861 -23.7543 -22.7567 -22.0628
   -16.3809 -16.0504 -14.6508 -14.5221 -12.8103 -12.3769 -12.1258 -10.8446
   -10.5918 -10.0014  -8.9855  -8.3462  -6.9063  -4.4955  -3.2277  -2.0793
    -1.7917   0.2838   0.6743   2.8405   3.2788   4.3299   4.7366   5.2528
     5.8498   6.3453   6.4413

     occupation numbers 
     1.0000   1.0000   1.0000   1.0000   1.0000   1.0000   1.0000   1.0000
     1.0000   1.0000   1.0000   1.0000   1.0000   1.0000   1.0000   1.0000
     1.0000   1.0000   1.0000   1.0000   1.0000   0.0000   0.0000   0.0000
     0.0000   0.0000   0.0000   0.0000   0.0000   0.0000   0.0000   0.0000
     0.0000   0.0000   0.0000

     highest occupied, lowest unoccupied level (ev):    -6.4019   -4.4955

!    total energy              =    -263.20983346 Ry
     estimated scf accuracy    <          9.9E-11 Ry

     convergence has been achieved in   9 iterations

     Using ACE for calculation of exact exchange
     ACE projected onto    35 (nbndproj) and applied to    35 (nbnd) bands

     total energy              =    -263.21012319 Ry
     Harris-Foulkes estimate   =    -263.21012319 Ry
     est. exchange err (dexx)  =       0.00028973 Ry
     - averaged Fock potential =      17.82701306 Ry
     + Fock energy (ACE)       =      -8.91530905 Ry

     EXX: now go back to refine exchange calculation

     total cpu time spent up to now is     1367.8 secs

     Self-consistent Calculation

     iteration #  1     ecut=    80.00 Ry     beta= 0.50
     Davidson diagonalization with overlap

---- Real-time Memory Report at c_bands before calling an iterative solver
          2135 MiB given to the printing process from OS
             0 MiB allocation reported by mallinfo(arena+hblkhd)
         13015 MiB available memory on the node where the printing process lives
------------------
     ethr =  8.58E-13,  avg # of iterations =  9.1

     total cpu time spent up to now is     1388.8 secs

     total energy              =    -263.21027932 Ry
     estimated scf accuracy    <       0.00006714 Ry

     iteration #  2     ecut=    80.00 Ry     beta= 0.50
     Davidson diagonalization with overlap

---- Real-time Memory Report at c_bands before calling an iterative solver
          2135 MiB given to the printing process from OS
             0 MiB allocation reported by mallinfo(arena+hblkhd)
         12985 MiB available memory on the node where the printing process lives
------------------
     ethr =  1.60E-07,  avg # of iterations =  2.1

     total cpu time spent up to now is     1395.9 secs

     total energy              =    -263.21028656 Ry
     estimated scf accuracy    <       0.00000447 Ry

     iteration #  3     ecut=    80.00 Ry     beta= 0.50
     Davidson diagonalization with overlap

---- Real-time Memory Report at c_bands before calling an iterative solver
          2135 MiB given to the printing process from OS
             0 MiB allocation reported by mallinfo(arena+hblkhd)
         12976 MiB available memory on the node where the printing process lives
------------------
     ethr =  1.06E-08,  avg # of iterations =  2.0

     total cpu time spent up to now is     1403.4 secs

     total energy              =    -263.21028609 Ry
     estimated scf accuracy    <       0.00001383 Ry

     iteration #  4     ecut=    80.00 Ry     beta= 0.50
     Davidson diagonalization with overlap

---- Real-time Memory Report at c_bands before calling an iterative solver
          2135 MiB given to the printing process from OS
             0 MiB allocation reported by mallinfo(arena+hblkhd)
         12975 MiB available memory on the node where the printing process lives
------------------
     ethr =  1.06E-08,  avg # of iterations =  2.0

     total cpu time spent up to now is     1410.4 secs

     total energy              =    -263.21028796 Ry
     estimated scf accuracy    <       0.00000054 Ry

     iteration #  5     ecut=    80.00 Ry     beta= 0.50
     Davidson diagonalization with overlap

---- Real-time Memory Report at c_bands before calling an iterative solver
          2135 MiB given to the printing process from OS
             0 MiB allocation reported by mallinfo(arena+hblkhd)
         12975 MiB available memory on the node where the printing process lives
------------------
     ethr =  1.29E-09,  avg # of iterations =  2.0

     total cpu time spent up to now is     1417.6 secs

     total energy              =    -263.21028799 Ry
     estimated scf accuracy    <       0.00000058 Ry

     iteration #  6     ecut=    80.00 Ry     beta= 0.50
     Davidson diagonalization with overlap

---- Real-time Memory Report at c_bands before calling an iterative solver
          2135 MiB given to the printing process from OS
             0 MiB allocation reported by mallinfo(arena+hblkhd)
         12970 MiB available memory on the node where the printing process lives
------------------
     ethr =  1.29E-09,  avg # of iterations =  2.0

     total cpu time spent up to now is     1424.7 secs

     total energy              =    -263.21028809 Ry
     estimated scf accuracy    <       0.00000012 Ry

     iteration #  7     ecut=    80.00 Ry     beta= 0.50
     Davidson diagonalization with overlap

---- Real-time Memory Report at c_bands before calling an iterative solver
          2135 MiB given to the printing process from OS
             0 MiB allocation reported by mallinfo(arena+hblkhd)
         12964 MiB available memory on the node where the printing process lives
------------------
     ethr =  2.81E-10,  avg # of iterations =  1.0

     total cpu time spent up to now is     1430.9 secs

     total energy              =    -263.21028810 Ry
     estimated scf accuracy    <          8.4E-10 Ry

     iteration #  8     ecut=    80.00 Ry     beta= 0.50
     Davidson diagonalization with overlap

---- Real-time Memory Report at c_bands before calling an iterative solver
          2135 MiB given to the printing process from OS
             0 MiB allocation reported by mallinfo(arena+hblkhd)
         12964 MiB available memory on the node where the printing process lives
------------------
     ethr =  1.99E-12,  avg # of iterations =  2.5

     total cpu time spent up to now is     1438.9 secs

     End of self-consistent calculation

          k = 0.0000 0.0000 0.0000 ( 11937 PWs)   bands (ev):

   -83.5959 -52.8322 -52.7434 -52.7434 -27.0888 -26.9905 -24.3224 -22.7359
   -15.6412 -12.7299 -10.6379 -10.4761 -10.4760 -10.4278 -10.4277  -9.9188
    -9.9188  -8.5057  -8.5054  -8.4966  -6.4776  -2.6942  -2.6940  -2.4655
    -2.4653  -0.2234   0.1086   2.3479   2.3812   2.4955   4.0113   4.0113
     4.0672   4.0672   4.2561

     occupation numbers 
     1.0000   1.0000   1.0000   1.0000   1.0000   1.0000   1.0000   1.0000
     1.0000   1.0000   1.0000   1.0000   1.0000   1.0000   1.0000   1.0000
     1.0000   1.0000   1.0000   1.0000   1.0000   0.0000   0.0000   0.0000
     0.0000   0.0000   0.0000   0.0000   0.0000   0.0000   0.0000   0.0000
     0.0000   0.0000   0.0000

          k = 0.0000 0.1443 0.0000 ( 11905 PWs)   bands (ev):

   -83.6087 -52.9282 -52.7849 -52.7397 -26.7850 -26.6905 -24.0881 -22.6180
   -15.3890 -12.6029 -11.5959 -11.5325 -10.6945 -10.6655 -10.5458 -10.2685
    -9.7680  -8.9085  -8.7701  -8.3102  -6.5450  -2.9434  -2.7586  -2.7380
    -2.4018   0.5039   0.7291   2.4387   2.4903   3.0519   3.2411   3.5257
     4.6749   4.7393   5.1303

     occupation numbers 
     1.0000   1.0000   1.0000   1.0000   1.0000   1.0000   1.0000   1.0000
     1.0000   1.0000   1.0000   1.0000   1.0000   1.0000   1.0000   1.0000
     1.0000   1.0000   1.0000   1.0000   1.0000   0.0000   0.0000   0.0000
     0.0000   0.0000   0.0000   0.0000   0.0000   0.0000   0.0000   0.0000
     0.0000   0.0000   0.0000

          k = 0.0000 0.2887 0.0000 ( 11885 PWs)   bands (ev):

   -83.6191 -53.1685 -52.8506 -52.6653 -25.9799 -25.8995 -23.5284 -22.3389
   -15.0347 -13.8376 -13.4734 -12.2951 -11.5554 -11.2218 -11.2111  -9.9317
    -9.6444  -9.3643  -9.2685  -8.5075  -6.9088  -3.5227  -3.2762  -2.4799
    -1.8740   0.1121   0.2981   2.4277   2.5709   3.4897   3.9946   5.0897
     5.9010   6.1068   6.2869

     occupation numbers 
     1.0000   1.0000   1.0000   1.0000   1.0000   1.0000   1.0000   1.0000
     1.0000   1.0000   1.0000   1.0000   1.0000   1.0000   1.0000   1.0000
     1.0000   1.0000   1.0000   1.0000   1.0000   0.0000   0.0000   0.0000
     0.0000   0.0000   0.0000   0.0000   0.0000   0.0000   0.0000   0.0000
     0.0000   0.0000   0.0000

          k = 0.0000 0.4330 0.0000 ( 11860 PWs)   bands (ev):

   -83.6146 -53.2444 -52.8646 -52.7573 -24.9055 -24.8511 -22.9950 -22.1171
   -16.2461 -15.9325 -13.8360 -12.6017 -12.0699 -11.7482 -11.7153 -10.4133
    -9.8334  -9.4694  -8.7088  -8.6956  -7.1076  -3.9772  -3.6548  -2.2599
    -1.4916  -1.2843  -0.7834   2.4285   2.9879   4.0184   4.2972   5.7854
     6.4108   6.6129   7.1601

     occupation numbers 
     1.0000   1.0000   1.0000   1.0000   1.0000   1.0000   1.0000   1.0000
     1.0000   1.0000   1.0000   1.0000   1.0000   1.0000   1.0000   1.0000
     1.0000   1.0000   1.0000   1.0000   1.0000   0.0000   0.0000   0.0000
     0.0000   0.0000   0.0000   0.0000   0.0000   0.0000   0.0000   0.0000
     0.0000   0.0000   0.0000

          k = 0.0000-0.5774 0.0000 ( 11846 PWs)   bands (ev):

   -83.6091 -53.2137 -52.8633 -52.8630 -24.2413 -24.2136 -22.8641 -22.1298
   -17.1612 -16.8862 -13.5645 -13.0611 -12.1813 -11.9717 -11.9322 -10.6120
   -10.0345  -9.2263  -8.7576  -8.4456  -7.2574  -3.9907  -3.7202  -2.4007
    -1.9031  -1.3624  -1.0724   2.1435   2.7576   4.4216   5.1172   5.8223
     6.1760   6.5178   7.2545

     occupation numbers 
     1.0000   1.0000   1.0000   1.0000   1.0000   1.0000   1.0000   1.0000
     1.0000   1.0000   1.0000   1.0000   1.0000   1.0000   1.0000   1.0000
     1.0000   1.0000   1.0000   1.0000   1.0000   0.0000   0.0000   0.0000
     0.0000   0.0000   0.0000   0.0000   0.0000   0.0000   0.0000   0.0000
     0.0000   0.0000   0.0000

          k = 0.1250 0.2165 0.0000 ( 11867 PWs)   bands (ev):

   -83.6122 -53.1052 -52.8646 -52.6267 -26.2318 -26.1457 -23.6970 -22.4243
   -15.0498 -13.0829 -12.8543 -12.2981 -11.6100 -11.3091 -10.9269  -9.9772
    -9.6581  -9.5501  -9.0196  -8.3649  -6.7873  -3.3569  -3.1272  -2.7205
    -1.9231   1.0449   1.2310   2.0127   2.0267   3.4876   3.6386   4.0478
     5.0918   5.7021   6.4677

     occupation numbers 
     1.0000   1.0000   1.0000   1.0000   1.0000   1.0000   1.0000   1.0000
     1.0000   1.0000   1.0000   1.0000   1.0000   1.0000   1.0000   1.0000
     1.0000   1.0000   1.0000   1.0000   1.0000   0.0000   0.0000   0.0000
     0.0000   0.0000   0.0000   0.0000   0.0000   0.0000   0.0000   0.0000
     0.0000   0.0000   0.0000

          k = 0.1250 0.3608 0.0000 ( 11871 PWs)   bands (ev):

   -83.6148 -53.2068 -52.9601 -52.6385 -25.2722 -25.2055 -23.1424 -22.1632
   -15.4517 -14.9655 -13.7886 -12.5733 -12.2966 -11.9865 -11.6108 -10.5932
    -9.6707  -9.3365  -9.0909  -8.6370  -7.1403  -3.7580  -3.5091  -2.3688
    -1.6115   0.1358   0.3669   2.6660   2.7387   3.7932   4.1838   5.1193
     5.7497   6.1925   6.6260

     occupation numbers 
     1.0000   1.0000   1.0000   1.0000   1.0000   1.0000   1.0000   1.0000
     1.0000   1.0000   1.0000   1.0000   1.0000   1.0000   1.0000   1.0000
     1.0000   1.0000   1.0000   1.0000   1.0000   0.0000   0.0000   0.0000
     0.0000   0.0000   0.0000   0.0000   0.0000   0.0000   0.0000   0.0000
     0.0000   0.0000   0.0000

          k = 0.1250 0.5052 0.0000 ( 11841 PWs)   bands (ev):

   -83.6169 -53.2124 -52.9793 -52.7725 -24.2833 -24.2465 -22.8304 -22.0805
   -16.7286 -16.4411 -13.6184 -13.1125 -12.7160 -12.3317 -12.0426 -10.8093
    -9.9197  -9.2738  -9.0792  -8.5520  -7.2078  -4.1004  -3.5069  -2.1047
    -1.7671  -0.7280  -0.3451   2.7296   3.2495   3.9492   4.3497   5.3739
     6.2318   6.3119   7.0511

     occupation numbers 
     1.0000   1.0000   1.0000   1.0000   1.0000   1.0000   1.0000   1.0000
     1.0000   1.0000   1.0000   1.0000   1.0000   1.0000   1.0000   1.0000
     1.0000   1.0000   1.0000   1.0000   1.0000   0.0000   0.0000   0.0000
     0.0000   0.0000   0.0000   0.0000   0.0000   0.0000   0.0000   0.0000
     0.0000   0.0000   0.0000

          k = 0.2500 0.4330 0.0000 ( 11844 PWs)   bands (ev):

   -83.6237 -53.1835 -53.1080 -52.6935 -24.3261 -24.2818 -22.8024 -22.0364
   -16.1286 -15.7828 -14.0068 -13.8010 -13.2922 -11.9888 -11.8426 -11.1960
   -10.0863  -9.5822  -9.0460  -8.5304  -7.2656  -4.0552  -3.4148  -2.1695
    -1.6779   0.5028   0.7349   2.6201   3.0273   4.4535   4.7109   5.0795
     5.4744   6.1212   6.8706

     occupation numbers 
     1.0000   1.0000   1.0000   1.0000   1.0000   1.0000   1.0000   1.0000
     1.0000   1.0000   1.0000   1.0000   1.0000   1.0000   1.0000   1.0000
     1.0000   1.0000   1.0000   1.0000   1.0000   0.0000   0.0000   0.0000
     0.0000   0.0000   0.0000   0.0000   0.0000   0.0000   0.0000   0.0000
     0.0000   0.0000   0.0000

          k = 0.2500 0.5774 0.0000 ( 11800 PWs)   bands (ev):

   -83.6152 -53.2006 -53.1333 -52.6697 -23.7849 -23.7550 -22.7531 -22.0577
   -16.3803 -16.0492 -14.6492 -14.5208 -12.8119 -12.3699 -12.1185 -10.8424
   -10.5872  -9.9983  -8.9868  -8.3445  -6.9315  -4.4642  -3.2355  -2.0623
    -1.7763   0.2862   0.6805   2.8425   3.2804   4.3310   4.7374   5.2514
     5.8526   6.3467   6.4433

     occupation numbers 
     1.0000   1.0000   1.0000   1.0000   1.0000   1.0000   1.0000   1.0000
     1.0000   1.0000   1.0000   1.0000   1.0000   1.0000   1.0000   1.0000
     1.0000   1.0000   1.0000   1.0000   1.0000   0.0000   0.0000   0.0000
     0.0000   0.0000   0.0000   0.0000   0.0000   0.0000   0.0000   0.0000
     0.0000   0.0000   0.0000

          k =-0.1250 0.0722 0.0000 ( 11905 PWs)   bands (ev):

   -83.6087 -52.9282 -52.7849 -52.7397 -26.7850 -26.6905 -24.0881 -22.6180
   -15.3890 -12.6029 -11.5960 -11.5326 -10.6944 -10.6654 -10.5458 -10.2685
    -9.7680  -8.9087  -8.7699  -8.3103  -6.5451  -2.9434  -2.7585  -2.7379
    -2.4020   0.5039   0.7291   2.4387   2.4903   3.0518   3.2411   3.5257
     4.6749   4.7393   5.1303

     occupation numbers 
     1.0000   1.0000   1.0000   1.0000   1.0000   1.0000   1.0000   1.0000
     1.0000   1.0000   1.0000   1.0000   1.0000   1.0000   1.0000   1.0000
     1.0000   1.0000   1.0000   1.0000   1.0000   0.0000   0.0000   0.0000
     0.0000   0.0000   0.0000   0.0000   0.0000   0.0000   0.0000   0.0000
     0.0000   0.0000   0.0000

          k = 0.1250 0.0722 0.0000 ( 11905 PWs)   bands (ev):

   -83.6087 -52.9282 -52.7849 -52.7397 -26.7850 -26.6905 -24.0881 -22.6180
   -15.3890 -12.6029 -11.5959 -11.5325 -10.6945 -10.6655 -10.5458 -10.2685
    -9.7680  -8.9086  -8.7701  -8.3103  -6.5450  -2.9434  -2.7586  -2.7380
    -2.4018   0.5039   0.7291   2.4387   2.4903   3.0519   3.2411   3.5257
     4.6749   4.7392   5.1303

     occupation numbers 
     1.0000   1.0000   1.0000   1.0000   1.0000   1.0000   1.0000   1.0000
     1.0000   1.0000   1.0000   1.0000   1.0000   1.0000   1.0000   1.0000
     1.0000   1.0000   1.0000   1.0000   1.0000   0.0000   0.0000   0.0000
     0.0000   0.0000   0.0000   0.0000   0.0000   0.0000   0.0000   0.0000
     0.0000   0.0000   0.0000

          k =-0.2500 0.1443 0.0000 ( 11885 PWs)   bands (ev):

   -83.6191 -53.1685 -52.8506 -52.6653 -25.9799 -25.8995 -23.5284 -22.3389
   -15.0347 -13.8376 -13.4734 -12.2951 -11.5554 -11.2218 -11.2110  -9.9318
    -9.6444  -9.3642  -9.2684  -8.5076  -6.9088  -3.5227  -3.2761  -2.4798
    -1.8741   0.1121   0.2982   2.4277   2.5709   3.4896   3.9946   5.0897
     5.9010   6.1068   6.2869

     occupation numbers 
     1.0000   1.0000   1.0000   1.0000   1.0000   1.0000   1.0000   1.0000
     1.0000   1.0000   1.0000   1.0000   1.0000   1.0000   1.0000   1.0000
     1.0000   1.0000   1.0000   1.0000   1.0000   0.0000   0.0000   0.0000
     0.0000   0.0000   0.0000   0.0000   0.0000   0.0000   0.0000   0.0000
     0.0000   0.0000   0.0000

          k = 0.2500 0.1443 0.0000 ( 11885 PWs)   bands (ev):

   -83.6191 -53.1685 -52.8506 -52.6653 -25.9799 -25.8995 -23.5284 -22.3389
   -15.0347 -13.8376 -13.4734 -12.2951 -11.5554 -11.2218 -11.2111  -9.9317
    -9.6444  -9.3643  -9.2685  -8.5075  -6.9088  -3.5227  -3.2762  -2.4799
    -1.8740   0.1121   0.2982   2.4277   2.5709   3.4896   3.9946   5.0897
     5.9010   6.1068   6.2869

     occupation numbers 
     1.0000   1.0000   1.0000   1.0000   1.0000   1.0000   1.0000   1.0000
     1.0000   1.0000   1.0000   1.0000   1.0000   1.0000   1.0000   1.0000
     1.0000   1.0000   1.0000   1.0000   1.0000   0.0000   0.0000   0.0000
     0.0000   0.0000   0.0000   0.0000   0.0000   0.0000   0.0000   0.0000
     0.0000   0.0000   0.0000

          k =-0.3750 0.2165 0.0000 ( 11860 PWs)   bands (ev):

   -83.6146 -53.2444 -52.8646 -52.7573 -24.9055 -24.8511 -22.9950 -22.1171
   -16.2461 -15.9325 -13.8360 -12.6017 -12.0699 -11.7481 -11.7153 -10.4133
    -9.8332  -9.4694  -8.7087  -8.6957  -7.1077  -3.9772  -3.6548  -2.2598
    -1.4917  -1.2843  -0.7834   2.4285   2.9879   4.0184   4.2972   5.7855
     6.4108   6.6129   7.1601

     occupation numbers 
     1.0000   1.0000   1.0000   1.0000   1.0000   1.0000   1.0000   1.0000
     1.0000   1.0000   1.0000   1.0000   1.0000   1.0000   1.0000   1.0000
     1.0000   1.0000   1.0000   1.0000   1.0000   0.0000   0.0000   0.0000
     0.0000   0.0000   0.0000   0.0000   0.0000   0.0000   0.0000   0.0000
     0.0000   0.0000   0.0000

          k = 0.3750 0.2165 0.0000 ( 11860 PWs)   bands (ev):

   -83.6146 -53.2444 -52.8646 -52.7573 -24.9055 -24.8511 -22.9950 -22.1171
   -16.2461 -15.9325 -13.8360 -12.6016 -12.0699 -11.7482 -11.7153 -10.4133
    -9.8333  -9.4694  -8.7088  -8.6957  -7.1076  -3.9772  -3.6548  -2.2599
    -1.4916  -1.2843  -0.7834   2.4285   2.9879   4.0184   4.2972   5.7854
     6.4109   6.6129   7.1601

     occupation numbers 
     1.0000   1.0000   1.0000   1.0000   1.0000   1.0000   1.0000   1.0000
     1.0000   1.0000   1.0000   1.0000   1.0000   1.0000   1.0000   1.0000
     1.0000   1.0000   1.0000   1.0000   1.0000   0.0000   0.0000   0.0000
     0.0000   0.0000   0.0000   0.0000   0.0000   0.0000   0.0000   0.0000
     0.0000   0.0000   0.0000

          k = 0.5000-0.2887 0.0000 ( 11846 PWs)   bands (ev):

   -83.6091 -53.2137 -52.8633 -52.8630 -24.2413 -24.2136 -22.8640 -22.1298
   -17.1612 -16.8863 -13.5646 -13.0611 -12.1813 -11.9717 -11.9321 -10.6120
   -10.0343  -9.2263  -8.7577  -8.4455  -7.2574  -3.9908  -3.7202  -2.4007
    -1.9031  -1.3625  -1.0724   2.1435   2.7576   4.4217   5.1172   5.8224
     6.1759   6.5178   7.2545

     occupation numbers 
     1.0000   1.0000   1.0000   1.0000   1.0000   1.0000   1.0000   1.0000
     1.0000   1.0000   1.0000   1.0000   1.0000   1.0000   1.0000   1.0000
     1.0000   1.0000   1.0000   1.0000   1.0000   0.0000   0.0000   0.0000
     0.0000   0.0000   0.0000   0.0000   0.0000   0.0000   0.0000   0.0000
     0.0000   0.0000   0.0000

          k =-0.5000-0.2887 0.0000 ( 11846 PWs)   bands (ev):

   -83.6091 -53.2137 -52.8633 -52.8630 -24.2413 -24.2136 -22.8640 -22.1298
   -17.1612 -16.8862 -13.5645 -13.0611 -12.1813 -11.9717 -11.9322 -10.6120
   -10.0345  -9.2263  -8.7576  -8.4456  -7.2574  -3.9907  -3.7202  -2.4007
    -1.9031  -1.3624  -1.0724   2.1435   2.7576   4.4217   5.1172   5.8223
     6.1760   6.5178   7.2545

     occupation numbers 
     1.0000   1.0000   1.0000   1.0000   1.0000   1.0000   1.0000   1.0000
     1.0000   1.0000   1.0000   1.0000   1.0000   1.0000   1.0000   1.0000
     1.0000   1.0000   1.0000   1.0000   1.0000   0.0000   0.0000   0.0000
     0.0000   0.0000   0.0000   0.0000   0.0000   0.0000   0.0000   0.0000
     0.0000   0.0000   0.0000

          k =-0.1250 0.2165 0.0000 ( 11867 PWs)   bands (ev):

   -83.6122 -53.1052 -52.8646 -52.6267 -26.2318 -26.1457 -23.6970 -22.4243
   -15.0498 -13.0830 -12.8543 -12.2981 -11.6100 -11.3091 -10.9269  -9.9772
    -9.6581  -9.5500  -9.0197  -8.3648  -6.7874  -3.3569  -3.1272  -2.7204
    -1.9231   1.0448   1.2310   2.0127   2.0267   3.4876   3.6386   4.0478
     5.0917   5.7021   6.4677

     occupation numbers 
     1.0000   1.0000   1.0000   1.0000   1.0000   1.0000   1.0000   1.0000
     1.0000   1.0000   1.0000   1.0000   1.0000   1.0000   1.0000   1.0000
     1.0000   1.0000   1.0000   1.0000   1.0000   0.0000   0.0000   0.0000
     0.0000   0.0000   0.0000   0.0000   0.0000   0.0000   0.0000   0.0000
     0.0000   0.0000   0.0000

          k = 0.2500-0.0000 0.0000 ( 11867 PWs)   bands (ev):

   -83.6122 -53.1052 -52.8646 -52.6267 -26.2318 -26.1457 -23.6970 -22.4243
   -15.0498 -13.0830 -12.8543 -12.2981 -11.6100 -11.3091 -10.9269  -9.9772
    -9.6581  -9.5500  -9.0197  -8.3648  -6.7874  -3.3569  -3.1272  -2.7204
    -1.9231   1.0448   1.2310   2.0127   2.0267   3.4876   3.6386   4.0478
     5.0916   5.7021   6.4677

     occupation numbers 
     1.0000   1.0000   1.0000   1.0000   1.0000   1.0000   1.0000   1.0000
     1.0000   1.0000   1.0000   1.0000   1.0000   1.0000   1.0000   1.0000
     1.0000   1.0000   1.0000   1.0000   1.0000   0.0000   0.0000   0.0000
     0.0000   0.0000   0.0000   0.0000   0.0000   0.0000   0.0000   0.0000
     0.0000   0.0000   0.0000

          k =-0.1250 0.3608 0.0000 ( 11871 PWs)   bands (ev):

   -83.6148 -53.2068 -52.9601 -52.6385 -25.2722 -25.2055 -23.1424 -22.1632
   -15.4518 -14.9655 -13.7886 -12.5733 -12.2966 -11.9866 -11.6108 -10.5931
    -9.6707  -9.3365  -9.0909  -8.6370  -7.1404  -3.7580  -3.5092  -2.3688
    -1.6114   0.1358   0.3669   2.6660   2.7387   3.7932   4.1838   5.1193
     5.7497   6.1926   6.6260

     occupation numbers 
     1.0000   1.0000   1.0000   1.0000   1.0000   1.0000   1.0000   1.0000
     1.0000   1.0000   1.0000   1.0000   1.0000   1.0000   1.0000   1.0000
     1.0000   1.0000   1.0000   1.0000   1.0000   0.0000   0.0000   0.0000
     0.0000   0.0000   0.0000   0.0000   0.0000   0.0000   0.0000   0.0000
     0.0000   0.0000   0.0000

          k =-0.2500 0.2887 0.0000 ( 11871 PWs)   bands (ev):

   -83.6148 -53.2068 -52.9601 -52.6385 -25.2722 -25.2055 -23.1423 -22.1632
   -15.4518 -14.9656 -13.7886 -12.5733 -12.2966 -11.9866 -11.6108 -10.5931
    -9.6707  -9.3364  -9.0908  -8.6371  -7.1404  -3.7580  -3.5092  -2.3688
    -1.6114   0.1358   0.3670   2.6661   2.7387   3.7931   4.1837   5.1193
     5.7497   6.1926   6.6260

     occupation numbers 
     1.0000   1.0000   1.0000   1.0000   1.0000   1.0000   1.0000   1.0000
     1.0000   1.0000   1.0000   1.0000   1.0000   1.0000   1.0000   1.0000
     1.0000   1.0000   1.0000   1.0000   1.0000   0.0000   0.0000   0.0000
     0.0000   0.0000   0.0000   0.0000   0.0000   0.0000   0.0000   0.0000
     0.0000   0.0000   0.0000

          k = 0.3750 0.0722 0.0000 ( 11871 PWs)   bands (ev):

   -83.6148 -53.2068 -52.9601 -52.6385 -25.2722 -25.2055 -23.1424 -22.1632
   -15.4517 -14.9656 -13.7886 -12.5733 -12.2966 -11.9866 -11.6108 -10.5931
    -9.6707  -9.3365  -9.0909  -8.6370  -7.1404  -3.7580  -3.5092  -2.3688
    -1.6114   0.1358   0.3669   2.6660   2.7387   3.7932   4.1838   5.1193
     5.7497   6.1926   6.6260

     occupation numbers 
     1.0000   1.0000   1.0000   1.0000   1.0000   1.0000   1.0000   1.0000
     1.0000   1.0000   1.0000   1.0000   1.0000   1.0000   1.0000   1.0000
     1.0000   1.0000   1.0000   1.0000   1.0000   0.0000   0.0000   0.0000
     0.0000   0.0000   0.0000   0.0000   0.0000   0.0000   0.0000   0.0000
     0.0000   0.0000   0.0000

          k =-0.2500-0.2887 0.0000 ( 11871 PWs)   bands (ev):

   -83.6148 -53.2068 -52.9601 -52.6385 -25.2722 -25.2055 -23.1424 -22.1632
   -15.4517 -14.9655 -13.7886 -12.5733 -12.2966 -11.9865 -11.6108 -10.5932
    -9.6707  -9.3365  -9.0909  -8.6370  -7.1403  -3.7580  -3.5091  -2.3688
    -1.6115   0.1358   0.3669   2.6661   2.7387   3.7931   4.1837   5.1193
     5.7497   6.1925   6.6260

     occupation numbers 
     1.0000   1.0000   1.0000   1.0000   1.0000   1.0000   1.0000   1.0000
     1.0000   1.0000   1.0000   1.0000   1.0000   1.0000   1.0000   1.0000
     1.0000   1.0000   1.0000   1.0000   1.0000   0.0000   0.0000   0.0000
     0.0000   0.0000   0.0000   0.0000   0.0000   0.0000   0.0000   0.0000
     0.0000   0.0000   0.0000

          k = 0.3750-0.0722 0.0000 ( 11871 PWs)   bands (ev):

   -83.6148 -53.2068 -52.9601 -52.6385 -25.2722 -25.2055 -23.1423 -22.1632
   -15.4518 -14.9656 -13.7886 -12.5733 -12.2966 -11.9866 -11.6108 -10.5931
    -9.6707  -9.3364  -9.0908  -8.6370  -7.1404  -3.7580  -3.5092  -2.3688
    -1.6114   0.1358   0.3669   2.6660   2.7387   3.7932   4.1838   5.1193
     5.7497   6.1926   6.6260

     occupation numbers 
     1.0000   1.0000   1.0000   1.0000   1.0000   1.0000   1.0000   1.0000
     1.0000   1.0000   1.0000   1.0000   1.0000   1.0000   1.0000   1.0000
     1.0000   1.0000   1.0000   1.0000   1.0000   0.0000   0.0000   0.0000
     0.0000   0.0000   0.0000   0.0000   0.0000   0.0000   0.0000   0.0000
     0.0000   0.0000   0.0000

          k =-0.1250 0.5052 0.0000 ( 11841 PWs)   bands (ev):

   -83.6169 -53.2124 -52.9793 -52.7725 -24.2833 -24.2465 -22.8304 -22.0805
   -16.7286 -16.4411 -13.6184 -13.1125 -12.7160 -12.3317 -12.0426 -10.8093
    -9.9197  -9.2739  -9.0792  -8.5520  -7.2078  -4.1004  -3.5069  -2.1048
    -1.7670  -0.7279  -0.3452   2.7296   3.2495   3.9492   4.3497   5.3739
     6.2319   6.3118   7.0511

     occupation numbers 
     1.0000   1.0000   1.0000   1.0000   1.0000   1.0000   1.0000   1.0000
     1.0000   1.0000   1.0000   1.0000   1.0000   1.0000   1.0000   1.0000
     1.0000   1.0000   1.0000   1.0000   1.0000   0.0000   0.0000   0.0000
     0.0000   0.0000   0.0000   0.0000   0.0000   0.0000   0.0000   0.0000
     0.0000   0.0000   0.0000

          k =-0.3750 0.3608 0.0000 ( 11841 PWs)   bands (ev):

   -83.6169 -53.2124 -52.9793 -52.7725 -24.2833 -24.2465 -22.8304 -22.0806
   -16.7286 -16.4411 -13.6184 -13.1125 -12.7160 -12.3317 -12.0426 -10.8093
    -9.9197  -9.2738  -9.0792  -8.5521  -7.2079  -4.1005  -3.5070  -2.1047
    -1.7671  -0.7280  -0.3451   2.7296   3.2495   3.9492   4.3497   5.3739
     6.2318   6.3118   7.0513

     occupation numbers 
     1.0000   1.0000   1.0000   1.0000   1.0000   1.0000   1.0000   1.0000
     1.0000   1.0000   1.0000   1.0000   1.0000   1.0000   1.0000   1.0000
     1.0000   1.0000   1.0000   1.0000   1.0000   0.0000   0.0000   0.0000
     0.0000   0.0000   0.0000   0.0000   0.0000   0.0000   0.0000   0.0000
     0.0000   0.0000   0.0000

          k = 0.5000 0.1443 0.0000 ( 11841 PWs)   bands (ev):

   -83.6169 -53.2124 -52.9793 -52.7725 -24.2833 -24.2465 -22.8304 -22.0805
   -16.7286 -16.4411 -13.6184 -13.1125 -12.7160 -12.3317 -12.0426 -10.8093
    -9.9197  -9.2738  -9.0792  -8.5520  -7.2078  -4.1004  -3.5069  -2.1048
    -1.7670  -0.7280  -0.3451   2.7295   3.2495   3.9492   4.3497   5.3740
     6.2319   6.3119   7.0512

     occupation numbers 
     1.0000   1.0000   1.0000   1.0000   1.0000   1.0000   1.0000   1.0000
     1.0000   1.0000   1.0000   1.0000   1.0000   1.0000   1.0000   1.0000
     1.0000   1.0000   1.0000   1.0000   1.0000   0.0000   0.0000   0.0000
     0.0000   0.0000   0.0000   0.0000   0.0000   0.0000   0.0000   0.0000
     0.0000   0.0000   0.0000

          k =-0.3750-0.3608 0.0000 ( 11841 PWs)   bands (ev):

   -83.6169 -53.2124 -52.9793 -52.7725 -24.2833 -24.2465 -22.8304 -22.0805
   -16.7286 -16.4411 -13.6185 -13.1125 -12.7160 -12.3317 -12.0426 -10.8093
    -9.9197  -9.2738  -9.0792  -8.5520  -7.2078  -4.1004  -3.5069  -2.1047
    -1.7671  -0.7280  -0.3451   2.7296   3.2495   3.9492   4.3497   5.3739
     6.2318   6.3119   7.0513

     occupation numbers 
     1.0000   1.0000   1.0000   1.0000   1.0000   1.0000   1.0000   1.0000
     1.0000   1.0000   1.0000   1.0000   1.0000   1.0000   1.0000   1.0000
     1.0000   1.0000   1.0000   1.0000   1.0000   0.0000   0.0000   0.0000
     0.0000   0.0000   0.0000   0.0000   0.0000   0.0000   0.0000   0.0000
     0.0000   0.0000   0.0000

          k = 0.5000-0.1443 0.0000 ( 11841 PWs)   bands (ev):

   -83.6169 -53.2124 -52.9793 -52.7725 -24.2833 -24.2465 -22.8304 -22.0806
   -16.7286 -16.4411 -13.6184 -13.1125 -12.7160 -12.3317 -12.0426 -10.8093
    -9.9197  -9.2738  -9.0792  -8.5520  -7.2079  -4.1005  -3.5070  -2.1047
    -1.7670  -0.7280  -0.3452   2.7296   3.2495   3.9492   4.3497   5.3740
     6.2318   6.3119   7.0512

     occupation numbers 
     1.0000   1.0000   1.0000   1.0000   1.0000   1.0000   1.0000   1.0000
     1.0000   1.0000   1.0000   1.0000   1.0000   1.0000   1.0000   1.0000
     1.0000   1.0000   1.0000   1.0000   1.0000   0.0000   0.0000   0.0000
     0.0000   0.0000   0.0000   0.0000   0.0000   0.0000   0.0000   0.0000
     0.0000   0.0000   0.0000

          k =-0.2500 0.4330 0.0000 ( 11844 PWs)   bands (ev):

   -83.6237 -53.1835 -53.1080 -52.6935 -24.3261 -24.2818 -22.8024 -22.0364
   -16.1287 -15.7829 -14.0068 -13.8009 -13.2922 -11.9888 -11.8426 -11.1960
   -10.0862  -9.5821  -9.0460  -8.5304  -7.2657  -4.0553  -3.4148  -2.1695
    -1.6778   0.5029   0.7348   2.6201   3.0273   4.4536   4.7109   5.0795
     5.4743   6.1213   6.8706

     occupation numbers 
     1.0000   1.0000   1.0000   1.0000   1.0000   1.0000   1.0000   1.0000
     1.0000   1.0000   1.0000   1.0000   1.0000   1.0000   1.0000   1.0000
     1.0000   1.0000   1.0000   1.0000   1.0000   0.0000   0.0000   0.0000
     0.0000   0.0000   0.0000   0.0000   0.0000   0.0000   0.0000   0.0000
     0.0000   0.0000   0.0000

          k = 0.5000-0.0000 0.0000 ( 11844 PWs)   bands (ev):

   -83.6237 -53.1835 -53.1080 -52.6935 -24.3261 -24.2818 -22.8024 -22.0364
   -16.1287 -15.7829 -14.0068 -13.8009 -13.2922 -11.9888 -11.8426 -11.1960
   -10.0863  -9.5821  -9.0460  -8.5304  -7.2657  -4.0553  -3.4148  -2.1695
    -1.6778   0.5029   0.7348   2.6201   3.0273   4.4536   4.7108   5.0796
     5.4744   6.1213   6.8705

     occupation numbers 
     1.0000   1.0000   1.0000   1.0000   1.0000   1.0000   1.0000   1.0000
     1.0000   1.0000   1.0000   1.0000   1.0000   1.0000   1.0000   1.0000
     1.0000   1.0000   1.0000   1.0000   1.0000   0.0000   0.0000   0.0000
     0.0000   0.0000   0.0000   0.0000   0.0000   0.0000   0.0000   0.0000
     0.0000   0.0000   0.0000

          k =-0.3750 0.5052 0.0000 ( 11800 PWs)   bands (ev):

   -83.6152 -53.2006 -53.1332 -52.6697 -23.7849 -23.7550 -22.7531 -22.0578
   -16.3803 -16.0492 -14.6492 -14.5207 -12.8119 -12.3699 -12.1185 -10.8424
   -10.5872  -9.9983  -8.9868  -8.3445  -6.9316  -4.4642  -3.2355  -2.0623
    -1.7762   0.2862   0.6805   2.8425   3.2805   4.3310   4.7375   5.2515
     5.8524   6.3467   6.4433

     occupation numbers 
     1.0000   1.0000   1.0000   1.0000   1.0000   1.0000   1.0000   1.0000
     1.0000   1.0000   1.0000   1.0000   1.0000   1.0000   1.0000   1.0000
     1.0000   1.0000   1.0000   1.0000   1.0000   0.0000   0.0000   0.0000
     0.0000   0.0000   0.0000   0.0000   0.0000   0.0000   0.0000   0.0000
     0.0000   0.0000   0.0000

          k = 0.6250 0.0722 0.0000 ( 11800 PWs)   bands (ev):

   -83.6152 -53.2006 -53.1333 -52.6697 -23.7849 -23.7550 -22.7531 -22.0577
   -16.3803 -16.0492 -14.6492 -14.5208 -12.8119 -12.3699 -12.1185 -10.8424
   -10.5872  -9.9983  -8.9868  -8.3445  -6.9315  -4.4642  -3.2355  -2.0623
    -1.7763   0.2862   0.6805   2.8425   3.2805   4.3310   4.7374   5.2514
     5.8525   6.3467   6.4433

     occupation numbers 
     1.0000   1.0000   1.0000   1.0000   1.0000   1.0000   1.0000   1.0000
     1.0000   1.0000   1.0000   1.0000   1.0000   1.0000   1.0000   1.0000
     1.0000   1.0000   1.0000   1.0000   1.0000   0.0000   0.0000   0.0000
     0.0000   0.0000   0.0000   0.0000   0.0000   0.0000   0.0000   0.0000
     0.0000   0.0000   0.0000

     highest occupied, lowest unoccupied level (ev):    -6.4776   -4.4642

!    total energy              =    -263.21028810 Ry
     estimated scf accuracy    <          5.7E-11 Ry

     convergence has been achieved in   8 iterations

     Using ACE for calculation of exact exchange
     ACE projected onto    35 (nbndproj) and applied to    35 (nbnd) bands

     total energy              =    -263.21038596 Ry
     Harris-Foulkes estimate   =    -263.21038596 Ry
     est. exchange err (dexx)  =       0.00009785 Ry
     - averaged Fock potential =      17.83252361 Ry
     + Fock energy (ACE)       =      -8.91731241 Ry

     EXX: now go back to refine exchange calculation

     total cpu time spent up to now is     1781.1 secs

     Self-consistent Calculation

     iteration #  1     ecut=    80.00 Ry     beta= 0.50
     Davidson diagonalization with overlap

---- Real-time Memory Report at c_bands before calling an iterative solver
          2135 MiB given to the printing process from OS
             0 MiB allocation reported by mallinfo(arena+hblkhd)
         12885 MiB available memory on the node where the printing process lives
------------------
     ethr =  1.99E-12,  avg # of iterations =  7.8

     total cpu time spent up to now is     1797.9 secs

     total energy              =    -263.21044219 Ry
     estimated scf accuracy    <       0.00002061 Ry

     iteration #  2     ecut=    80.00 Ry     beta= 0.50
     Davidson diagonalization with overlap

---- Real-time Memory Report at c_bands before calling an iterative solver
          2135 MiB given to the printing process from OS
             0 MiB allocation reported by mallinfo(arena+hblkhd)
         12874 MiB available memory on the node where the printing process lives
------------------
     ethr =  4.91E-08,  avg # of iterations =  2.0

     total cpu time spent up to now is     1805.0 secs

     total energy              =    -263.21044462 Ry
     estimated scf accuracy    <       0.00000104 Ry

     iteration #  3     ecut=    80.00 Ry     beta= 0.50
     Davidson diagonalization with overlap

---- Real-time Memory Report at c_bands before calling an iterative solver
          2135 MiB given to the printing process from OS
             0 MiB allocation reported by mallinfo(arena+hblkhd)
         12880 MiB available memory on the node where the printing process lives
------------------
     ethr =  2.49E-09,  avg # of iterations =  2.0

     total cpu time spent up to now is     1812.4 secs

     total energy              =    -263.21044443 Ry
     estimated scf accuracy    <       0.00000322 Ry

     iteration #  4     ecut=    80.00 Ry     beta= 0.50
     Davidson diagonalization with overlap

---- Real-time Memory Report at c_bands before calling an iterative solver
          2135 MiB given to the printing process from OS
             0 MiB allocation reported by mallinfo(arena+hblkhd)
         12877 MiB available memory on the node where the printing process lives
------------------
     ethr =  2.49E-09,  avg # of iterations =  2.0

     total cpu time spent up to now is     1819.6 secs

     total energy              =    -263.21044490 Ry
     estimated scf accuracy    <       0.00000020 Ry

     iteration #  5     ecut=    80.00 Ry     beta= 0.50
     Davidson diagonalization with overlap

---- Real-time Memory Report at c_bands before calling an iterative solver
          2135 MiB given to the printing process from OS
             0 MiB allocation reported by mallinfo(arena+hblkhd)
         12880 MiB available memory on the node where the printing process lives
------------------
     ethr =  4.84E-10,  avg # of iterations =  2.0

     total cpu time spent up to now is     1826.6 secs

     total energy              =    -263.21044493 Ry
     estimated scf accuracy    <       0.00000016 Ry

     iteration #  6     ecut=    80.00 Ry     beta= 0.50
     Davidson diagonalization with overlap

---- Real-time Memory Report at c_bands before calling an iterative solver
          2135 MiB given to the printing process from OS
             0 MiB allocation reported by mallinfo(arena+hblkhd)
         12879 MiB available memory on the node where the printing process lives
------------------
     ethr =  3.82E-10,  avg # of iterations =  1.6

     total cpu time spent up to now is     1833.3 secs

     total energy              =    -263.21044495 Ry
     estimated scf accuracy    <       0.00000002 Ry

     iteration #  7     ecut=    80.00 Ry     beta= 0.50
     Davidson diagonalization with overlap

---- Real-time Memory Report at c_bands before calling an iterative solver
          2135 MiB given to the printing process from OS
             0 MiB allocation reported by mallinfo(arena+hblkhd)
         12874 MiB available memory on the node where the printing process lives
------------------
     ethr =  5.28E-11,  avg # of iterations =  1.0

     total cpu time spent up to now is     1839.6 secs

     total energy              =    -263.21044495 Ry
     estimated scf accuracy    <          2.5E-10 Ry

     iteration #  8     ecut=    80.00 Ry     beta= 0.50
     Davidson diagonalization with overlap

---- Real-time Memory Report at c_bands before calling an iterative solver
          2135 MiB given to the printing process from OS
             0 MiB allocation reported by mallinfo(arena+hblkhd)
         12872 MiB available memory on the node where the printing process lives
------------------
     ethr =  5.96E-13,  avg # of iterations =  3.0

     total cpu time spent up to now is     1848.2 secs

     End of self-consistent calculation

          k = 0.0000 0.0000 0.0000 ( 11937 PWs)   bands (ev):

   -83.5931 -52.8360 -52.7393 -52.7392 -27.0878 -26.9898 -24.3205 -22.7336
   -15.6422 -12.7284 -10.6411 -10.4754 -10.4753 -10.4279 -10.4278  -9.9129
    -9.9129  -8.5002  -8.4999  -8.4943  -6.5196  -2.6871  -2.6869  -2.4550
    -2.4548  -0.2229   0.1097   2.3485   2.3819   2.4986   4.0126   4.0126
     4.0679   4.0680   4.2583

     occupation numbers 
     1.0000   1.0000   1.0000   1.0000   1.0000   1.0000   1.0000   1.0000
     1.0000   1.0000   1.0000   1.0000   1.0000   1.0000   1.0000   1.0000
     1.0000   1.0000   1.0000   1.0000   1.0000   0.0000   0.0000   0.0000
     0.0000   0.0000   0.0000   0.0000   0.0000   0.0000   0.0000   0.0000
     0.0000   0.0000   0.0000

          k = 0.0000 0.1443 0.0000 ( 11905 PWs)   bands (ev):

   -83.6049 -52.9299 -52.7778 -52.7353 -26.7842 -26.6899 -24.0861 -22.6153
   -15.3897 -12.6018 -11.5955 -11.5323 -10.6940 -10.6655 -10.5442 -10.2694
    -9.7628  -8.9039  -8.7647  -8.3076  -6.5643  -2.9413  -2.7506  -2.7284
    -2.3955   0.5044   0.7299   2.4391   2.4910   3.0529   3.2418   3.5267
     4.6761   4.7396   5.1319

     occupation numbers 
     1.0000   1.0000   1.0000   1.0000   1.0000   1.0000   1.0000   1.0000
     1.0000   1.0000   1.0000   1.0000   1.0000   1.0000   1.0000   1.0000
     1.0000   1.0000   1.0000   1.0000   1.0000   0.0000   0.0000   0.0000
     0.0000   0.0000   0.0000   0.0000   0.0000   0.0000   0.0000   0.0000
     0.0000   0.0000   0.0000

          k = 0.0000 0.2887 0.0000 ( 11885 PWs)   bands (ev):

   -83.6157 -53.1785 -52.8441 -52.6533 -25.9791 -25.8990 -23.5261 -22.3357
   -15.0340 -13.8371 -13.4731 -12.2933 -11.5577 -11.2213 -11.2110  -9.9322
    -9.6416  -9.3593  -9.2631  -8.5041  -6.9101  -3.5361  -3.2657  -2.4709
    -1.8683   0.1123   0.2996   2.4281   2.5713   3.4905   3.9955   5.0901
     5.9015   6.1079   6.2875

     occupation numbers 
     1.0000   1.0000   1.0000   1.0000   1.0000   1.0000   1.0000   1.0000
     1.0000   1.0000   1.0000   1.0000   1.0000   1.0000   1.0000   1.0000
     1.0000   1.0000   1.0000   1.0000   1.0000   0.0000   0.0000   0.0000
     0.0000   0.0000   0.0000   0.0000   0.0000   0.0000   0.0000   0.0000
     0.0000   0.0000   0.0000

          k = 0.0000 0.4330 0.0000 ( 11860 PWs)   bands (ev):

   -83.6106 -53.2462 -52.8577 -52.7512 -24.9049 -24.8507 -22.9933 -22.1146
   -16.2456 -15.9320 -13.8344 -12.6009 -12.0679 -11.7478 -11.7153 -10.4118
    -9.8285  -9.4683  -8.7050  -8.6929  -7.1144  -3.9933  -3.6428  -2.2520
    -1.4847  -1.2831  -0.7800   2.4291   2.9887   4.0191   4.2981   5.7867
     6.4115   6.6139   7.1611

     occupation numbers 
     1.0000   1.0000   1.0000   1.0000   1.0000   1.0000   1.0000   1.0000
     1.0000   1.0000   1.0000   1.0000   1.0000   1.0000   1.0000   1.0000
     1.0000   1.0000   1.0000   1.0000   1.0000   0.0000   0.0000   0.0000
     0.0000   0.0000   0.0000   0.0000   0.0000   0.0000   0.0000   0.0000
     0.0000   0.0000   0.0000

          k = 0.0000-0.5774 0.0000 ( 11846 PWs)   bands (ev):

   -83.6058 -53.2080 -52.8636 -52.8600 -24.2407 -24.2134 -22.8629 -22.1280
   -17.1604 -16.8855 -13.5623 -13.0608 -12.1792 -11.9714 -11.9322 -10.6093
   -10.0298  -9.2249  -8.7562  -8.4446  -7.2812  -3.9999  -3.7027  -2.3948
    -1.9011  -1.3546  -1.0673   2.1446   2.7587   4.4223   5.1180   5.8238
     6.1769   6.5190   7.2557

     occupation numbers 
     1.0000   1.0000   1.0000   1.0000   1.0000   1.0000   1.0000   1.0000
     1.0000   1.0000   1.0000   1.0000   1.0000   1.0000   1.0000   1.0000
     1.0000   1.0000   1.0000   1.0000   1.0000   0.0000   0.0000   0.0000
     0.0000   0.0000   0.0000   0.0000   0.0000   0.0000   0.0000   0.0000
     0.0000   0.0000   0.0000

          k = 0.1250 0.2165 0.0000 ( 11867 PWs)   bands (ev):

   -83.6078 -53.1129 -52.8594 -52.6110 -26.2311 -26.1453 -23.6950 -22.4215
   -15.0483 -13.0823 -12.8538 -12.2970 -11.6097 -11.3089 -10.9270  -9.9760
    -9.6575  -9.5503  -9.0152  -8.3617  -6.7871  -3.3697  -3.1122  -2.7127
    -1.9151   1.0460   1.2321   2.0130   2.0270   3.4880   3.6387   4.0481
     5.0930   5.7023   6.4684

     occupation numbers 
     1.0000   1.0000   1.0000   1.0000   1.0000   1.0000   1.0000   1.0000
     1.0000   1.0000   1.0000   1.0000   1.0000   1.0000   1.0000   1.0000
     1.0000   1.0000   1.0000   1.0000   1.0000   0.0000   0.0000   0.0000
     0.0000   0.0000   0.0000   0.0000   0.0000   0.0000   0.0000   0.0000
     0.0000   0.0000   0.0000

          k = 0.1250 0.3608 0.0000 ( 11871 PWs)   bands (ev):

   -83.6104 -53.2106 -52.9588 -52.6227 -25.2716 -25.2052 -23.1406 -22.1606
   -15.4514 -14.9651 -13.7884 -12.5725 -12.2958 -11.9847 -11.6107 -10.5895
    -9.6708  -9.3331  -9.0881  -8.6346  -7.1433  -3.7611  -3.5031  -2.3601
    -1.6046   0.1366   0.3684   2.6665   2.7391   3.7940   4.1845   5.1195
     5.7503   6.1929   6.6258

     occupation numbers 
     1.0000   1.0000   1.0000   1.0000   1.0000   1.0000   1.0000   1.0000
     1.0000   1.0000   1.0000   1.0000   1.0000   1.0000   1.0000   1.0000
     1.0000   1.0000   1.0000   1.0000   1.0000   0.0000   0.0000   0.0000
     0.0000   0.0000   0.0000   0.0000   0.0000   0.0000   0.0000   0.0000
     0.0000   0.0000   0.0000

          k = 0.1250 0.5052 0.0000 ( 11841 PWs)   bands (ev):

   -83.6129 -53.2074 -52.9796 -52.7663 -24.2827 -24.2463 -22.8287 -22.0781
   -16.7282 -16.4406 -13.6173 -13.1109 -12.7156 -12.3312 -12.0396 -10.8062
    -9.9168  -9.2723  -9.0777  -8.5506  -7.2244  -4.1016  -3.4953  -2.0968
    -1.7606  -0.7257  -0.3421   2.7302   3.2502   3.9497   4.3504   5.3746
     6.2328   6.3126   7.0519

     occupation numbers 
     1.0000   1.0000   1.0000   1.0000   1.0000   1.0000   1.0000   1.0000
     1.0000   1.0000   1.0000   1.0000   1.0000   1.0000   1.0000   1.0000
     1.0000   1.0000   1.0000   1.0000   1.0000   0.0000   0.0000   0.0000
     0.0000   0.0000   0.0000   0.0000   0.0000   0.0000   0.0000   0.0000
     0.0000   0.0000   0.0000

          k = 0.2500 0.4330 0.0000 ( 11844 PWs)   bands (ev):

   -83.6203 -53.1801 -53.1151 -52.6810 -24.3253 -24.2815 -22.8000 -22.0333
   -16.1283 -15.7824 -14.0061 -13.8004 -13.2909 -11.9855 -11.8395 -11.1925
   -10.0834  -9.5803  -9.0445  -8.5277  -7.2916  -4.0404  -3.4120  -2.1605
    -1.6724   0.5041   0.7374   2.6204   3.0280   4.4542   4.7114   5.0799
     5.4749   6.1216   6.8674

     occupation numbers 
     1.0000   1.0000   1.0000   1.0000   1.0000   1.0000   1.0000   1.0000
     1.0000   1.0000   1.0000   1.0000   1.0000   1.0000   1.0000   1.0000
     1.0000   1.0000   1.0000   1.0000   1.0000   0.0000   0.0000   0.0000
     0.0000   0.0000   0.0000   0.0000   0.0000   0.0000   0.0000   0.0000
     0.0000   0.0000   0.0000

          k = 0.2500 0.5774 0.0000 ( 11800 PWs)   bands (ev):

   -83.6107 -53.2021 -53.1363 -52.6521 -23.7843 -23.7553 -22.7510 -22.0549
   -16.3801 -16.0487 -14.6485 -14.5203 -12.8126 -12.3662 -12.1143 -10.8410
   -10.5843  -9.9966  -8.9870  -8.3433  -6.9450  -4.4428  -3.2414  -2.0546
    -1.7688   0.2869   0.6832   2.8432   3.2810   4.3313   4.7377   5.2505
     5.8536   6.3473   6.4441

     occupation numbers 
     1.0000   1.0000   1.0000   1.0000   1.0000   1.0000   1.0000   1.0000
     1.0000   1.0000   1.0000   1.0000   1.0000   1.0000   1.0000   1.0000
     1.0000   1.0000   1.0000   1.0000   1.0000   0.0000   0.0000   0.0000
     0.0000   0.0000   0.0000   0.0000   0.0000   0.0000   0.0000   0.0000
     0.0000   0.0000   0.0000

          k =-0.1250 0.0722 0.0000 ( 11905 PWs)   bands (ev):

   -83.6049 -52.9299 -52.7778 -52.7353 -26.7842 -26.6899 -24.0861 -22.6153
   -15.3897 -12.6018 -11.5955 -11.5324 -10.6940 -10.6654 -10.5442 -10.2694
    -9.7628  -8.9041  -8.7645  -8.3076  -6.5643  -2.9414  -2.7505  -2.7284
    -2.3957   0.5044   0.7299   2.4391   2.4910   3.0528   3.2418   3.5267
     4.6761   4.7396   5.1319

     occupation numbers 
     1.0000   1.0000   1.0000   1.0000   1.0000   1.0000   1.0000   1.0000
     1.0000   1.0000   1.0000   1.0000   1.0000   1.0000   1.0000   1.0000
     1.0000   1.0000   1.0000   1.0000   1.0000   0.0000   0.0000   0.0000
     0.0000   0.0000   0.0000   0.0000   0.0000   0.0000   0.0000   0.0000
     0.0000   0.0000   0.0000

          k = 0.1250 0.0722 0.0000 ( 11905 PWs)   bands (ev):

   -83.6049 -52.9299 -52.7778 -52.7353 -26.7842 -26.6899 -24.0861 -22.6153
   -15.3897 -12.6018 -11.5955 -11.5323 -10.6940 -10.6655 -10.5442 -10.2694
    -9.7628  -8.9039  -8.7647  -8.3076  -6.5643  -2.9413  -2.7506  -2.7284
    -2.3955   0.5044   0.7299   2.4391   2.4910   3.0528   3.2418   3.5267
     4.6761   4.7396   5.1319

     occupation numbers 
     1.0000   1.0000   1.0000   1.0000   1.0000   1.0000   1.0000   1.0000
     1.0000   1.0000   1.0000   1.0000   1.0000   1.0000   1.0000   1.0000
     1.0000   1.0000   1.0000   1.0000   1.0000   0.0000   0.0000   0.0000
     0.0000   0.0000   0.0000   0.0000   0.0000   0.0000   0.0000   0.0000
     0.0000   0.0000   0.0000

          k =-0.2500 0.1443 0.0000 ( 11885 PWs)   bands (ev):

   -83.6157 -53.1786 -52.8441 -52.6533 -25.9791 -25.8990 -23.5261 -22.3357
   -15.0340 -13.8372 -13.4731 -12.2934 -11.5577 -11.2212 -11.2110  -9.9322
    -9.6416  -9.3592  -9.2630  -8.5042  -6.9101  -3.5362  -3.2657  -2.4708
    -1.8684   0.1123   0.2996   2.4281   2.5713   3.4904   3.9955   5.0901
     5.9015   6.1079   6.2875

     occupation numbers 
     1.0000   1.0000   1.0000   1.0000   1.0000   1.0000   1.0000   1.0000
     1.0000   1.0000   1.0000   1.0000   1.0000   1.0000   1.0000   1.0000
     1.0000   1.0000   1.0000   1.0000   1.0000   0.0000   0.0000   0.0000
     0.0000   0.0000   0.0000   0.0000   0.0000   0.0000   0.0000   0.0000
     0.0000   0.0000   0.0000

          k = 0.2500 0.1443 0.0000 ( 11885 PWs)   bands (ev):

   -83.6157 -53.1785 -52.8441 -52.6533 -25.9791 -25.8990 -23.5261 -22.3357
   -15.0340 -13.8371 -13.4731 -12.2933 -11.5577 -11.2213 -11.2110  -9.9322
    -9.6416  -9.3593  -9.2631  -8.5041  -6.9101  -3.5361  -3.2657  -2.4709
    -1.8683   0.1123   0.2996   2.4281   2.5713   3.4904   3.9955   5.0901
     5.9015   6.1079   6.2874

     occupation numbers 
     1.0000   1.0000   1.0000   1.0000   1.0000   1.0000   1.0000   1.0000
     1.0000   1.0000   1.0000   1.0000   1.0000   1.0000   1.0000   1.0000
     1.0000   1.0000   1.0000   1.0000   1.0000   0.0000   0.0000   0.0000
     0.0000   0.0000   0.0000   0.0000   0.0000   0.0000   0.0000   0.0000
     0.0000   0.0000   0.0000

          k =-0.3750 0.2165 0.0000 ( 11860 PWs)   bands (ev):

   -83.6106 -53.2462 -52.8577 -52.7512 -24.9049 -24.8507 -22.9933 -22.1146
   -16.2456 -15.9320 -13.8344 -12.6009 -12.0679 -11.7477 -11.7153 -10.4118
    -9.8284  -9.4683  -8.7049  -8.6930  -7.1145  -3.9933  -3.6428  -2.2519
    -1.4848  -1.2831  -0.7800   2.4291   2.9886   4.0191   4.2980   5.7868
     6.4115   6.6139   7.1612

     occupation numbers 
     1.0000   1.0000   1.0000   1.0000   1.0000   1.0000   1.0000   1.0000
     1.0000   1.0000   1.0000   1.0000   1.0000   1.0000   1.0000   1.0000
     1.0000   1.0000   1.0000   1.0000   1.0000   0.0000   0.0000   0.0000
     0.0000   0.0000   0.0000   0.0000   0.0000   0.0000   0.0000   0.0000
     0.0000   0.0000   0.0000

          k = 0.3750 0.2165 0.0000 ( 11860 PWs)   bands (ev):

   -83.6106 -53.2462 -52.8577 -52.7512 -24.9049 -24.8507 -22.9933 -22.1146
   -16.2456 -15.9320 -13.8344 -12.6009 -12.0679 -11.7478 -11.7153 -10.4118
    -9.8285  -9.4683  -8.7050  -8.6929  -7.1144  -3.9933  -3.6428  -2.2520
    -1.4847  -1.2831  -0.7800   2.4291   2.9886   4.0191   4.2980   5.7867
     6.4115   6.6139   7.1611

     occupation numbers 
     1.0000   1.0000   1.0000   1.0000   1.0000   1.0000   1.0000   1.0000
     1.0000   1.0000   1.0000   1.0000   1.0000   1.0000   1.0000   1.0000
     1.0000   1.0000   1.0000   1.0000   1.0000   0.0000   0.0000   0.0000
     0.0000   0.0000   0.0000   0.0000   0.0000   0.0000   0.0000   0.0000
     0.0000   0.0000   0.0000

          k = 0.5000-0.2887 0.0000 ( 11846 PWs)   bands (ev):

   -83.6058 -53.2080 -52.8636 -52.8600 -24.2407 -24.2134 -22.8628 -22.1281
   -17.1605 -16.8856 -13.5623 -13.0608 -12.1792 -11.9713 -11.9321 -10.6094
   -10.0296  -9.2249  -8.7563  -8.4445  -7.2813  -4.0000  -3.7027  -2.3948
    -1.9011  -1.3546  -1.0673   2.1445   2.7587   4.4224   5.1179   5.8239
     6.1769   6.5190   7.2557

     occupation numbers 
     1.0000   1.0000   1.0000   1.0000   1.0000   1.0000   1.0000   1.0000
     1.0000   1.0000   1.0000   1.0000   1.0000   1.0000   1.0000   1.0000
     1.0000   1.0000   1.0000   1.0000   1.0000   0.0000   0.0000   0.0000
     0.0000   0.0000   0.0000   0.0000   0.0000   0.0000   0.0000   0.0000
     0.0000   0.0000   0.0000

          k =-0.5000-0.2887 0.0000 ( 11846 PWs)   bands (ev):

   -83.6058 -53.2080 -52.8636 -52.8600 -24.2407 -24.2134 -22.8628 -22.1280
   -17.1604 -16.8855 -13.5623 -13.0608 -12.1792 -11.9714 -11.9322 -10.6094
   -10.0297  -9.2249  -8.7562  -8.4446  -7.2812  -3.9999  -3.7027  -2.3948
    -1.9011  -1.3546  -1.0673   2.1445   2.7587   4.4224   5.1180   5.8239
     6.1769   6.5190   7.2557

     occupation numbers 
     1.0000   1.0000   1.0000   1.0000   1.0000   1.0000   1.0000   1.0000
     1.0000   1.0000   1.0000   1.0000   1.0000   1.0000   1.0000   1.0000
     1.0000   1.0000   1.0000   1.0000   1.0000   0.0000   0.0000   0.0000
     0.0000   0.0000   0.0000   0.0000   0.0000   0.0000   0.0000   0.0000
     0.0000   0.0000   0.0000

          k =-0.1250 0.2165 0.0000 ( 11867 PWs)   bands (ev):

   -83.6078 -53.1129 -52.8594 -52.6110 -26.2311 -26.1453 -23.6950 -22.4215
   -15.0483 -13.0824 -12.8539 -12.2970 -11.6097 -11.3088 -10.9270  -9.9760
    -9.6574  -9.5502  -9.0152  -8.3617  -6.7871  -3.3697  -3.1122  -2.7126
    -1.9151   1.0460   1.2321   2.0130   2.0270   3.4880   3.6387   4.0481
     5.0930   5.7024   6.4684

     occupation numbers 
     1.0000   1.0000   1.0000   1.0000   1.0000   1.0000   1.0000   1.0000
     1.0000   1.0000   1.0000   1.0000   1.0000   1.0000   1.0000   1.0000
     1.0000   1.0000   1.0000   1.0000   1.0000   0.0000   0.0000   0.0000
     0.0000   0.0000   0.0000   0.0000   0.0000   0.0000   0.0000   0.0000
     0.0000   0.0000   0.0000

          k = 0.2500-0.0000 0.0000 ( 11867 PWs)   bands (ev):

   -83.6078 -53.1129 -52.8594 -52.6110 -26.2311 -26.1453 -23.6950 -22.4215
   -15.0483 -13.0824 -12.8539 -12.2970 -11.6097 -11.3088 -10.9270  -9.9760
    -9.6574  -9.5502  -9.0152  -8.3617  -6.7871  -3.3697  -3.1122  -2.7126
    -1.9151   1.0460   1.2321   2.0130   2.0270   3.4880   3.6388   4.0481
     5.0929   5.7023   6.4684

     occupation numbers 
     1.0000   1.0000   1.0000   1.0000   1.0000   1.0000   1.0000   1.0000
     1.0000   1.0000   1.0000   1.0000   1.0000   1.0000   1.0000   1.0000
     1.0000   1.0000   1.0000   1.0000   1.0000   0.0000   0.0000   0.0000
     0.0000   0.0000   0.0000   0.0000   0.0000   0.0000   0.0000   0.0000
     0.0000   0.0000   0.0000

          k =-0.1250 0.3608 0.0000 ( 11871 PWs)   bands (ev):

   -83.6104 -53.2106 -52.9588 -52.6227 -25.2716 -25.2052 -23.1406 -22.1606
   -15.4515 -14.9652 -13.7884 -12.5725 -12.2958 -11.9847 -11.6107 -10.5895
    -9.6708  -9.3331  -9.0881  -8.6346  -7.1433  -3.7611  -3.5031  -2.3602
    -1.6045   0.1366   0.3684   2.6665   2.7391   3.7940   4.1845   5.1195
     5.7503   6.1929   6.6257

     occupation numbers 
     1.0000   1.0000   1.0000   1.0000   1.0000   1.0000   1.0000   1.0000
     1.0000   1.0000   1.0000   1.0000   1.0000   1.0000   1.0000   1.0000
     1.0000   1.0000   1.0000   1.0000   1.0000   0.0000   0.0000   0.0000
     0.0000   0.0000   0.0000   0.0000   0.0000   0.0000   0.0000   0.0000
     0.0000   0.0000   0.0000

          k =-0.2500 0.2887 0.0000 ( 11871 PWs)   bands (ev):

   -83.6104 -53.2106 -52.9588 -52.6227 -25.2716 -25.2052 -23.1406 -22.1606
   -15.4515 -14.9652 -13.7884 -12.5725 -12.2958 -11.9847 -11.6107 -10.5894
    -9.6708  -9.3331  -9.0880  -8.6346  -7.1433  -3.7611  -3.5031  -2.3601
    -1.6046   0.1366   0.3684   2.6666   2.7391   3.7940   4.1844   5.1195
     5.7503   6.1929   6.6257

     occupation numbers 
     1.0000   1.0000   1.0000   1.0000   1.0000   1.0000   1.0000   1.0000
     1.0000   1.0000   1.0000   1.0000   1.0000   1.0000   1.0000   1.0000
     1.0000   1.0000   1.0000   1.0000   1.0000   0.0000   0.0000   0.0000
     0.0000   0.0000   0.0000   0.0000   0.0000   0.0000   0.0000   0.0000
     0.0000   0.0000   0.0000

          k = 0.3750 0.0722 0.0000 ( 11871 PWs)   bands (ev):

   -83.6104 -53.2106 -52.9588 -52.6227 -25.2716 -25.2052 -23.1406 -22.1606
   -15.4514 -14.9652 -13.7884 -12.5725 -12.2958 -11.9847 -11.6107 -10.5895
    -9.6708  -9.3331  -9.0881  -8.6346  -7.1433  -3.7611  -3.5031  -2.3602
    -1.6045   0.1366   0.3684   2.6665   2.7391   3.7940   4.1845   5.1195
     5.7503   6.1929   6.6258

     occupation numbers 
     1.0000   1.0000   1.0000   1.0000   1.0000   1.0000   1.0000   1.0000
     1.0000   1.0000   1.0000   1.0000   1.0000   1.0000   1.0000   1.0000
     1.0000   1.0000   1.0000   1.0000   1.0000   0.0000   0.0000   0.0000
     0.0000   0.0000   0.0000   0.0000   0.0000   0.0000   0.0000   0.0000
     0.0000   0.0000   0.0000

          k =-0.2500-0.2887 0.0000 ( 11871 PWs)   bands (ev):

   -83.6104 -53.2106 -52.9588 -52.6227 -25.2716 -25.2052 -23.1406 -22.1606
   -15.4514 -14.9651 -13.7884 -12.5725 -12.2958 -11.9847 -11.6107 -10.5895
    -9.6708  -9.3331  -9.0881  -8.6346  -7.1433  -3.7611  -3.5030  -2.3601
    -1.6046   0.1366   0.3684   2.6666   2.7391   3.7940   4.1844   5.1195
     5.7503   6.1929   6.6258

     occupation numbers 
     1.0000   1.0000   1.0000   1.0000   1.0000   1.0000   1.0000   1.0000
     1.0000   1.0000   1.0000   1.0000   1.0000   1.0000   1.0000   1.0000
     1.0000   1.0000   1.0000   1.0000   1.0000   0.0000   0.0000   0.0000
     0.0000   0.0000   0.0000   0.0000   0.0000   0.0000   0.0000   0.0000
     0.0000   0.0000   0.0000

          k = 0.3750-0.0722 0.0000 ( 11871 PWs)   bands (ev):

   -83.6104 -53.2106 -52.9588 -52.6227 -25.2716 -25.2052 -23.1406 -22.1606
   -15.4515 -14.9652 -13.7884 -12.5725 -12.2958 -11.9848 -11.6107 -10.5894
    -9.6708  -9.3331  -9.0880  -8.6346  -7.1433  -3.7611  -3.5031  -2.3601
    -1.6045   0.1366   0.3684   2.6665   2.7391   3.7940   4.1845   5.1195
     5.7503   6.1929   6.6257

     occupation numbers 
     1.0000   1.0000   1.0000   1.0000   1.0000   1.0000   1.0000   1.0000
     1.0000   1.0000   1.0000   1.0000   1.0000   1.0000   1.0000   1.0000
     1.0000   1.0000   1.0000   1.0000   1.0000   0.0000   0.0000   0.0000
     0.0000   0.0000   0.0000   0.0000   0.0000   0.0000   0.0000   0.0000
     0.0000   0.0000   0.0000

          k =-0.1250 0.5052 0.0000 ( 11841 PWs)   bands (ev):

   -83.6129 -53.2074 -52.9796 -52.7663 -24.2827 -24.2463 -22.8287 -22.0781
   -16.7282 -16.4406 -13.6173 -13.1110 -12.7156 -12.3312 -12.0396 -10.8062
    -9.9167  -9.2723  -9.0777  -8.5506  -7.2245  -4.1017  -3.4953  -2.0969
    -1.7606  -0.7257  -0.3421   2.7302   3.2502   3.9497   4.3504   5.3746
     6.2328   6.3126   7.0519

     occupation numbers 
     1.0000   1.0000   1.0000   1.0000   1.0000   1.0000   1.0000   1.0000
     1.0000   1.0000   1.0000   1.0000   1.0000   1.0000   1.0000   1.0000
     1.0000   1.0000   1.0000   1.0000   1.0000   0.0000   0.0000   0.0000
     0.0000   0.0000   0.0000   0.0000   0.0000   0.0000   0.0000   0.0000
     0.0000   0.0000   0.0000

          k =-0.3750 0.3608 0.0000 ( 11841 PWs)   bands (ev):

   -83.6129 -53.2074 -52.9796 -52.7663 -24.2827 -24.2463 -22.8286 -22.0781
   -16.7282 -16.4406 -13.6173 -13.1109 -12.7155 -12.3311 -12.0396 -10.8062
    -9.9167  -9.2722  -9.0777  -8.5506  -7.2245  -4.1017  -3.4953  -2.0968
    -1.7606  -0.7257  -0.3421   2.7302   3.2502   3.9497   4.3504   5.3746
     6.2328   6.3125   7.0520

     occupation numbers 
     1.0000   1.0000   1.0000   1.0000   1.0000   1.0000   1.0000   1.0000
     1.0000   1.0000   1.0000   1.0000   1.0000   1.0000   1.0000   1.0000
     1.0000   1.0000   1.0000   1.0000   1.0000   0.0000   0.0000   0.0000
     0.0000   0.0000   0.0000   0.0000   0.0000   0.0000   0.0000   0.0000
     0.0000   0.0000   0.0000

          k = 0.5000 0.1443 0.0000 ( 11841 PWs)   bands (ev):

   -83.6129 -53.2074 -52.9796 -52.7663 -24.2827 -24.2463 -22.8286 -22.0781
   -16.7282 -16.4406 -13.6173 -13.1110 -12.7156 -12.3311 -12.0396 -10.8062
    -9.9167  -9.2723  -9.0777  -8.5506  -7.2245  -4.1017  -3.4953  -2.0969
    -1.7605  -0.7257  -0.3421   2.7302   3.2502   3.9497   4.3504   5.3747
     6.2328   6.3126   7.0519

     occupation numbers 
     1.0000   1.0000   1.0000   1.0000   1.0000   1.0000   1.0000   1.0000
     1.0000   1.0000   1.0000   1.0000   1.0000   1.0000   1.0000   1.0000
     1.0000   1.0000   1.0000   1.0000   1.0000   0.0000   0.0000   0.0000
     0.0000   0.0000   0.0000   0.0000   0.0000   0.0000   0.0000   0.0000
     0.0000   0.0000   0.0000

          k =-0.3750-0.3608 0.0000 ( 11841 PWs)   bands (ev):

   -83.6129 -53.2074 -52.9796 -52.7663 -24.2827 -24.2463 -22.8286 -22.0781
   -16.7282 -16.4406 -13.6173 -13.1109 -12.7156 -12.3312 -12.0396 -10.8062
    -9.9168  -9.2723  -9.0777  -8.5506  -7.2244  -4.1017  -3.4953  -2.0968
    -1.7606  -0.7257  -0.3421   2.7302   3.2502   3.9497   4.3504   5.3746
     6.2328   6.3126   7.0520

     occupation numbers 
     1.0000   1.0000   1.0000   1.0000   1.0000   1.0000   1.0000   1.0000
     1.0000   1.0000   1.0000   1.0000   1.0000   1.0000   1.0000   1.0000
     1.0000   1.0000   1.0000   1.0000   1.0000   0.0000   0.0000   0.0000
     0.0000   0.0000   0.0000   0.0000   0.0000   0.0000   0.0000   0.0000
     0.0000   0.0000   0.0000

          k = 0.5000-0.1443 0.0000 ( 11841 PWs)   bands (ev):

   -83.6129 -53.2074 -52.9796 -52.7663 -24.2827 -24.2463 -22.8286 -22.0781
   -16.7282 -16.4406 -13.6173 -13.1109 -12.7155 -12.3311 -12.0396 -10.8062
    -9.9167  -9.2723  -9.0777  -8.5506  -7.2245  -4.1017  -3.4953  -2.0968
    -1.7606  -0.7257  -0.3421   2.7302   3.2502   3.9497   4.3504   5.3747
     6.2328   6.3126   7.0519

     occupation numbers 
     1.0000   1.0000   1.0000   1.0000   1.0000   1.0000   1.0000   1.0000
     1.0000   1.0000   1.0000   1.0000   1.0000   1.0000   1.0000   1.0000
     1.0000   1.0000   1.0000   1.0000   1.0000   0.0000   0.0000   0.0000
     0.0000   0.0000   0.0000   0.0000   0.0000   0.0000   0.0000   0.0000
     0.0000   0.0000   0.0000

          k =-0.2500 0.4330 0.0000 ( 11844 PWs)   bands (ev):

   -83.6203 -53.1801 -53.1151 -52.6810 -24.3253 -24.2815 -22.8000 -22.0333
   -16.1283 -15.7824 -14.0060 -13.8003 -13.2909 -11.9855 -11.8394 -11.1925
   -10.0833  -9.5803  -9.0446  -8.5276  -7.2916  -4.0404  -3.4120  -2.1606
    -1.6723   0.5041   0.7374   2.6204   3.0279   4.4543   4.7114   5.0800
     5.4748   6.1217   6.8673

     occupation numbers 
     1.0000   1.0000   1.0000   1.0000   1.0000   1.0000   1.0000   1.0000
     1.0000   1.0000   1.0000   1.0000   1.0000   1.0000   1.0000   1.0000
     1.0000   1.0000   1.0000   1.0000   1.0000   0.0000   0.0000   0.0000
     0.0000   0.0000   0.0000   0.0000   0.0000   0.0000   0.0000   0.0000
     0.0000   0.0000   0.0000

          k = 0.5000-0.0000 0.0000 ( 11844 PWs)   bands (ev):

   -83.6203 -53.1801 -53.1151 -52.6810 -24.3253 -24.2815 -22.8000 -22.0333
   -16.1283 -15.7824 -14.0060 -13.8003 -13.2909 -11.9855 -11.8394 -11.1925
   -10.0834  -9.5803  -9.0445  -8.5276  -7.2916  -4.0404  -3.4120  -2.1606
    -1.6723   0.5041   0.7374   2.6204   3.0279   4.4543   4.7114   5.0800
     5.4749   6.1218   6.8672

     occupation numbers 
     1.0000   1.0000   1.0000   1.0000   1.0000   1.0000   1.0000   1.0000
     1.0000   1.0000   1.0000   1.0000   1.0000   1.0000   1.0000   1.0000
     1.0000   1.0000   1.0000   1.0000   1.0000   0.0000   0.0000   0.0000
     0.0000   0.0000   0.0000   0.0000   0.0000   0.0000   0.0000   0.0000
     0.0000   0.0000   0.0000

          k =-0.3750 0.5052 0.0000 ( 11800 PWs)   bands (ev):

   -83.6107 -53.2021 -53.1363 -52.6521 -23.7843 -23.7553 -22.7510 -22.0549
   -16.3801 -16.0488 -14.6485 -14.5202 -12.8126 -12.3662 -12.1143 -10.8410
   -10.5843  -9.9966  -8.9870  -8.3432  -6.9450  -4.4428  -3.2414  -2.0546
    -1.7687   0.2870   0.6832   2.8432   3.2810   4.3313   4.7378   5.2505
     5.8535   6.3473   6.4442

     occupation numbers 
     1.0000   1.0000   1.0000   1.0000   1.0000   1.0000   1.0000   1.0000
     1.0000   1.0000   1.0000   1.0000   1.0000   1.0000   1.0000   1.0000
     1.0000   1.0000   1.0000   1.0000   1.0000   0.0000   0.0000   0.0000
     0.0000   0.0000   0.0000   0.0000   0.0000   0.0000   0.0000   0.0000
     0.0000   0.0000   0.0000

          k = 0.6250 0.0722 0.0000 ( 11800 PWs)   bands (ev):

   -83.6107 -53.2021 -53.1363 -52.6521 -23.7843 -23.7553 -22.7510 -22.0549
   -16.3801 -16.0487 -14.6485 -14.5203 -12.8126 -12.3662 -12.1143 -10.8410
   -10.5844  -9.9966  -8.9870  -8.3433  -6.9450  -4.4428  -3.2414  -2.0546
    -1.7688   0.2869   0.6832   2.8432   3.2810   4.3313   4.7377   5.2505
     5.8535   6.3473   6.4441

     occupation numbers 
     1.0000   1.0000   1.0000   1.0000   1.0000   1.0000   1.0000   1.0000
     1.0000   1.0000   1.0000   1.0000   1.0000   1.0000   1.0000   1.0000
     1.0000   1.0000   1.0000   1.0000   1.0000   0.0000   0.0000   0.0000
     0.0000   0.0000   0.0000   0.0000   0.0000   0.0000   0.0000   0.0000
     0.0000   0.0000   0.0000

     highest occupied, lowest unoccupied level (ev):    -6.5196   -4.4428

!    total energy              =    -263.21044495 Ry
     estimated scf accuracy    <          1.8E-11 Ry

     convergence has been achieved in   8 iterations

     Using ACE for calculation of exact exchange
     ACE projected onto    35 (nbndproj) and applied to    35 (nbnd) bands

     total energy              =    -263.21048104 Ry
     Harris-Foulkes estimate   =    -263.21048104 Ry
     est. exchange err (dexx)  =       0.00003608 Ry
     - averaged Fock potential =      17.83579260 Ry
     + Fock energy (ACE)       =      -8.91851627 Ry

     EXX: now go back to refine exchange calculation

     total cpu time spent up to now is     2190.1 secs

     Self-consistent Calculation

     iteration #  1     ecut=    80.00 Ry     beta= 0.50
     Davidson diagonalization with overlap

---- Real-time Memory Report at c_bands before calling an iterative solver
          2135 MiB given to the printing process from OS
             0 MiB allocation reported by mallinfo(arena+hblkhd)
         13010 MiB available memory on the node where the printing process lives
------------------
     ethr =  5.96E-13,  avg # of iterations =  8.1

     total cpu time spent up to now is     2206.7 secs

     total energy              =    -263.21050246 Ry
     estimated scf accuracy    <       0.00000639 Ry

     iteration #  2     ecut=    80.00 Ry     beta= 0.50
     Davidson diagonalization with overlap

---- Real-time Memory Report at c_bands before calling an iterative solver
          2135 MiB given to the printing process from OS
             0 MiB allocation reported by mallinfo(arena+hblkhd)
         12997 MiB available memory on the node where the printing process lives
------------------
     ethr =  1.52E-08,  avg # of iterations =  2.0

     total cpu time spent up to now is     2213.7 secs

     total energy              =    -263.21050315 Ry
     estimated scf accuracy    <       0.00000047 Ry

     iteration #  3     ecut=    80.00 Ry     beta= 0.50
     Davidson diagonalization with overlap

---- Real-time Memory Report at c_bands before calling an iterative solver
          2135 MiB given to the printing process from OS
             0 MiB allocation reported by mallinfo(arena+hblkhd)
         12993 MiB available memory on the node where the printing process lives
------------------
     ethr =  1.12E-09,  avg # of iterations =  2.0

     total cpu time spent up to now is     2221.2 secs

     total energy              =    -263.21050309 Ry
     estimated scf accuracy    <       0.00000172 Ry

     iteration #  4     ecut=    80.00 Ry     beta= 0.50
     Davidson diagonalization with overlap

---- Real-time Memory Report at c_bands before calling an iterative solver
          2135 MiB given to the printing process from OS
             0 MiB allocation reported by mallinfo(arena+hblkhd)
         12990 MiB available memory on the node where the printing process lives
------------------
     ethr =  1.12E-09,  avg # of iterations =  2.0

     total cpu time spent up to now is     2228.3 secs

     total energy              =    -263.21050332 Ry
     estimated scf accuracy    <       0.00000005 Ry

     iteration #  5     ecut=    80.00 Ry     beta= 0.50
     Davidson diagonalization with overlap

---- Real-time Memory Report at c_bands before calling an iterative solver
          2135 MiB given to the printing process from OS
             0 MiB allocation reported by mallinfo(arena+hblkhd)
         12978 MiB available memory on the node where the printing process lives
------------------
     ethr =  1.31E-10,  avg # of iterations =  2.0

     total cpu time spent up to now is     2235.6 secs

     total energy              =    -263.21050333 Ry
     estimated scf accuracy    <       0.00000006 Ry

     iteration #  6     ecut=    80.00 Ry     beta= 0.50
     Davidson diagonalization with overlap

---- Real-time Memory Report at c_bands before calling an iterative solver
          2135 MiB given to the printing process from OS
             0 MiB allocation reported by mallinfo(arena+hblkhd)
         12968 MiB available memory on the node where the printing process lives
------------------
     ethr =  1.31E-10,  avg # of iterations =  1.6

     total cpu time spent up to now is     2242.4 secs

     total energy              =    -263.21050334 Ry
     estimated scf accuracy    <          6.0E-09 Ry

     iteration #  7     ecut=    80.00 Ry     beta= 0.50
     Davidson diagonalization with overlap

---- Real-time Memory Report at c_bands before calling an iterative solver
          2135 MiB given to the printing process from OS
             0 MiB allocation reported by mallinfo(arena+hblkhd)
         12964 MiB available memory on the node where the printing process lives
------------------
     ethr =  1.43E-11,  avg # of iterations =  1.1

     total cpu time spent up to now is     2248.7 secs

     End of self-consistent calculation

          k = 0.0000 0.0000 0.0000 ( 11937 PWs)   bands (ev):

   -83.5913 -52.8382 -52.7368 -52.7368 -27.0873 -26.9894 -24.3194 -22.7323
   -15.6428 -12.7276 -10.6429 -10.4749 -10.4748 -10.4278 -10.4277  -9.9097
    -9.9097  -8.4972  -8.4969  -8.4929  -6.5431  -2.6833  -2.6830  -2.4493
    -2.4491  -0.2227   0.1102   2.3488   2.3822   2.5004   4.0132   4.0132
     4.0682   4.0683   4.2595

     occupation numbers 
     1.0000   1.0000   1.0000   1.0000   1.0000   1.0000   1.0000   1.0000
     1.0000   1.0000   1.0000   1.0000   1.0000   1.0000   1.0000   1.0000
     1.0000   1.0000   1.0000   1.0000   1.0000   0.0000   0.0000   0.0000
     0.0000   0.0000   0.0000   0.0000   0.0000   0.0000   0.0000   0.0000
     0.0000   0.0000   0.0000

          k = 0.0000 0.1443 0.0000 ( 11905 PWs)   bands (ev):

   -83.6025 -52.9311 -52.7729 -52.7332 -26.7838 -26.6896 -24.0851 -22.6138
   -15.3902 -12.6012 -11.5952 -11.5322 -10.6938 -10.6654 -10.5429 -10.2702
    -9.7598  -8.9015  -8.7618  -8.3059  -6.5745  -2.9408  -2.7463  -2.7231
    -2.3922   0.5045   0.7303   2.4393   2.4913   3.0534   3.2421   3.5272
     4.6767   4.7397   5.1328

     occupation numbers 
     1.0000   1.0000   1.0000   1.0000   1.0000   1.0000   1.0000   1.0000
     1.0000   1.0000   1.0000   1.0000   1.0000   1.0000   1.0000   1.0000
     1.0000   1.0000   1.0000   1.0000   1.0000   0.0000   0.0000   0.0000
     0.0000   0.0000   0.0000   0.0000   0.0000   0.0000   0.0000   0.0000
     0.0000   0.0000   0.0000

          k = 0.0000 0.2887 0.0000 ( 11885 PWs)   bands (ev):

   -83.6134 -53.1848 -52.8397 -52.6461 -25.9787 -25.8987 -23.5249 -22.3339
   -15.0336 -13.8369 -13.4730 -12.2924 -11.5595 -11.2210 -11.2110  -9.9324
    -9.6401  -9.3566  -9.2599  -8.5021  -6.9099  -3.5445  -3.2590  -2.4662
    -1.8656   0.1122   0.3003   2.4283   2.5715   3.4909   3.9960   5.0902
     5.9018   6.1085   6.2877

     occupation numbers 
     1.0000   1.0000   1.0000   1.0000   1.0000   1.0000   1.0000   1.0000
     1.0000   1.0000   1.0000   1.0000   1.0000   1.0000   1.0000   1.0000
     1.0000   1.0000   1.0000   1.0000   1.0000   0.0000   0.0000   0.0000
     0.0000   0.0000   0.0000   0.0000   0.0000   0.0000   0.0000   0.0000
     0.0000   0.0000   0.0000

          k = 0.0000 0.4330 0.0000 ( 11860 PWs)   bands (ev):

   -83.6080 -53.2473 -52.8529 -52.7480 -24.9045 -24.8506 -22.9924 -22.1132
   -16.2453 -15.9318 -13.8331 -12.6005 -12.0669 -11.7475 -11.7153 -10.4108
    -9.8260  -9.4675  -8.7029  -8.6913  -7.1193  -4.0017  -3.6361  -2.2478
    -1.4811  -1.2826  -0.7783   2.4294   2.9890   4.0195   4.2984   5.7875
     6.4118   6.6144   7.1616

     occupation numbers 
     1.0000   1.0000   1.0000   1.0000   1.0000   1.0000   1.0000   1.0000
     1.0000   1.0000   1.0000   1.0000   1.0000   1.0000   1.0000   1.0000
     1.0000   1.0000   1.0000   1.0000   1.0000   0.0000   0.0000   0.0000
     0.0000   0.0000   0.0000   0.0000   0.0000   0.0000   0.0000   0.0000
     0.0000   0.0000   0.0000

          k = 0.0000-0.5774 0.0000 ( 11846 PWs)   bands (ev):

   -83.6036 -53.2046 -52.8638 -52.8582 -24.2403 -24.2133 -22.8622 -22.1271
   -17.1601 -16.8852 -13.5610 -13.0606 -12.1779 -11.9711 -11.9322 -10.6078
   -10.0272  -9.2240  -8.7553  -8.4441  -7.2948  -4.0050  -3.6930  -2.3917
    -1.9002  -1.3503  -1.0645   2.1450   2.7593   4.4227   5.1183   5.8247
     6.1774   6.5196   7.2563

     occupation numbers 
     1.0000   1.0000   1.0000   1.0000   1.0000   1.0000   1.0000   1.0000
     1.0000   1.0000   1.0000   1.0000   1.0000   1.0000   1.0000   1.0000
     1.0000   1.0000   1.0000   1.0000   1.0000   0.0000   0.0000   0.0000
     0.0000   0.0000   0.0000   0.0000   0.0000   0.0000   0.0000   0.0000
     0.0000   0.0000   0.0000

          k = 0.1250 0.2165 0.0000 ( 11867 PWs)   bands (ev):

   -83.6049 -53.1175 -52.8558 -52.6018 -26.2308 -26.1451 -23.6939 -22.4200
   -15.0473 -13.0821 -12.8536 -12.2964 -11.6095 -11.3088 -10.9270  -9.9751
    -9.6577  -9.5509  -9.0128  -8.3598  -6.7857  -3.3789  -3.1023  -2.7088
    -1.9107   1.0466   1.2326   2.0131   2.0272   3.4882   3.6388   4.0482
     5.0937   5.7024   6.4687

     occupation numbers 
     1.0000   1.0000   1.0000   1.0000   1.0000   1.0000   1.0000   1.0000
     1.0000   1.0000   1.0000   1.0000   1.0000   1.0000   1.0000   1.0000
     1.0000   1.0000   1.0000   1.0000   1.0000   0.0000   0.0000   0.0000
     0.0000   0.0000   0.0000   0.0000   0.0000   0.0000   0.0000   0.0000
     0.0000   0.0000   0.0000

          k = 0.1250 0.3608 0.0000 ( 11871 PWs)   bands (ev):

   -83.6075 -53.2129 -52.9575 -52.6135 -25.2713 -25.2051 -23.1396 -22.1592
   -15.4513 -14.9650 -13.7882 -12.5722 -12.2955 -11.9838 -11.6108 -10.5876
    -9.6708  -9.3312  -9.0866  -8.6331  -7.1452  -3.7623  -3.4991  -2.3558
    -1.6010   0.1370   0.3691   2.6668   2.7392   3.7944   4.1849   5.1195
     5.7507   6.1931   6.6256

     occupation numbers 
     1.0000   1.0000   1.0000   1.0000   1.0000   1.0000   1.0000   1.0000
     1.0000   1.0000   1.0000   1.0000   1.0000   1.0000   1.0000   1.0000
     1.0000   1.0000   1.0000   1.0000   1.0000   0.0000   0.0000   0.0000
     0.0000   0.0000   0.0000   0.0000   0.0000   0.0000   0.0000   0.0000
     0.0000   0.0000   0.0000

          k = 0.1250 0.5052 0.0000 ( 11841 PWs)   bands (ev):

   -83.6104 -53.2040 -52.9796 -52.7631 -24.2824 -24.2463 -22.8277 -22.0768
   -16.7280 -16.4403 -13.6166 -13.1101 -12.7153 -12.3308 -12.0380 -10.8044
    -9.9151  -9.2714  -9.0768  -8.5498  -7.2344  -4.1029  -3.4875  -2.0926
    -1.7571  -0.7246  -0.3405   2.7305   3.2506   3.9499   4.3507   5.3749
     6.2332   6.3130   7.0523

     occupation numbers 
     1.0000   1.0000   1.0000   1.0000   1.0000   1.0000   1.0000   1.0000
     1.0000   1.0000   1.0000   1.0000   1.0000   1.0000   1.0000   1.0000
     1.0000   1.0000   1.0000   1.0000   1.0000   0.0000   0.0000   0.0000
     0.0000   0.0000   0.0000   0.0000   0.0000   0.0000   0.0000   0.0000
     0.0000   0.0000   0.0000

          k = 0.2500 0.4330 0.0000 ( 11844 PWs)   bands (ev):

   -83.6180 -53.1788 -53.1183 -52.6733 -24.3249 -24.2814 -22.7988 -22.0317
   -16.1281 -15.7821 -14.0057 -13.8001 -13.2902 -11.9839 -11.8378 -11.1905
   -10.0817  -9.5793  -9.0437  -8.5261  -7.3076  -4.0300  -3.4106  -2.1559
    -1.6695   0.5047   0.7387   2.6204   3.0283   4.4545   4.7117   5.0802
     5.4752   6.1219   6.8653

     occupation numbers 
     1.0000   1.0000   1.0000   1.0000   1.0000   1.0000   1.0000   1.0000
     1.0000   1.0000   1.0000   1.0000   1.0000   1.0000   1.0000   1.0000
     1.0000   1.0000   1.0000   1.0000   1.0000   0.0000   0.0000   0.0000
     0.0000   0.0000   0.0000   0.0000   0.0000   0.0000   0.0000   0.0000
     0.0000   0.0000   0.0000

          k = 0.2500 0.5774 0.0000 ( 11800 PWs)   bands (ev):

   -83.6079 -53.2039 -53.1368 -52.6417 -23.7839 -23.7555 -22.7499 -22.0534
   -16.3800 -16.0485 -14.6482 -14.5201 -12.8131 -12.3641 -12.1120 -10.8404
   -10.5827  -9.9958  -8.9871  -8.3426  -6.9525  -4.4288  -3.2455  -2.0507
    -1.7649   0.2872   0.6846   2.8435   3.2813   4.3314   4.7379   5.2499
     5.8541   6.3475   6.4446

     occupation numbers 
     1.0000   1.0000   1.0000   1.0000   1.0000   1.0000   1.0000   1.0000
     1.0000   1.0000   1.0000   1.0000   1.0000   1.0000   1.0000   1.0000
     1.0000   1.0000   1.0000   1.0000   1.0000   0.0000   0.0000   0.0000
     0.0000   0.0000   0.0000   0.0000   0.0000   0.0000   0.0000   0.0000
     0.0000   0.0000   0.0000

          k =-0.1250 0.0722 0.0000 ( 11905 PWs)   bands (ev):

   -83.6025 -52.9311 -52.7729 -52.7332 -26.7838 -26.6896 -24.0851 -22.6138
   -15.3902 -12.6013 -11.5953 -11.5322 -10.6937 -10.6653 -10.5429 -10.2702
    -9.7598  -8.9016  -8.7616  -8.3060  -6.5745  -2.9408  -2.7462  -2.7230
    -2.3923   0.5045   0.7303   2.4393   2.4913   3.0534   3.2421   3.5272
     4.6767   4.7397   5.1328

     occupation numbers 
     1.0000   1.0000   1.0000   1.0000   1.0000   1.0000   1.0000   1.0000
     1.0000   1.0000   1.0000   1.0000   1.0000   1.0000   1.0000   1.0000
     1.0000   1.0000   1.0000   1.0000   1.0000   0.0000   0.0000   0.0000
     0.0000   0.0000   0.0000   0.0000   0.0000   0.0000   0.0000   0.0000
     0.0000   0.0000   0.0000

          k = 0.1250 0.0722 0.0000 ( 11905 PWs)   bands (ev):

   -83.6025 -52.9311 -52.7729 -52.7332 -26.7838 -26.6896 -24.0851 -22.6138
   -15.3902 -12.6012 -11.5952 -11.5322 -10.6938 -10.6654 -10.5429 -10.2702
    -9.7598  -8.9015  -8.7618  -8.3059  -6.5745  -2.9408  -2.7463  -2.7231
    -2.3922   0.5046   0.7303   2.4393   2.4913   3.0534   3.2421   3.5272
     4.6767   4.7397   5.1328

     occupation numbers 
     1.0000   1.0000   1.0000   1.0000   1.0000   1.0000   1.0000   1.0000
     1.0000   1.0000   1.0000   1.0000   1.0000   1.0000   1.0000   1.0000
     1.0000   1.0000   1.0000   1.0000   1.0000   0.0000   0.0000   0.0000
     0.0000   0.0000   0.0000   0.0000   0.0000   0.0000   0.0000   0.0000
     0.0000   0.0000   0.0000

          k =-0.2500 0.1443 0.0000 ( 11885 PWs)   bands (ev):

   -83.6134 -53.1848 -52.8397 -52.6461 -25.9787 -25.8987 -23.5248 -22.3339
   -15.0336 -13.8370 -13.4730 -12.2925 -11.5595 -11.2209 -11.2109  -9.9325
    -9.6400  -9.3565  -9.2598  -8.5021  -6.9100  -3.5446  -3.2589  -2.4662
    -1.8657   0.1123   0.3003   2.4283   2.5715   3.4909   3.9959   5.0902
     5.9018   6.1085   6.2877

     occupation numbers 
     1.0000   1.0000   1.0000   1.0000   1.0000   1.0000   1.0000   1.0000
     1.0000   1.0000   1.0000   1.0000   1.0000   1.0000   1.0000   1.0000
     1.0000   1.0000   1.0000   1.0000   1.0000   0.0000   0.0000   0.0000
     0.0000   0.0000   0.0000   0.0000   0.0000   0.0000   0.0000   0.0000
     0.0000   0.0000   0.0000

          k = 0.2500 0.1443 0.0000 ( 11885 PWs)   bands (ev):

   -83.6134 -53.1848 -52.8397 -52.6461 -25.9787 -25.8987 -23.5249 -22.3339
   -15.0336 -13.8369 -13.4730 -12.2924 -11.5595 -11.2210 -11.2110  -9.9325
    -9.6400  -9.3566  -9.2599  -8.5021  -6.9099  -3.5445  -3.2590  -2.4662
    -1.8656   0.1123   0.3003   2.4283   2.5715   3.4909   3.9959   5.0902
     5.9018   6.1084   6.2877

     occupation numbers 
     1.0000   1.0000   1.0000   1.0000   1.0000   1.0000   1.0000   1.0000
     1.0000   1.0000   1.0000   1.0000   1.0000   1.0000   1.0000   1.0000
     1.0000   1.0000   1.0000   1.0000   1.0000   0.0000   0.0000   0.0000
     0.0000   0.0000   0.0000   0.0000   0.0000   0.0000   0.0000   0.0000
     0.0000   0.0000   0.0000

          k =-0.3750 0.2165 0.0000 ( 11860 PWs)   bands (ev):

   -83.6080 -53.2473 -52.8529 -52.7480 -24.9045 -24.8506 -22.9924 -22.1132
   -16.2454 -15.9318 -13.8331 -12.6006 -12.0669 -11.7475 -11.7152 -10.4108
    -9.8258  -9.4674  -8.7028  -8.6913  -7.1194  -4.0018  -3.6361  -2.2477
    -1.4811  -1.2826  -0.7783   2.4294   2.9890   4.0194   4.2984   5.7876
     6.4118   6.6144   7.1616

     occupation numbers 
     1.0000   1.0000   1.0000   1.0000   1.0000   1.0000   1.0000   1.0000
     1.0000   1.0000   1.0000   1.0000   1.0000   1.0000   1.0000   1.0000
     1.0000   1.0000   1.0000   1.0000   1.0000   0.0000   0.0000   0.0000
     0.0000   0.0000   0.0000   0.0000   0.0000   0.0000   0.0000   0.0000
     0.0000   0.0000   0.0000

          k = 0.3750 0.2165 0.0000 ( 11860 PWs)   bands (ev):

   -83.6080 -53.2473 -52.8529 -52.7480 -24.9045 -24.8506 -22.9924 -22.1132
   -16.2453 -15.9318 -13.8331 -12.6005 -12.0669 -11.7475 -11.7153 -10.4109
    -9.8260  -9.4674  -8.7029  -8.6913  -7.1193  -4.0017  -3.6361  -2.2478
    -1.4811  -1.2826  -0.7783   2.4293   2.9890   4.0194   4.2984   5.7875
     6.4119   6.6144   7.1616

     occupation numbers 
     1.0000   1.0000   1.0000   1.0000   1.0000   1.0000   1.0000   1.0000
     1.0000   1.0000   1.0000   1.0000   1.0000   1.0000   1.0000   1.0000
     1.0000   1.0000   1.0000   1.0000   1.0000   0.0000   0.0000   0.0000
     0.0000   0.0000   0.0000   0.0000   0.0000   0.0000   0.0000   0.0000
     0.0000   0.0000   0.0000

          k = 0.5000-0.2887 0.0000 ( 11846 PWs)   bands (ev):

   -83.6036 -53.2046 -52.8638 -52.8582 -24.2403 -24.2133 -22.8622 -22.1271
   -17.1601 -16.8852 -13.5610 -13.0606 -12.1779 -11.9710 -11.9321 -10.6078
   -10.0270  -9.2240  -8.7554  -8.4439  -7.2949  -4.0051  -3.6931  -2.3917
    -1.9002  -1.3503  -1.0645   2.1450   2.7593   4.4227   5.1183   5.8247
     6.1773   6.5196   7.2563

     occupation numbers 
     1.0000   1.0000   1.0000   1.0000   1.0000   1.0000   1.0000   1.0000
     1.0000   1.0000   1.0000   1.0000   1.0000   1.0000   1.0000   1.0000
     1.0000   1.0000   1.0000   1.0000   1.0000   0.0000   0.0000   0.0000
     0.0000   0.0000   0.0000   0.0000   0.0000   0.0000   0.0000   0.0000
     0.0000   0.0000   0.0000

          k =-0.5000-0.2887 0.0000 ( 11846 PWs)   bands (ev):

   -83.6036 -53.2046 -52.8638 -52.8582 -24.2403 -24.2133 -22.8622 -22.1271
   -17.1601 -16.8852 -13.5610 -13.0606 -12.1779 -11.9711 -11.9322 -10.6078
   -10.0272  -9.2240  -8.7553  -8.4441  -7.2948  -4.0050  -3.6930  -2.3917
    -1.9002  -1.3503  -1.0645   2.1450   2.7593   4.4227   5.1183   5.8247
     6.1774   6.5196   7.2563

     occupation numbers 
     1.0000   1.0000   1.0000   1.0000   1.0000   1.0000   1.0000   1.0000
     1.0000   1.0000   1.0000   1.0000   1.0000   1.0000   1.0000   1.0000
     1.0000   1.0000   1.0000   1.0000   1.0000   0.0000   0.0000   0.0000
     0.0000   0.0000   0.0000   0.0000   0.0000   0.0000   0.0000   0.0000
     0.0000   0.0000   0.0000

          k =-0.1250 0.2165 0.0000 ( 11867 PWs)   bands (ev):

   -83.6049 -53.1175 -52.8558 -52.6018 -26.2308 -26.1451 -23.6939 -22.4200
   -15.0473 -13.0821 -12.8536 -12.2964 -11.6095 -11.3087 -10.9269  -9.9751
    -9.6577  -9.5508  -9.0128  -8.3598  -6.7858  -3.3789  -3.1023  -2.7088
    -1.9108   1.0466   1.2326   2.0132   2.0272   3.4882   3.6388   4.0482
     5.0937   5.7025   6.4687

     occupation numbers 
     1.0000   1.0000   1.0000   1.0000   1.0000   1.0000   1.0000   1.0000
     1.0000   1.0000   1.0000   1.0000   1.0000   1.0000   1.0000   1.0000
     1.0000   1.0000   1.0000   1.0000   1.0000   0.0000   0.0000   0.0000
     0.0000   0.0000   0.0000   0.0000   0.0000   0.0000   0.0000   0.0000
     0.0000   0.0000   0.0000

          k = 0.2500-0.0000 0.0000 ( 11867 PWs)   bands (ev):

   -83.6049 -53.1175 -52.8558 -52.6018 -26.2308 -26.1451 -23.6939 -22.4200
   -15.0473 -13.0821 -12.8536 -12.2964 -11.6095 -11.3087 -10.9269  -9.9751
    -9.6577  -9.5508  -9.0128  -8.3598  -6.7858  -3.3789  -3.1024  -2.7088
    -1.9108   1.0466   1.2326   2.0132   2.0272   3.4882   3.6388   4.0482
     5.0936   5.7025   6.4688

     occupation numbers 
     1.0000   1.0000   1.0000   1.0000   1.0000   1.0000   1.0000   1.0000
     1.0000   1.0000   1.0000   1.0000   1.0000   1.0000   1.0000   1.0000
     1.0000   1.0000   1.0000   1.0000   1.0000   0.0000   0.0000   0.0000
     0.0000   0.0000   0.0000   0.0000   0.0000   0.0000   0.0000   0.0000
     0.0000   0.0000   0.0000

          k =-0.1250 0.3608 0.0000 ( 11871 PWs)   bands (ev):

   -83.6075 -53.2129 -52.9575 -52.6135 -25.2713 -25.2051 -23.1396 -22.1592
   -15.4513 -14.9650 -13.7882 -12.5721 -12.2954 -11.9838 -11.6108 -10.5875
    -9.6708  -9.3312  -9.0866  -8.6331  -7.1452  -3.7623  -3.4991  -2.3558
    -1.6009   0.1370   0.3691   2.6667   2.7392   3.7944   4.1849   5.1196
     5.7507   6.1931   6.6256

     occupation numbers 
     1.0000   1.0000   1.0000   1.0000   1.0000   1.0000   1.0000   1.0000
     1.0000   1.0000   1.0000   1.0000   1.0000   1.0000   1.0000   1.0000
     1.0000   1.0000   1.0000   1.0000   1.0000   0.0000   0.0000   0.0000
     0.0000   0.0000   0.0000   0.0000   0.0000   0.0000   0.0000   0.0000
     0.0000   0.0000   0.0000

          k =-0.2500 0.2887 0.0000 ( 11871 PWs)   bands (ev):

   -83.6075 -53.2129 -52.9575 -52.6135 -25.2713 -25.2051 -23.1396 -22.1592
   -15.4513 -14.9650 -13.7883 -12.5721 -12.2954 -11.9838 -11.6108 -10.5875
    -9.6708  -9.3312  -9.0865  -8.6332  -7.1452  -3.7624  -3.4991  -2.3558
    -1.6009   0.1370   0.3691   2.6668   2.7393   3.7943   4.1848   5.1196
     5.7507   6.1931   6.6256

     occupation numbers 
     1.0000   1.0000   1.0000   1.0000   1.0000   1.0000   1.0000   1.0000
     1.0000   1.0000   1.0000   1.0000   1.0000   1.0000   1.0000   1.0000
     1.0000   1.0000   1.0000   1.0000   1.0000   0.0000   0.0000   0.0000
     0.0000   0.0000   0.0000   0.0000   0.0000   0.0000   0.0000   0.0000
     0.0000   0.0000   0.0000

          k = 0.3750 0.0722 0.0000 ( 11871 PWs)   bands (ev):

   -83.6075 -53.2129 -52.9575 -52.6135 -25.2713 -25.2051 -23.1396 -22.1592
   -15.4513 -14.9650 -13.7883 -12.5721 -12.2954 -11.9838 -11.6108 -10.5876
    -9.6708  -9.3312  -9.0865  -8.6331  -7.1452  -3.7623  -3.4991  -2.3558
    -1.6009   0.1370   0.3691   2.6667   2.7392   3.7944   4.1848   5.1196
     5.7506   6.1932   6.6256

     occupation numbers 
     1.0000   1.0000   1.0000   1.0000   1.0000   1.0000   1.0000   1.0000
     1.0000   1.0000   1.0000   1.0000   1.0000   1.0000   1.0000   1.0000
     1.0000   1.0000   1.0000   1.0000   1.0000   0.0000   0.0000   0.0000
     0.0000   0.0000   0.0000   0.0000   0.0000   0.0000   0.0000   0.0000
     0.0000   0.0000   0.0000

          k =-0.2500-0.2887 0.0000 ( 11871 PWs)   bands (ev):

   -83.6075 -53.2129 -52.9575 -52.6135 -25.2713 -25.2051 -23.1396 -22.1592
   -15.4513 -14.9650 -13.7882 -12.5722 -12.2955 -11.9838 -11.6108 -10.5876
    -9.6708  -9.3312  -9.0866  -8.6332  -7.1452  -3.7623  -3.4991  -2.3558
    -1.6010   0.1370   0.3691   2.6668   2.7393   3.7943   4.1848   5.1195
     5.7507   6.1931   6.6256

     occupation numbers 
     1.0000   1.0000   1.0000   1.0000   1.0000   1.0000   1.0000   1.0000
     1.0000   1.0000   1.0000   1.0000   1.0000   1.0000   1.0000   1.0000
     1.0000   1.0000   1.0000   1.0000   1.0000   0.0000   0.0000   0.0000
     0.0000   0.0000   0.0000   0.0000   0.0000   0.0000   0.0000   0.0000
     0.0000   0.0000   0.0000

          k = 0.3750-0.0722 0.0000 ( 11871 PWs)   bands (ev):

   -83.6075 -53.2129 -52.9575 -52.6135 -25.2713 -25.2051 -23.1396 -22.1592
   -15.4513 -14.9650 -13.7883 -12.5721 -12.2954 -11.9838 -11.6108 -10.5875
    -9.6708  -9.3312  -9.0865  -8.6332  -7.1452  -3.7624  -3.4991  -2.3558
    -1.6009   0.1370   0.3691   2.6668   2.7392   3.7944   4.1848   5.1196
     5.7506   6.1932   6.6256

     occupation numbers 
     1.0000   1.0000   1.0000   1.0000   1.0000   1.0000   1.0000   1.0000
     1.0000   1.0000   1.0000   1.0000   1.0000   1.0000   1.0000   1.0000
     1.0000   1.0000   1.0000   1.0000   1.0000   0.0000   0.0000   0.0000
     0.0000   0.0000   0.0000   0.0000   0.0000   0.0000   0.0000   0.0000
     0.0000   0.0000   0.0000

          k =-0.1250 0.5052 0.0000 ( 11841 PWs)   bands (ev):

   -83.6104 -53.2040 -52.9796 -52.7631 -24.2824 -24.2463 -22.8277 -22.0768
   -16.7280 -16.4403 -13.6166 -13.1101 -12.7153 -12.3308 -12.0380 -10.8045
    -9.9151  -9.2714  -9.0768  -8.5498  -7.2344  -4.1029  -3.4874  -2.0927
    -1.7571  -0.7246  -0.3405   2.7305   3.2506   3.9499   4.3507   5.3750
     6.2333   6.3129   7.0523

     occupation numbers 
     1.0000   1.0000   1.0000   1.0000   1.0000   1.0000   1.0000   1.0000
     1.0000   1.0000   1.0000   1.0000   1.0000   1.0000   1.0000   1.0000
     1.0000   1.0000   1.0000   1.0000   1.0000   0.0000   0.0000   0.0000
     0.0000   0.0000   0.0000   0.0000   0.0000   0.0000   0.0000   0.0000
     0.0000   0.0000   0.0000

          k =-0.3750 0.3608 0.0000 ( 11841 PWs)   bands (ev):

   -83.6104 -53.2040 -52.9796 -52.7631 -24.2824 -24.2463 -22.8277 -22.0768
   -16.7280 -16.4404 -13.6166 -13.1101 -12.7153 -12.3308 -12.0380 -10.8044
    -9.9151  -9.2714  -9.0768  -8.5498  -7.2344  -4.1029  -3.4875  -2.0926
    -1.7571  -0.7246  -0.3405   2.7305   3.2506   3.9499   4.3507   5.3749
     6.2332   6.3129   7.0524

     occupation numbers 
     1.0000   1.0000   1.0000   1.0000   1.0000   1.0000   1.0000   1.0000
     1.0000   1.0000   1.0000   1.0000   1.0000   1.0000   1.0000   1.0000
     1.0000   1.0000   1.0000   1.0000   1.0000   0.0000   0.0000   0.0000
     0.0000   0.0000   0.0000   0.0000   0.0000   0.0000   0.0000   0.0000
     0.0000   0.0000   0.0000

          k = 0.5000 0.1443 0.0000 ( 11841 PWs)   bands (ev):

   -83.6104 -53.2040 -52.9796 -52.7631 -24.2824 -24.2463 -22.8277 -22.0768
   -16.7280 -16.4403 -13.6166 -13.1101 -12.7153 -12.3308 -12.0380 -10.8045
    -9.9151  -9.2714  -9.0768  -8.5498  -7.2344  -4.1029  -3.4875  -2.0927
    -1.7571  -0.7246  -0.3405   2.7305   3.2506   3.9499   4.3507   5.3750
     6.2333   6.3130   7.0523

     occupation numbers 
     1.0000   1.0000   1.0000   1.0000   1.0000   1.0000   1.0000   1.0000
     1.0000   1.0000   1.0000   1.0000   1.0000   1.0000   1.0000   1.0000
     1.0000   1.0000   1.0000   1.0000   1.0000   0.0000   0.0000   0.0000
     0.0000   0.0000   0.0000   0.0000   0.0000   0.0000   0.0000   0.0000
     0.0000   0.0000   0.0000

          k =-0.3750-0.3608 0.0000 ( 11841 PWs)   bands (ev):

   -83.6104 -53.2040 -52.9796 -52.7631 -24.2824 -24.2463 -22.8277 -22.0768
   -16.7280 -16.4403 -13.6166 -13.1101 -12.7153 -12.3308 -12.0380 -10.8045
    -9.9151  -9.2714  -9.0768  -8.5498  -7.2344  -4.1029  -3.4875  -2.0926
    -1.7571  -0.7246  -0.3405   2.7305   3.2506   3.9499   4.3507   5.3749
     6.2332   6.3130   7.0524

     occupation numbers 
     1.0000   1.0000   1.0000   1.0000   1.0000   1.0000   1.0000   1.0000
     1.0000   1.0000   1.0000   1.0000   1.0000   1.0000   1.0000   1.0000
     1.0000   1.0000   1.0000   1.0000   1.0000   0.0000   0.0000   0.0000
     0.0000   0.0000   0.0000   0.0000   0.0000   0.0000   0.0000   0.0000
     0.0000   0.0000   0.0000

          k = 0.5000-0.1443 0.0000 ( 11841 PWs)   bands (ev):

   -83.6104 -53.2040 -52.9796 -52.7631 -24.2824 -24.2463 -22.8277 -22.0768
   -16.7280 -16.4404 -13.6166 -13.1101 -12.7153 -12.3308 -12.0380 -10.8044
    -9.9151  -9.2714  -9.0768  -8.5498  -7.2344  -4.1029  -3.4875  -2.0926
    -1.7571  -0.7246  -0.3405   2.7305   3.2506   3.9499   4.3507   5.3750
     6.2332   6.3129   7.0523

     occupation numbers 
     1.0000   1.0000   1.0000   1.0000   1.0000   1.0000   1.0000   1.0000
     1.0000   1.0000   1.0000   1.0000   1.0000   1.0000   1.0000   1.0000
     1.0000   1.0000   1.0000   1.0000   1.0000   0.0000   0.0000   0.0000
     0.0000   0.0000   0.0000   0.0000   0.0000   0.0000   0.0000   0.0000
     0.0000   0.0000   0.0000

          k =-0.2500 0.4330 0.0000 ( 11844 PWs)   bands (ev):

   -83.6180 -53.1788 -53.1182 -52.6733 -24.3249 -24.2814 -22.7988 -22.0317
   -16.1282 -15.7822 -14.0057 -13.8000 -13.2902 -11.9838 -11.8377 -11.1905
   -10.0816  -9.5792  -9.0437  -8.5261  -7.3077  -4.0300  -3.4107  -2.1559
    -1.6694   0.5047   0.7387   2.6204   3.0282   4.4546   4.7117   5.0802
     5.4751   6.1220   6.8653

     occupation numbers 
     1.0000   1.0000   1.0000   1.0000   1.0000   1.0000   1.0000   1.0000
     1.0000   1.0000   1.0000   1.0000   1.0000   1.0000   1.0000   1.0000
     1.0000   1.0000   1.0000   1.0000   1.0000   0.0000   0.0000   0.0000
     0.0000   0.0000   0.0000   0.0000   0.0000   0.0000   0.0000   0.0000
     0.0000   0.0000   0.0000

          k = 0.5000-0.0000 0.0000 ( 11844 PWs)   bands (ev):

   -83.6180 -53.1788 -53.1182 -52.6733 -24.3249 -24.2814 -22.7988 -22.0317
   -16.1282 -15.7822 -14.0057 -13.8000 -13.2902 -11.9838 -11.8377 -11.1905
   -10.0816  -9.5792  -9.0437  -8.5261  -7.3077  -4.0300  -3.4107  -2.1559
    -1.6694   0.5047   0.7387   2.6204   3.0282   4.4546   4.7117   5.0803
     5.4751   6.1220   6.8653

     occupation numbers 
     1.0000   1.0000   1.0000   1.0000   1.0000   1.0000   1.0000   1.0000
     1.0000   1.0000   1.0000   1.0000   1.0000   1.0000   1.0000   1.0000
     1.0000   1.0000   1.0000   1.0000   1.0000   0.0000   0.0000   0.0000
     0.0000   0.0000   0.0000   0.0000   0.0000   0.0000   0.0000   0.0000
     0.0000   0.0000   0.0000

          k =-0.3750 0.5052 0.0000 ( 11800 PWs)   bands (ev):

   -83.6079 -53.2039 -53.1368 -52.6417 -23.7839 -23.7555 -22.7499 -22.0534
   -16.3800 -16.0485 -14.6482 -14.5200 -12.8131 -12.3642 -12.1120 -10.8403
   -10.5827  -9.9958  -8.9871  -8.3426  -6.9525  -4.4288  -3.2455  -2.0507
    -1.7648   0.2872   0.6846   2.8435   3.2813   4.3314   4.7379   5.2499
     5.8539   6.3475   6.4446

     occupation numbers 
     1.0000   1.0000   1.0000   1.0000   1.0000   1.0000   1.0000   1.0000
     1.0000   1.0000   1.0000   1.0000   1.0000   1.0000   1.0000   1.0000
     1.0000   1.0000   1.0000   1.0000   1.0000   0.0000   0.0000   0.0000
     0.0000   0.0000   0.0000   0.0000   0.0000   0.0000   0.0000   0.0000
     0.0000   0.0000   0.0000

          k = 0.6250 0.0722 0.0000 ( 11800 PWs)   bands (ev):

   -83.6079 -53.2039 -53.1368 -52.6417 -23.7839 -23.7555 -22.7499 -22.0534
   -16.3800 -16.0485 -14.6482 -14.5201 -12.8131 -12.3641 -12.1120 -10.8404
   -10.5827  -9.9958  -8.9871  -8.3426  -6.9525  -4.4288  -3.2455  -2.0507
    -1.7649   0.2872   0.6846   2.8435   3.2813   4.3314   4.7379   5.2499
     5.8540   6.3476   6.4446

     occupation numbers 
     1.0000   1.0000   1.0000   1.0000   1.0000   1.0000   1.0000   1.0000
     1.0000   1.0000   1.0000   1.0000   1.0000   1.0000   1.0000   1.0000
     1.0000   1.0000   1.0000   1.0000   1.0000   0.0000   0.0000   0.0000
     0.0000   0.0000   0.0000   0.0000   0.0000   0.0000   0.0000   0.0000
     0.0000   0.0000   0.0000

     highest occupied, lowest unoccupied level (ev):    -6.5431   -4.4288

!    total energy              =    -263.21050334 Ry
     estimated scf accuracy    <          8.1E-11 Ry

     convergence has been achieved in   7 iterations

     Using ACE for calculation of exact exchange
     ACE projected onto    35 (nbndproj) and applied to    35 (nbnd) bands

     total energy              =    -263.21051730 Ry
     Harris-Foulkes estimate   =    -263.21051730 Ry
     est. exchange err (dexx)  =       0.00001396 Ry
     - averaged Fock potential =      17.83774906 Ry
     + Fock energy (ACE)       =      -8.91924675 Ry

     EXX: now go back to refine exchange calculation

     total cpu time spent up to now is     2589.1 secs

     Self-consistent Calculation

     iteration #  1     ecut=    80.00 Ry     beta= 0.50
     Davidson diagonalization with overlap

---- Real-time Memory Report at c_bands before calling an iterative solver
          2135 MiB given to the printing process from OS
             0 MiB allocation reported by mallinfo(arena+hblkhd)
         13013 MiB available memory on the node where the printing process lives
------------------
     ethr =  1.43E-11,  avg # of iterations =  5.7

     total cpu time spent up to now is     2600.9 secs

     total energy              =    -263.21052584 Ry
     estimated scf accuracy    <       0.00000201 Ry

     iteration #  2     ecut=    80.00 Ry     beta= 0.50
     Davidson diagonalization with overlap

---- Real-time Memory Report at c_bands before calling an iterative solver
          2135 MiB given to the printing process from OS
             0 MiB allocation reported by mallinfo(arena+hblkhd)
         12988 MiB available memory on the node where the printing process lives
------------------
     ethr =  4.79E-09,  avg # of iterations =  2.0

     total cpu time spent up to now is     2607.9 secs

     total energy              =    -263.21052605 Ry
     estimated scf accuracy    <       0.00000018 Ry

     iteration #  3     ecut=    80.00 Ry     beta= 0.50
     Davidson diagonalization with overlap

---- Real-time Memory Report at c_bands before calling an iterative solver
          2135 MiB given to the printing process from OS
             0 MiB allocation reported by mallinfo(arena+hblkhd)
         12988 MiB available memory on the node where the printing process lives
------------------
     ethr =  4.31E-10,  avg # of iterations =  2.0

     total cpu time spent up to now is     2615.4 secs

     total energy              =    -263.21052603 Ry
     estimated scf accuracy    <       0.00000069 Ry

     iteration #  4     ecut=    80.00 Ry     beta= 0.50
     Davidson diagonalization with overlap

---- Real-time Memory Report at c_bands before calling an iterative solver
          2135 MiB given to the printing process from OS
             0 MiB allocation reported by mallinfo(arena+hblkhd)
         12979 MiB available memory on the node where the printing process lives
------------------
     ethr =  4.31E-10,  avg # of iterations =  2.0

     total cpu time spent up to now is     2622.5 secs

     total energy              =    -263.21052612 Ry
     estimated scf accuracy    <       0.00000002 Ry

     iteration #  5     ecut=    80.00 Ry     beta= 0.50
     Davidson diagonalization with overlap

---- Real-time Memory Report at c_bands before calling an iterative solver
          2135 MiB given to the printing process from OS
             0 MiB allocation reported by mallinfo(arena+hblkhd)
         12979 MiB available memory on the node where the printing process lives
------------------
     ethr =  4.49E-11,  avg # of iterations =  2.0

     total cpu time spent up to now is     2629.7 secs

     total energy              =    -263.21052612 Ry
     estimated scf accuracy    <       0.00000002 Ry

     iteration #  6     ecut=    80.00 Ry     beta= 0.50
     Davidson diagonalization with overlap

---- Real-time Memory Report at c_bands before calling an iterative solver
          2135 MiB given to the printing process from OS
             0 MiB allocation reported by mallinfo(arena+hblkhd)
         12978 MiB available memory on the node where the printing process lives
------------------
     ethr =  4.49E-11,  avg # of iterations =  1.6

     total cpu time spent up to now is     2636.4 secs

     total energy              =    -263.21052612 Ry
     estimated scf accuracy    <          1.6E-09 Ry

     iteration #  7     ecut=    80.00 Ry     beta= 0.50
     Davidson diagonalization with overlap

---- Real-time Memory Report at c_bands before calling an iterative solver
          2135 MiB given to the printing process from OS
             0 MiB allocation reported by mallinfo(arena+hblkhd)
         12977 MiB available memory on the node where the printing process lives
------------------
     ethr =  3.92E-12,  avg # of iterations =  1.3

     total cpu time spent up to now is     2642.8 secs

     End of self-consistent calculation

          k = 0.0000 0.0000 0.0000 ( 11937 PWs)   bands (ev):

   -83.5901 -52.8393 -52.7353 -52.7353 -27.0870 -26.9891 -24.3187 -22.7316
   -15.6431 -12.7272 -10.6439 -10.4747 -10.4746 -10.4278 -10.4277  -9.9079
    -9.9078  -8.4955  -8.4952  -8.4921  -6.5561  -2.6811  -2.6808  -2.4460
    -2.4459  -0.2225   0.1105   2.3490   2.3824   2.5015   4.0135   4.0135
     4.0684   4.0684   4.2602

     occupation numbers 
     1.0000   1.0000   1.0000   1.0000   1.0000   1.0000   1.0000   1.0000
     1.0000   1.0000   1.0000   1.0000   1.0000   1.0000   1.0000   1.0000
     1.0000   1.0000   1.0000   1.0000   1.0000   0.0000   0.0000   0.0000
     0.0000   0.0000   0.0000   0.0000   0.0000   0.0000   0.0000   0.0000
     0.0000   0.0000   0.0000

          k = 0.0000 0.1443 0.0000 ( 11905 PWs)   bands (ev):

   -83.6010 -52.9319 -52.7696 -52.7321 -26.7836 -26.6895 -24.0844 -22.6129
   -15.3906 -12.6009 -11.5951 -11.5321 -10.6936 -10.6654 -10.5419 -10.2708
    -9.7581  -8.9001  -8.7602  -8.3049  -6.5799  -2.9408  -2.7439  -2.7199
    -2.3903   0.5045   0.7305   2.4393   2.4914   3.0537   3.2423   3.5276
     4.6771   4.7397   5.1333

     occupation numbers 
     1.0000   1.0000   1.0000   1.0000   1.0000   1.0000   1.0000   1.0000
     1.0000   1.0000   1.0000   1.0000   1.0000   1.0000   1.0000   1.0000
     1.0000   1.0000   1.0000   1.0000   1.0000   0.0000   0.0000   0.0000
     0.0000   0.0000   0.0000   0.0000   0.0000   0.0000   0.0000   0.0000
     0.0000   0.0000   0.0000

          k = 0.0000 0.2887 0.0000 ( 11885 PWs)   bands (ev):

   -83.6119 -53.1888 -52.8369 -52.6414 -25.9784 -25.8986 -23.5242 -22.3330
   -15.0333 -13.8368 -13.4729 -12.2919 -11.5609 -11.2208 -11.2110  -9.9326
    -9.6392  -9.3552  -9.2579  -8.5008  -6.9091  -3.5498  -3.2545  -2.4636
    -1.8642   0.1121   0.3006   2.4284   2.5716   3.4912   3.9962   5.0903
     5.9019   6.1088   6.2878

     occupation numbers 
     1.0000   1.0000   1.0000   1.0000   1.0000   1.0000   1.0000   1.0000
     1.0000   1.0000   1.0000   1.0000   1.0000   1.0000   1.0000   1.0000
     1.0000   1.0000   1.0000   1.0000   1.0000   0.0000   0.0000   0.0000
     0.0000   0.0000   0.0000   0.0000   0.0000   0.0000   0.0000   0.0000
     0.0000   0.0000   0.0000

          k = 0.0000 0.4330 0.0000 ( 11860 PWs)   bands (ev):

   -83.6064 -53.2479 -52.8497 -52.7464 -24.9044 -24.8505 -22.9918 -22.1124
   -16.2452 -15.9317 -13.8322 -12.6004 -12.0663 -11.7474 -11.7153 -10.4103
    -9.8245  -9.4669  -8.7016  -8.6902  -7.1229  -4.0063  -3.6322  -2.2454
    -1.4790  -1.2823  -0.7773   2.4295   2.9893   4.0196   4.2987   5.7879
     6.4120   6.6147   7.1619

     occupation numbers 
     1.0000   1.0000   1.0000   1.0000   1.0000   1.0000   1.0000   1.0000
     1.0000   1.0000   1.0000   1.0000   1.0000   1.0000   1.0000   1.0000
     1.0000   1.0000   1.0000   1.0000   1.0000   0.0000   0.0000   0.0000
     0.0000   0.0000   0.0000   0.0000   0.0000   0.0000   0.0000   0.0000
     0.0000   0.0000   0.0000

          k = 0.0000-0.5774 0.0000 ( 11846 PWs)   bands (ev):

   -83.6022 -53.2026 -52.8638 -52.8572 -24.2401 -24.2132 -22.8618 -22.1265
   -17.1599 -16.8850 -13.5602 -13.0604 -12.1772 -11.9709 -11.9322 -10.6069
   -10.0257  -9.2235  -8.7548  -8.4437  -7.3024  -4.0078  -3.6876  -2.3900
    -1.8996  -1.3479  -1.0630   2.1453   2.7596   4.4229   5.1185   5.8252
     6.1776   6.5199   7.2566

     occupation numbers 
     1.0000   1.0000   1.0000   1.0000   1.0000   1.0000   1.0000   1.0000
     1.0000   1.0000   1.0000   1.0000   1.0000   1.0000   1.0000   1.0000
     1.0000   1.0000   1.0000   1.0000   1.0000   0.0000   0.0000   0.0000
     0.0000   0.0000   0.0000   0.0000   0.0000   0.0000   0.0000   0.0000
     0.0000   0.0000   0.0000

          k = 0.1250 0.2165 0.0000 ( 11867 PWs)   bands (ev):

   -83.6031 -53.1203 -52.8533 -52.5964 -26.2306 -26.1450 -23.6933 -22.4191
   -15.0467 -13.0820 -12.8535 -12.2960 -11.6093 -11.3088 -10.9268  -9.9746
    -9.6582  -9.5514  -9.0114  -8.3586  -6.7842  -3.3851  -3.0959  -2.7067
    -1.9083   1.0470   1.2328   2.0132   2.0272   3.4883   3.6388   4.0483
     5.0941   5.7025   6.4689

     occupation numbers 
     1.0000   1.0000   1.0000   1.0000   1.0000   1.0000   1.0000   1.0000
     1.0000   1.0000   1.0000   1.0000   1.0000   1.0000   1.0000   1.0000
     1.0000   1.0000   1.0000   1.0000   1.0000   0.0000   0.0000   0.0000
     0.0000   0.0000   0.0000   0.0000   0.0000   0.0000   0.0000   0.0000
     0.0000   0.0000   0.0000

          k = 0.1250 0.3608 0.0000 ( 11871 PWs)   bands (ev):

   -83.6057 -53.2142 -52.9564 -52.6082 -25.2712 -25.2050 -23.1391 -22.1584
   -15.4512 -14.9649 -13.7881 -12.5720 -12.2953 -11.9832 -11.6109 -10.5865
    -9.6708  -9.3302  -9.0857  -8.6323  -7.1464  -3.7626  -3.4967  -2.3534
    -1.5989   0.1372   0.3695   2.6669   2.7393   3.7946   4.1851   5.1196
     5.7509   6.1933   6.6255

     occupation numbers 
     1.0000   1.0000   1.0000   1.0000   1.0000   1.0000   1.0000   1.0000
     1.0000   1.0000   1.0000   1.0000   1.0000   1.0000   1.0000   1.0000
     1.0000   1.0000   1.0000   1.0000   1.0000   0.0000   0.0000   0.0000
     0.0000   0.0000   0.0000   0.0000   0.0000   0.0000   0.0000   0.0000
     0.0000   0.0000   0.0000

          k = 0.1250 0.5052 0.0000 ( 11841 PWs)   bands (ev):

   -83.6088 -53.2017 -52.9795 -52.7616 -24.2822 -24.2462 -22.8271 -22.0760
   -16.7279 -16.4402 -13.6162 -13.1095 -12.7152 -12.3307 -12.0370 -10.8034
    -9.9142  -9.2710  -9.0763  -8.5494  -7.2405  -4.1038  -3.4821  -2.0903
    -1.7551  -0.7239  -0.3396   2.7306   3.2508   3.9500   4.3508   5.3751
     6.2335   6.3132   7.0525

     occupation numbers 
     1.0000   1.0000   1.0000   1.0000   1.0000   1.0000   1.0000   1.0000
     1.0000   1.0000   1.0000   1.0000   1.0000   1.0000   1.0000   1.0000
     1.0000   1.0000   1.0000   1.0000   1.0000   0.0000   0.0000   0.0000
     0.0000   0.0000   0.0000   0.0000   0.0000   0.0000   0.0000   0.0000
     0.0000   0.0000   0.0000

          k = 0.2500 0.4330 0.0000 ( 11844 PWs)   bands (ev):

   -83.6166 -53.1786 -53.1195 -52.6685 -24.3247 -24.2813 -22.7982 -22.0308
   -16.1281 -15.7820 -14.0055 -13.7999 -13.2897 -11.9830 -11.8368 -11.1893
   -10.0806  -9.5787  -9.0432  -8.5253  -7.3175  -4.0226  -3.4101  -2.1533
    -1.6679   0.5050   0.7394   2.6205   3.0284   4.4547   4.7119   5.0803
     5.4753   6.1221   6.8641

     occupation numbers 
     1.0000   1.0000   1.0000   1.0000   1.0000   1.0000   1.0000   1.0000
     1.0000   1.0000   1.0000   1.0000   1.0000   1.0000   1.0000   1.0000
     1.0000   1.0000   1.0000   1.0000   1.0000   0.0000   0.0000   0.0000
     0.0000   0.0000   0.0000   0.0000   0.0000   0.0000   0.0000   0.0000
     0.0000   0.0000   0.0000

          k = 0.2500 0.5774 0.0000 ( 11800 PWs)   bands (ev):

   -83.6061 -53.2053 -53.1366 -52.6357 -23.7837 -23.7556 -22.7492 -22.0525
   -16.3800 -16.0484 -14.6480 -14.5200 -12.8135 -12.3630 -12.1106 -10.8400
   -10.5818  -9.9955  -8.9871  -8.3422  -6.9568  -4.4199  -3.2481  -2.0486
    -1.7626   0.2873   0.6853   2.8436   3.2814   4.3314   4.7380   5.2495
     5.8543   6.3477   6.4448

     occupation numbers 
     1.0000   1.0000   1.0000   1.0000   1.0000   1.0000   1.0000   1.0000
     1.0000   1.0000   1.0000   1.0000   1.0000   1.0000   1.0000   1.0000
     1.0000   1.0000   1.0000   1.0000   1.0000   0.0000   0.0000   0.0000
     0.0000   0.0000   0.0000   0.0000   0.0000   0.0000   0.0000   0.0000
     0.0000   0.0000   0.0000

          k =-0.1250 0.0722 0.0000 ( 11905 PWs)   bands (ev):

   -83.6010 -52.9319 -52.7696 -52.7321 -26.7836 -26.6895 -24.0844 -22.6129
   -15.3906 -12.6009 -11.5951 -11.5322 -10.6936 -10.6653 -10.5419 -10.2708
    -9.7580  -8.9002  -8.7600  -8.3049  -6.5799  -2.9409  -2.7438  -2.7198
    -2.3905   0.5045   0.7305   2.4393   2.4914   3.0537   3.2423   3.5276
     4.6771   4.7397   5.1333

     occupation numbers 
     1.0000   1.0000   1.0000   1.0000   1.0000   1.0000   1.0000   1.0000
     1.0000   1.0000   1.0000   1.0000   1.0000   1.0000   1.0000   1.0000
     1.0000   1.0000   1.0000   1.0000   1.0000   0.0000   0.0000   0.0000
     0.0000   0.0000   0.0000   0.0000   0.0000   0.0000   0.0000   0.0000
     0.0000   0.0000   0.0000

          k = 0.1250 0.0722 0.0000 ( 11905 PWs)   bands (ev):

   -83.6010 -52.9319 -52.7696 -52.7321 -26.7836 -26.6895 -24.0844 -22.6129
   -15.3906 -12.6009 -11.5951 -11.5321 -10.6936 -10.6654 -10.5419 -10.2708
    -9.7581  -8.9001  -8.7602  -8.3049  -6.5799  -2.9408  -2.7440  -2.7199
    -2.3903   0.5046   0.7305   2.4393   2.4914   3.0537   3.2423   3.5276
     4.6771   4.7397   5.1333

     occupation numbers 
     1.0000   1.0000   1.0000   1.0000   1.0000   1.0000   1.0000   1.0000
     1.0000   1.0000   1.0000   1.0000   1.0000   1.0000   1.0000   1.0000
     1.0000   1.0000   1.0000   1.0000   1.0000   0.0000   0.0000   0.0000
     0.0000   0.0000   0.0000   0.0000   0.0000   0.0000   0.0000   0.0000
     0.0000   0.0000   0.0000

          k =-0.2500 0.1443 0.0000 ( 11885 PWs)   bands (ev):

   -83.6119 -53.1888 -52.8370 -52.6414 -25.9784 -25.8986 -23.5242 -22.3330
   -15.0333 -13.8369 -13.4730 -12.2920 -11.5609 -11.2208 -11.2109  -9.9326
    -9.6392  -9.3551  -9.2578  -8.5009  -6.9092  -3.5499  -3.2545  -2.4636
    -1.8642   0.1121   0.3006   2.4284   2.5716   3.4911   3.9962   5.0903
     5.9019   6.1088   6.2878

     occupation numbers 
     1.0000   1.0000   1.0000   1.0000   1.0000   1.0000   1.0000   1.0000
     1.0000   1.0000   1.0000   1.0000   1.0000   1.0000   1.0000   1.0000
     1.0000   1.0000   1.0000   1.0000   1.0000   0.0000   0.0000   0.0000
     0.0000   0.0000   0.0000   0.0000   0.0000   0.0000   0.0000   0.0000
     0.0000   0.0000   0.0000

          k = 0.2500 0.1443 0.0000 ( 11885 PWs)   bands (ev):

   -83.6119 -53.1888 -52.8369 -52.6414 -25.9784 -25.8986 -23.5242 -22.3330
   -15.0333 -13.8368 -13.4729 -12.2919 -11.5609 -11.2208 -11.2110  -9.9326
    -9.6392  -9.3552  -9.2579  -8.5008  -6.9091  -3.5498  -3.2545  -2.4636
    -1.8642   0.1122   0.3006   2.4284   2.5716   3.4911   3.9962   5.0903
     5.9019   6.1088   6.2878

     occupation numbers 
     1.0000   1.0000   1.0000   1.0000   1.0000   1.0000   1.0000   1.0000
     1.0000   1.0000   1.0000   1.0000   1.0000   1.0000   1.0000   1.0000
     1.0000   1.0000   1.0000   1.0000   1.0000   0.0000   0.0000   0.0000
     0.0000   0.0000   0.0000   0.0000   0.0000   0.0000   0.0000   0.0000
     0.0000   0.0000   0.0000

          k =-0.3750 0.2165 0.0000 ( 11860 PWs)   bands (ev):

   -83.6064 -53.2480 -52.8497 -52.7464 -24.9044 -24.8505 -22.9918 -22.1124
   -16.2452 -15.9317 -13.8322 -12.6004 -12.0664 -11.7474 -11.7152 -10.4103
    -9.8243  -9.4669  -8.7015  -8.6903  -7.1229  -4.0063  -3.6322  -2.2454
    -1.4790  -1.2823  -0.7773   2.4295   2.9892   4.0196   4.2986   5.7880
     6.4120   6.6147   7.1619

     occupation numbers 
     1.0000   1.0000   1.0000   1.0000   1.0000   1.0000   1.0000   1.0000
     1.0000   1.0000   1.0000   1.0000   1.0000   1.0000   1.0000   1.0000
     1.0000   1.0000   1.0000   1.0000   1.0000   0.0000   0.0000   0.0000
     0.0000   0.0000   0.0000   0.0000   0.0000   0.0000   0.0000   0.0000
     0.0000   0.0000   0.0000

          k = 0.3750 0.2165 0.0000 ( 11860 PWs)   bands (ev):

   -83.6064 -53.2479 -52.8497 -52.7464 -24.9044 -24.8505 -22.9918 -22.1123
   -16.2452 -15.9317 -13.8322 -12.6004 -12.0663 -11.7474 -11.7153 -10.4103
    -9.8245  -9.4669  -8.7016  -8.6902  -7.1229  -4.0063  -3.6322  -2.2454
    -1.4790  -1.2823  -0.7773   2.4295   2.9892   4.0196   4.2986   5.7880
     6.4121   6.6147   7.1619

     occupation numbers 
     1.0000   1.0000   1.0000   1.0000   1.0000   1.0000   1.0000   1.0000
     1.0000   1.0000   1.0000   1.0000   1.0000   1.0000   1.0000   1.0000
     1.0000   1.0000   1.0000   1.0000   1.0000   0.0000   0.0000   0.0000
     0.0000   0.0000   0.0000   0.0000   0.0000   0.0000   0.0000   0.0000
     0.0000   0.0000   0.0000

          k = 0.5000-0.2887 0.0000 ( 11846 PWs)   bands (ev):

   -83.6022 -53.2026 -52.8638 -52.8572 -24.2401 -24.2132 -22.8618 -22.1265
   -17.1599 -16.8850 -13.5602 -13.0604 -12.1772 -11.9709 -11.9321 -10.6069
   -10.0255  -9.2234  -8.7549  -8.4436  -7.3025  -4.0079  -3.6877  -2.3899
    -1.8996  -1.3479  -1.0629   2.1453   2.7596   4.4229   5.1185   5.8252
     6.1776   6.5199   7.2566

     occupation numbers 
     1.0000   1.0000   1.0000   1.0000   1.0000   1.0000   1.0000   1.0000
     1.0000   1.0000   1.0000   1.0000   1.0000   1.0000   1.0000   1.0000
     1.0000   1.0000   1.0000   1.0000   1.0000   0.0000   0.0000   0.0000
     0.0000   0.0000   0.0000   0.0000   0.0000   0.0000   0.0000   0.0000
     0.0000   0.0000   0.0000

          k =-0.5000-0.2887 0.0000 ( 11846 PWs)   bands (ev):

   -83.6022 -53.2026 -52.8638 -52.8572 -24.2401 -24.2132 -22.8618 -22.1265
   -17.1599 -16.8850 -13.5602 -13.0604 -12.1772 -11.9710 -11.9322 -10.6069
   -10.0257  -9.2235  -8.7548  -8.4437  -7.3024  -4.0078  -3.6876  -2.3900
    -1.8996  -1.3479  -1.0630   2.1453   2.7596   4.4229   5.1185   5.8252
     6.1776   6.5199   7.2566

     occupation numbers 
     1.0000   1.0000   1.0000   1.0000   1.0000   1.0000   1.0000   1.0000
     1.0000   1.0000   1.0000   1.0000   1.0000   1.0000   1.0000   1.0000
     1.0000   1.0000   1.0000   1.0000   1.0000   0.0000   0.0000   0.0000
     0.0000   0.0000   0.0000   0.0000   0.0000   0.0000   0.0000   0.0000
     0.0000   0.0000   0.0000

          k =-0.1250 0.2165 0.0000 ( 11867 PWs)   bands (ev):

   -83.6031 -53.1203 -52.8533 -52.5964 -26.2306 -26.1450 -23.6933 -22.4191
   -15.0467 -13.0820 -12.8535 -12.2961 -11.6093 -11.3087 -10.9268  -9.9746
    -9.6581  -9.5513  -9.0115  -8.3586  -6.7843  -3.3851  -3.0959  -2.7067
    -1.9083   1.0469   1.2328   2.0132   2.0273   3.4884   3.6388   4.0483
     5.0941   5.7026   6.4689

     occupation numbers 
     1.0000   1.0000   1.0000   1.0000   1.0000   1.0000   1.0000   1.0000
     1.0000   1.0000   1.0000   1.0000   1.0000   1.0000   1.0000   1.0000
     1.0000   1.0000   1.0000   1.0000   1.0000   0.0000   0.0000   0.0000
     0.0000   0.0000   0.0000   0.0000   0.0000   0.0000   0.0000   0.0000
     0.0000   0.0000   0.0000

          k = 0.2500-0.0000 0.0000 ( 11867 PWs)   bands (ev):

   -83.6031 -53.1203 -52.8533 -52.5964 -26.2306 -26.1450 -23.6933 -22.4191
   -15.0467 -13.0820 -12.8535 -12.2961 -11.6093 -11.3087 -10.9268  -9.9746
    -9.6581  -9.5513  -9.0115  -8.3586  -6.7843  -3.3851  -3.0959  -2.7067
    -1.9083   1.0469   1.2328   2.0132   2.0273   3.4884   3.6388   4.0483
     5.0940   5.7025   6.4689

     occupation numbers 
     1.0000   1.0000   1.0000   1.0000   1.0000   1.0000   1.0000   1.0000
     1.0000   1.0000   1.0000   1.0000   1.0000   1.0000   1.0000   1.0000
     1.0000   1.0000   1.0000   1.0000   1.0000   0.0000   0.0000   0.0000
     0.0000   0.0000   0.0000   0.0000   0.0000   0.0000   0.0000   0.0000
     0.0000   0.0000   0.0000

          k =-0.1250 0.3608 0.0000 ( 11871 PWs)   bands (ev):

   -83.6057 -53.2142 -52.9564 -52.6082 -25.2712 -25.2050 -23.1391 -22.1584
   -15.4512 -14.9649 -13.7881 -12.5720 -12.2953 -11.9832 -11.6109 -10.5865
    -9.6708  -9.3301  -9.0857  -8.6323  -7.1464  -3.7626  -3.4967  -2.3534
    -1.5989   0.1372   0.3695   2.6669   2.7393   3.7946   4.1851   5.1196
     5.7509   6.1933   6.6255

     occupation numbers 
     1.0000   1.0000   1.0000   1.0000   1.0000   1.0000   1.0000   1.0000
     1.0000   1.0000   1.0000   1.0000   1.0000   1.0000   1.0000   1.0000
     1.0000   1.0000   1.0000   1.0000   1.0000   0.0000   0.0000   0.0000
     0.0000   0.0000   0.0000   0.0000   0.0000   0.0000   0.0000   0.0000
     0.0000   0.0000   0.0000

          k =-0.2500 0.2887 0.0000 ( 11871 PWs)   bands (ev):

   -83.6057 -53.2142 -52.9564 -52.6082 -25.2712 -25.2050 -23.1391 -22.1584
   -15.4512 -14.9649 -13.7881 -12.5720 -12.2952 -11.9832 -11.6109 -10.5865
    -9.6708  -9.3301  -9.0856  -8.6324  -7.1465  -3.7626  -3.4967  -2.3534
    -1.5989   0.1372   0.3695   2.6669   2.7393   3.7946   4.1850   5.1196
     5.7509   6.1933   6.6255

     occupation numbers 
     1.0000   1.0000   1.0000   1.0000   1.0000   1.0000   1.0000   1.0000
     1.0000   1.0000   1.0000   1.0000   1.0000   1.0000   1.0000   1.0000
     1.0000   1.0000   1.0000   1.0000   1.0000   0.0000   0.0000   0.0000
     0.0000   0.0000   0.0000   0.0000   0.0000   0.0000   0.0000   0.0000
     0.0000   0.0000   0.0000

          k = 0.3750 0.0722 0.0000 ( 11871 PWs)   bands (ev):

   -83.6057 -53.2142 -52.9564 -52.6082 -25.2712 -25.2050 -23.1391 -22.1584
   -15.4512 -14.9649 -13.7881 -12.5720 -12.2953 -11.9832 -11.6108 -10.5865
    -9.6708  -9.3301  -9.0857  -8.6323  -7.1464  -3.7626  -3.4967  -2.3534
    -1.5989   0.1372   0.3695   2.6669   2.7393   3.7946   4.1850   5.1196
     5.7508   6.1933   6.6256

     occupation numbers 
     1.0000   1.0000   1.0000   1.0000   1.0000   1.0000   1.0000   1.0000
     1.0000   1.0000   1.0000   1.0000   1.0000   1.0000   1.0000   1.0000
     1.0000   1.0000   1.0000   1.0000   1.0000   0.0000   0.0000   0.0000
     0.0000   0.0000   0.0000   0.0000   0.0000   0.0000   0.0000   0.0000
     0.0000   0.0000   0.0000

          k =-0.2500-0.2887 0.0000 ( 11871 PWs)   bands (ev):

   -83.6057 -53.2142 -52.9564 -52.6082 -25.2712 -25.2050 -23.1391 -22.1584
   -15.4511 -14.9649 -13.7881 -12.5720 -12.2953 -11.9832 -11.6109 -10.5865
    -9.6708  -9.3301  -9.0857  -8.6323  -7.1464  -3.7626  -3.4967  -2.3534
    -1.5989   0.1372   0.3695   2.6669   2.7393   3.7946   4.1850   5.1196
     5.7509   6.1933   6.6256

     occupation numbers 
     1.0000   1.0000   1.0000   1.0000   1.0000   1.0000   1.0000   1.0000
     1.0000   1.0000   1.0000   1.0000   1.0000   1.0000   1.0000   1.0000
     1.0000   1.0000   1.0000   1.0000   1.0000   0.0000   0.0000   0.0000
     0.0000   0.0000   0.0000   0.0000   0.0000   0.0000   0.0000   0.0000
     0.0000   0.0000   0.0000

          k = 0.3750-0.0722 0.0000 ( 11871 PWs)   bands (ev):

   -83.6057 -53.2142 -52.9564 -52.6082 -25.2712 -25.2050 -23.1391 -22.1584
   -15.4512 -14.9649 -13.7881 -12.5720 -12.2952 -11.9832 -11.6108 -10.5864
    -9.6708  -9.3301  -9.0856  -8.6323  -7.1465  -3.7626  -3.4967  -2.3534
    -1.5989   0.1372   0.3695   2.6669   2.7393   3.7946   4.1850   5.1196
     5.7508   6.1933   6.6255

     occupation numbers 
     1.0000   1.0000   1.0000   1.0000   1.0000   1.0000   1.0000   1.0000
     1.0000   1.0000   1.0000   1.0000   1.0000   1.0000   1.0000   1.0000
     1.0000   1.0000   1.0000   1.0000   1.0000   0.0000   0.0000   0.0000
     0.0000   0.0000   0.0000   0.0000   0.0000   0.0000   0.0000   0.0000
     0.0000   0.0000   0.0000

          k =-0.1250 0.5052 0.0000 ( 11841 PWs)   bands (ev):

   -83.6088 -53.2017 -52.9795 -52.7616 -24.2822 -24.2462 -22.8271 -22.0760
   -16.7279 -16.4402 -13.6162 -13.1096 -12.7152 -12.3306 -12.0370 -10.8035
    -9.9142  -9.2710  -9.0763  -8.5494  -7.2405  -4.1039  -3.4821  -2.0903
    -1.7551  -0.7239  -0.3396   2.7306   3.2508   3.9500   4.3508   5.3752
     6.2335   6.3131   7.0525

     occupation numbers 
     1.0000   1.0000   1.0000   1.0000   1.0000   1.0000   1.0000   1.0000
     1.0000   1.0000   1.0000   1.0000   1.0000   1.0000   1.0000   1.0000
     1.0000   1.0000   1.0000   1.0000   1.0000   0.0000   0.0000   0.0000
     0.0000   0.0000   0.0000   0.0000   0.0000   0.0000   0.0000   0.0000
     0.0000   0.0000   0.0000

          k =-0.3750 0.3608 0.0000 ( 11841 PWs)   bands (ev):

   -83.6088 -53.2017 -52.9795 -52.7616 -24.2822 -24.2462 -22.8271 -22.0760
   -16.7280 -16.4402 -13.6162 -13.1095 -12.7151 -12.3306 -12.0370 -10.8034
    -9.9141  -9.2709  -9.0762  -8.5494  -7.2405  -4.1039  -3.4821  -2.0903
    -1.7551  -0.7239  -0.3396   2.7307   3.2508   3.9500   4.3508   5.3752
     6.2335   6.3131   7.0526

     occupation numbers 
     1.0000   1.0000   1.0000   1.0000   1.0000   1.0000   1.0000   1.0000
     1.0000   1.0000   1.0000   1.0000   1.0000   1.0000   1.0000   1.0000
     1.0000   1.0000   1.0000   1.0000   1.0000   0.0000   0.0000   0.0000
     0.0000   0.0000   0.0000   0.0000   0.0000   0.0000   0.0000   0.0000
     0.0000   0.0000   0.0000

          k = 0.5000 0.1443 0.0000 ( 11841 PWs)   bands (ev):

   -83.6088 -53.2017 -52.9795 -52.7616 -24.2822 -24.2462 -22.8271 -22.0760
   -16.7279 -16.4402 -13.6162 -13.1095 -12.7152 -12.3306 -12.0370 -10.8035
    -9.9142  -9.2710  -9.0762  -8.5494  -7.2405  -4.1039  -3.4821  -2.0903
    -1.7551  -0.7239  -0.3396   2.7306   3.2508   3.9500   4.3508   5.3752
     6.2335   6.3131   7.0525

     occupation numbers 
     1.0000   1.0000   1.0000   1.0000   1.0000   1.0000   1.0000   1.0000
     1.0000   1.0000   1.0000   1.0000   1.0000   1.0000   1.0000   1.0000
     1.0000   1.0000   1.0000   1.0000   1.0000   0.0000   0.0000   0.0000
     0.0000   0.0000   0.0000   0.0000   0.0000   0.0000   0.0000   0.0000
     0.0000   0.0000   0.0000

          k =-0.3750-0.3608 0.0000 ( 11841 PWs)   bands (ev):

   -83.6088 -53.2017 -52.9795 -52.7616 -24.2822 -24.2462 -22.8271 -22.0760
   -16.7279 -16.4402 -13.6162 -13.1095 -12.7152 -12.3307 -12.0370 -10.8035
    -9.9142  -9.2709  -9.0763  -8.5494  -7.2405  -4.1038  -3.4821  -2.0903
    -1.7552  -0.7239  -0.3396   2.7306   3.2508   3.9500   4.3508   5.3751
     6.2335   6.3132   7.0526

     occupation numbers 
     1.0000   1.0000   1.0000   1.0000   1.0000   1.0000   1.0000   1.0000
     1.0000   1.0000   1.0000   1.0000   1.0000   1.0000   1.0000   1.0000
     1.0000   1.0000   1.0000   1.0000   1.0000   0.0000   0.0000   0.0000
     0.0000   0.0000   0.0000   0.0000   0.0000   0.0000   0.0000   0.0000
     0.0000   0.0000   0.0000

          k = 0.5000-0.1443 0.0000 ( 11841 PWs)   bands (ev):

   -83.6088 -53.2017 -52.9795 -52.7616 -24.2822 -24.2462 -22.8271 -22.0760
   -16.7280 -16.4402 -13.6162 -13.1095 -12.7151 -12.3306 -12.0370 -10.8034
    -9.9142  -9.2709  -9.0762  -8.5494  -7.2405  -4.1039  -3.4821  -2.0903
    -1.7551  -0.7239  -0.3396   2.7307   3.2508   3.9500   4.3508   5.3752
     6.2335   6.3131   7.0525

     occupation numbers 
     1.0000   1.0000   1.0000   1.0000   1.0000   1.0000   1.0000   1.0000
     1.0000   1.0000   1.0000   1.0000   1.0000   1.0000   1.0000   1.0000
     1.0000   1.0000   1.0000   1.0000   1.0000   0.0000   0.0000   0.0000
     0.0000   0.0000   0.0000   0.0000   0.0000   0.0000   0.0000   0.0000
     0.0000   0.0000   0.0000

          k =-0.2500 0.4330 0.0000 ( 11844 PWs)   bands (ev):

   -83.6166 -53.1786 -53.1195 -52.6685 -24.3247 -24.2813 -22.7982 -22.0308
   -16.1281 -15.7821 -14.0055 -13.7999 -13.2897 -11.9830 -11.8368 -11.1894
   -10.0806  -9.5786  -9.0432  -8.5252  -7.3175  -4.0227  -3.4101  -2.1533
    -1.6678   0.5050   0.7394   2.6205   3.0284   4.4547   4.7119   5.0804
     5.4752   6.1222   6.8641

     occupation numbers 
     1.0000   1.0000   1.0000   1.0000   1.0000   1.0000   1.0000   1.0000
     1.0000   1.0000   1.0000   1.0000   1.0000   1.0000   1.0000   1.0000
     1.0000   1.0000   1.0000   1.0000   1.0000   0.0000   0.0000   0.0000
     0.0000   0.0000   0.0000   0.0000   0.0000   0.0000   0.0000   0.0000
     0.0000   0.0000   0.0000

          k = 0.5000-0.0000 0.0000 ( 11844 PWs)   bands (ev):

   -83.6166 -53.1786 -53.1195 -52.6685 -24.3247 -24.2813 -22.7982 -22.0308
   -16.1281 -15.7821 -14.0055 -13.7999 -13.2897 -11.9830 -11.8368 -11.1894
   -10.0806  -9.5786  -9.0432  -8.5252  -7.3175  -4.0227  -3.4101  -2.1533
    -1.6678   0.5050   0.7394   2.6205   3.0284   4.4547   4.7118   5.0804
     5.4752   6.1222   6.8641

     occupation numbers 
     1.0000   1.0000   1.0000   1.0000   1.0000   1.0000   1.0000   1.0000
     1.0000   1.0000   1.0000   1.0000   1.0000   1.0000   1.0000   1.0000
     1.0000   1.0000   1.0000   1.0000   1.0000   0.0000   0.0000   0.0000
     0.0000   0.0000   0.0000   0.0000   0.0000   0.0000   0.0000   0.0000
     0.0000   0.0000   0.0000

          k =-0.3750 0.5052 0.0000 ( 11800 PWs)   bands (ev):

   -83.6061 -53.2053 -53.1366 -52.6357 -23.7838 -23.7556 -22.7492 -22.0525
   -16.3800 -16.0484 -14.6480 -14.5199 -12.8135 -12.3630 -12.1106 -10.8400
   -10.5817  -9.9955  -8.9871  -8.3422  -6.9568  -4.4199  -3.2481  -2.0486
    -1.7625   0.2874   0.6853   2.8437   3.2814   4.3314   4.7380   5.2496
     5.8542   6.3477   6.4448

     occupation numbers 
     1.0000   1.0000   1.0000   1.0000   1.0000   1.0000   1.0000   1.0000
     1.0000   1.0000   1.0000   1.0000   1.0000   1.0000   1.0000   1.0000
     1.0000   1.0000   1.0000   1.0000   1.0000   0.0000   0.0000   0.0000
     0.0000   0.0000   0.0000   0.0000   0.0000   0.0000   0.0000   0.0000
     0.0000   0.0000   0.0000

          k = 0.6250 0.0722 0.0000 ( 11800 PWs)   bands (ev):

   -83.6061 -53.2053 -53.1366 -52.6357 -23.7837 -23.7556 -22.7492 -22.0525
   -16.3800 -16.0484 -14.6480 -14.5200 -12.8135 -12.3630 -12.1106 -10.8400
   -10.5818  -9.9954  -8.9871  -8.3422  -6.9568  -4.4199  -3.2481  -2.0486
    -1.7626   0.2873   0.6853   2.8437   3.2814   4.3314   4.7379   5.2495
     5.8543   6.3477   6.4448

     occupation numbers 
     1.0000   1.0000   1.0000   1.0000   1.0000   1.0000   1.0000   1.0000
     1.0000   1.0000   1.0000   1.0000   1.0000   1.0000   1.0000   1.0000
     1.0000   1.0000   1.0000   1.0000   1.0000   0.0000   0.0000   0.0000
     0.0000   0.0000   0.0000   0.0000   0.0000   0.0000   0.0000   0.0000
     0.0000   0.0000   0.0000

     highest occupied, lowest unoccupied level (ev):    -6.5561   -4.4199

!    total energy              =    -263.21052612 Ry
     estimated scf accuracy    <          2.6E-11 Ry

     convergence has been achieved in   7 iterations

     Using ACE for calculation of exact exchange
     ACE projected onto    35 (nbndproj) and applied to    35 (nbnd) bands

     total energy              =    -263.21053177 Ry
     Harris-Foulkes estimate   =    -263.21053177 Ry
     est. exchange err (dexx)  =       0.00000565 Ry
     - averaged Fock potential =      17.83893173 Ry
     + Fock energy (ACE)       =      -8.91969063 Ry

     EXX: now go back to refine exchange calculation

     total cpu time spent up to now is     2984.1 secs

     Self-consistent Calculation

     iteration #  1     ecut=    80.00 Ry     beta= 0.50
     Davidson diagonalization with overlap

---- Real-time Memory Report at c_bands before calling an iterative solver
          2135 MiB given to the printing process from OS
             0 MiB allocation reported by mallinfo(arena+hblkhd)
         12883 MiB available memory on the node where the printing process lives
------------------
     ethr =  3.92E-12,  avg # of iterations =  5.9

     total cpu time spent up to now is     2996.6 secs

     total energy              =    -263.21053534 Ry
     estimated scf accuracy    <       0.00000065 Ry

     iteration #  2     ecut=    80.00 Ry     beta= 0.50
     Davidson diagonalization with overlap

---- Real-time Memory Report at c_bands before calling an iterative solver
          2135 MiB given to the printing process from OS
             0 MiB allocation reported by mallinfo(arena+hblkhd)
         12764 MiB available memory on the node where the printing process lives
------------------
     ethr =  1.55E-09,  avg # of iterations =  2.0

     total cpu time spent up to now is     3003.7 secs

     total energy              =    -263.21053540 Ry
     estimated scf accuracy    <       0.00000007 Ry

     iteration #  3     ecut=    80.00 Ry     beta= 0.50
     Davidson diagonalization with overlap

---- Real-time Memory Report at c_bands before calling an iterative solver
          2135 MiB given to the printing process from OS
             0 MiB allocation reported by mallinfo(arena+hblkhd)
         12784 MiB available memory on the node where the printing process lives
------------------
     ethr =  1.69E-10,  avg # of iterations =  2.0

     total cpu time spent up to now is     3011.3 secs

     total energy              =    -263.21053539 Ry
     estimated scf accuracy    <       0.00000027 Ry

     iteration #  4     ecut=    80.00 Ry     beta= 0.50
     Davidson diagonalization with overlap

---- Real-time Memory Report at c_bands before calling an iterative solver
          2135 MiB given to the printing process from OS
             0 MiB allocation reported by mallinfo(arena+hblkhd)
         12875 MiB available memory on the node where the printing process lives
------------------
     ethr =  1.69E-10,  avg # of iterations =  2.0

     total cpu time spent up to now is     3018.4 secs

     total energy              =    -263.21053543 Ry
     estimated scf accuracy    <          6.8E-09 Ry

     iteration #  5     ecut=    80.00 Ry     beta= 0.50
     Davidson diagonalization with overlap

---- Real-time Memory Report at c_bands before calling an iterative solver
          2135 MiB given to the printing process from OS
             0 MiB allocation reported by mallinfo(arena+hblkhd)
         12874 MiB available memory on the node where the printing process lives
------------------
     ethr =  1.61E-11,  avg # of iterations =  2.0

     total cpu time spent up to now is     3025.6 secs

     total energy              =    -263.21053543 Ry
     estimated scf accuracy    <          7.0E-09 Ry

     iteration #  6     ecut=    80.00 Ry     beta= 0.50
     Davidson diagonalization with overlap

---- Real-time Memory Report at c_bands before calling an iterative solver
          2135 MiB given to the printing process from OS
             0 MiB allocation reported by mallinfo(arena+hblkhd)
         12872 MiB available memory on the node where the printing process lives
------------------
     ethr =  1.61E-11,  avg # of iterations =  1.6

     total cpu time spent up to now is     3032.2 secs

     total energy              =    -263.21053543 Ry
     estimated scf accuracy    <          5.1E-10 Ry

     iteration #  7     ecut=    80.00 Ry     beta= 0.50
     Davidson diagonalization with overlap

---- Real-time Memory Report at c_bands before calling an iterative solver
          2135 MiB given to the printing process from OS
             0 MiB allocation reported by mallinfo(arena+hblkhd)
         12875 MiB available memory on the node where the printing process lives
------------------
     ethr =  1.21E-12,  avg # of iterations =  1.4

     total cpu time spent up to now is     3038.7 secs

     End of self-consistent calculation

          k = 0.0000 0.0000 0.0000 ( 11937 PWs)   bands (ev):

   -83.5893 -52.8398 -52.7345 -52.7345 -27.0869 -26.9890 -24.3184 -22.7312
   -15.6432 -12.7269 -10.6445 -10.4745 -10.4744 -10.4277 -10.4276  -9.9068
    -9.9068  -8.4945  -8.4942  -8.4916  -6.5633  -2.6798  -2.6796  -2.4442
    -2.4440  -0.2225   0.1107   2.3490   2.3825   2.5020   4.0137   4.0137
     4.0684   4.0684   4.2606

     occupation numbers 
     1.0000   1.0000   1.0000   1.0000   1.0000   1.0000   1.0000   1.0000
     1.0000   1.0000   1.0000   1.0000   1.0000   1.0000   1.0000   1.0000
     1.0000   1.0000   1.0000   1.0000   1.0000   0.0000   0.0000   0.0000
     0.0000   0.0000   0.0000   0.0000   0.0000   0.0000   0.0000   0.0000
     0.0000   0.0000   0.0000

          k = 0.0000 0.1443 0.0000 ( 11905 PWs)   bands (ev):

   -83.6000 -52.9326 -52.7673 -52.7318 -26.7835 -26.6894 -24.0841 -22.6124
   -15.3908 -12.6007 -11.5950 -11.5321 -10.6935 -10.6654 -10.5411 -10.2713
    -9.7570  -8.8993  -8.7592  -8.3042  -6.5828  -2.9412  -2.7426  -2.7180
    -2.3893   0.5045   0.7306   2.4394   2.4915   3.0539   3.2424   3.5278
     4.6773   4.7397   5.1335

     occupation numbers 
     1.0000   1.0000   1.0000   1.0000   1.0000   1.0000   1.0000   1.0000
     1.0000   1.0000   1.0000   1.0000   1.0000   1.0000   1.0000   1.0000
     1.0000   1.0000   1.0000   1.0000   1.0000   0.0000   0.0000   0.0000
     0.0000   0.0000   0.0000   0.0000   0.0000   0.0000   0.0000   0.0000
     0.0000   0.0000   0.0000

          k = 0.0000 0.2887 0.0000 ( 11885 PWs)   bands (ev):

   -83.6110 -53.1913 -52.8352 -52.6384 -25.9783 -25.8985 -23.5238 -22.3324
   -15.0332 -13.8368 -13.4729 -12.2917 -11.5619 -11.2208 -11.2110  -9.9328
    -9.6388  -9.3544  -9.2568  -8.5001  -6.9081  -3.5532  -3.2516  -2.4621
    -1.8634   0.1120   0.3008   2.4284   2.5717   3.4913   3.9964   5.0903
     5.9020   6.1090   6.2879

     occupation numbers 
     1.0000   1.0000   1.0000   1.0000   1.0000   1.0000   1.0000   1.0000
     1.0000   1.0000   1.0000   1.0000   1.0000   1.0000   1.0000   1.0000
     1.0000   1.0000   1.0000   1.0000   1.0000   0.0000   0.0000   0.0000
     0.0000   0.0000   0.0000   0.0000   0.0000   0.0000   0.0000   0.0000
     0.0000   0.0000   0.0000

          k = 0.0000 0.4330 0.0000 ( 11860 PWs)   bands (ev):

   -83.6054 -53.2484 -52.8474 -52.7457 -24.9043 -24.8504 -22.9914 -22.1119
   -16.2451 -15.9316 -13.8315 -12.6003 -12.0660 -11.7474 -11.7153 -10.4100
    -9.8236  -9.4665  -8.7008  -8.6896  -7.1254  -4.0089  -3.6298  -2.2441
    -1.4778  -1.2821  -0.7767   2.4296   2.9894   4.0197   4.2988   5.7882
     6.4121   6.6148   7.1620

     occupation numbers 
     1.0000   1.0000   1.0000   1.0000   1.0000   1.0000   1.0000   1.0000
     1.0000   1.0000   1.0000   1.0000   1.0000   1.0000   1.0000   1.0000
     1.0000   1.0000   1.0000   1.0000   1.0000   0.0000   0.0000   0.0000
     0.0000   0.0000   0.0000   0.0000   0.0000   0.0000   0.0000   0.0000
     0.0000   0.0000   0.0000

          k = 0.0000-0.5774 0.0000 ( 11846 PWs)   bands (ev):

   -83.6014 -53.2014 -52.8637 -52.8565 -24.2400 -24.2131 -22.8615 -22.1262
   -17.1598 -16.8849 -13.5597 -13.0603 -12.1768 -11.9709 -11.9322 -10.6064
   -10.0248  -9.2232  -8.7545  -8.4435  -7.3066  -4.0093  -3.6846  -2.3890
    -1.8993  -1.3465  -1.0621   2.1455   2.7598   4.4230   5.1186   5.8254
     6.1777   6.5201   7.2567

     occupation numbers 
     1.0000   1.0000   1.0000   1.0000   1.0000   1.0000   1.0000   1.0000
     1.0000   1.0000   1.0000   1.0000   1.0000   1.0000   1.0000   1.0000
     1.0000   1.0000   1.0000   1.0000   1.0000   0.0000   0.0000   0.0000
     0.0000   0.0000   0.0000   0.0000   0.0000   0.0000   0.0000   0.0000
     0.0000   0.0000   0.0000

          k = 0.1250 0.2165 0.0000 ( 11867 PWs)   bands (ev):

   -83.6019 -53.1220 -52.8517 -52.5932 -26.2305 -26.1449 -23.6930 -22.4186
   -15.0463 -13.0819 -12.8534 -12.2959 -11.6092 -11.3088 -10.9267  -9.9743
    -9.6586  -9.5519  -9.0106  -8.3579  -6.7830  -3.3893  -3.0918  -2.7055
    -1.9068   1.0472   1.2330   2.0132   2.0273   3.4884   3.6388   4.0484
     5.0943   5.7026   6.4690

     occupation numbers 
     1.0000   1.0000   1.0000   1.0000   1.0000   1.0000   1.0000   1.0000
     1.0000   1.0000   1.0000   1.0000   1.0000   1.0000   1.0000   1.0000
     1.0000   1.0000   1.0000   1.0000   1.0000   0.0000   0.0000   0.0000
     0.0000   0.0000   0.0000   0.0000   0.0000   0.0000   0.0000   0.0000
     0.0000   0.0000   0.0000

          k = 0.1250 0.3608 0.0000 ( 11871 PWs)   bands (ev):

   -83.6046 -53.2149 -52.9557 -52.6051 -25.2711 -25.2050 -23.1388 -22.1580
   -15.4511 -14.9648 -13.7880 -12.5719 -12.2952 -11.9829 -11.6110 -10.5859
    -9.6708  -9.3295  -9.0852  -8.6318  -7.1472  -3.7625  -3.4953  -2.3520
    -1.5978   0.1373   0.3697   2.6669   2.7393   3.7947   4.1852   5.1196
     5.7510   6.1934   6.6255

     occupation numbers 
     1.0000   1.0000   1.0000   1.0000   1.0000   1.0000   1.0000   1.0000
     1.0000   1.0000   1.0000   1.0000   1.0000   1.0000   1.0000   1.0000
     1.0000   1.0000   1.0000   1.0000   1.0000   0.0000   0.0000   0.0000
     0.0000   0.0000   0.0000   0.0000   0.0000   0.0000   0.0000   0.0000
     0.0000   0.0000   0.0000

          k = 0.1250 0.5052 0.0000 ( 11841 PWs)   bands (ev):

   -83.6079 -53.2002 -52.9794 -52.7609 -24.2821 -24.2462 -22.8268 -22.0755
   -16.7279 -16.4401 -13.6159 -13.1092 -12.7151 -12.3306 -12.0365 -10.8029
    -9.9137  -9.2707  -9.0760  -8.5491  -7.2444  -4.1046  -3.4784  -2.0890
    -1.7540  -0.7236  -0.3390   2.7307   3.2509   3.9500   4.3509   5.3753
     6.2336   6.3133   7.0527

     occupation numbers 
     1.0000   1.0000   1.0000   1.0000   1.0000   1.0000   1.0000   1.0000
     1.0000   1.0000   1.0000   1.0000   1.0000   1.0000   1.0000   1.0000
     1.0000   1.0000   1.0000   1.0000   1.0000   0.0000   0.0000   0.0000
     0.0000   0.0000   0.0000   0.0000   0.0000   0.0000   0.0000   0.0000
     0.0000   0.0000   0.0000

          k = 0.2500 0.4330 0.0000 ( 11844 PWs)   bands (ev):

   -83.6156 -53.1788 -53.1201 -52.6653 -24.3246 -24.2813 -22.7978 -22.0304
   -16.1280 -15.7820 -14.0054 -13.7999 -13.2893 -11.9826 -11.8364 -11.1887
   -10.0800  -9.5783  -9.0428  -8.5248  -7.3236  -4.0174  -3.4102  -2.1518
    -1.6671   0.5052   0.7399   2.6205   3.0285   4.4547   4.7119   5.0804
     5.4753   6.1222   6.8634

     occupation numbers 
     1.0000   1.0000   1.0000   1.0000   1.0000   1.0000   1.0000   1.0000
     1.0000   1.0000   1.0000   1.0000   1.0000   1.0000   1.0000   1.0000
     1.0000   1.0000   1.0000   1.0000   1.0000   0.0000   0.0000   0.0000
     0.0000   0.0000   0.0000   0.0000   0.0000   0.0000   0.0000   0.0000
     0.0000   0.0000   0.0000

          k = 0.2500 0.5774 0.0000 ( 11800 PWs)   bands (ev):

   -83.6049 -53.2063 -53.1362 -52.6321 -23.7836 -23.7557 -22.7489 -22.0520
   -16.3800 -16.0483 -14.6480 -14.5199 -12.8138 -12.3623 -12.1098 -10.8399
   -10.5812  -9.9953  -8.9872  -8.3420  -6.9593  -4.4143  -3.2496  -2.0474
    -1.7613   0.2874   0.6858   2.8437   3.2815   4.3314   4.7380   5.2493
     5.8545   6.3478   6.4449

     occupation numbers 
     1.0000   1.0000   1.0000   1.0000   1.0000   1.0000   1.0000   1.0000
     1.0000   1.0000   1.0000   1.0000   1.0000   1.0000   1.0000   1.0000
     1.0000   1.0000   1.0000   1.0000   1.0000   0.0000   0.0000   0.0000
     0.0000   0.0000   0.0000   0.0000   0.0000   0.0000   0.0000   0.0000
     0.0000   0.0000   0.0000

          k =-0.1250 0.0722 0.0000 ( 11905 PWs)   bands (ev):

   -83.6000 -52.9326 -52.7673 -52.7318 -26.7835 -26.6894 -24.0841 -22.6124
   -15.3908 -12.6008 -11.5950 -11.5321 -10.6935 -10.6653 -10.5412 -10.2713
    -9.7570  -8.8995  -8.7590  -8.3043  -6.5828  -2.9412  -2.7425  -2.7179
    -2.3894   0.5045   0.7306   2.4394   2.4915   3.0539   3.2424   3.5278
     4.6772   4.7397   5.1335

     occupation numbers 
     1.0000   1.0000   1.0000   1.0000   1.0000   1.0000   1.0000   1.0000
     1.0000   1.0000   1.0000   1.0000   1.0000   1.0000   1.0000   1.0000
     1.0000   1.0000   1.0000   1.0000   1.0000   0.0000   0.0000   0.0000
     0.0000   0.0000   0.0000   0.0000   0.0000   0.0000   0.0000   0.0000
     0.0000   0.0000   0.0000

          k = 0.1250 0.0722 0.0000 ( 11905 PWs)   bands (ev):

   -83.6000 -52.9326 -52.7673 -52.7318 -26.7835 -26.6894 -24.0841 -22.6124
   -15.3908 -12.6007 -11.5950 -11.5321 -10.6935 -10.6654 -10.5411 -10.2713
    -9.7570  -8.8993  -8.7592  -8.3042  -6.5828  -2.9412  -2.7426  -2.7180
    -2.3893   0.5045   0.7306   2.4394   2.4915   3.0539   3.2424   3.5278
     4.6773   4.7397   5.1335

     occupation numbers 
     1.0000   1.0000   1.0000   1.0000   1.0000   1.0000   1.0000   1.0000
     1.0000   1.0000   1.0000   1.0000   1.0000   1.0000   1.0000   1.0000
     1.0000   1.0000   1.0000   1.0000   1.0000   0.0000   0.0000   0.0000
     0.0000   0.0000   0.0000   0.0000   0.0000   0.0000   0.0000   0.0000
     0.0000   0.0000   0.0000

          k =-0.2500 0.1443 0.0000 ( 11885 PWs)   bands (ev):

   -83.6110 -53.1913 -52.8352 -52.6384 -25.9783 -25.8985 -23.5238 -22.3324
   -15.0332 -13.8368 -13.4730 -12.2917 -11.5619 -11.2207 -11.2109  -9.9328
    -9.6388  -9.3543  -9.2567  -8.5001  -6.9082  -3.5533  -3.2515  -2.4621
    -1.8635   0.1120   0.3008   2.4285   2.5717   3.4913   3.9963   5.0903
     5.9020   6.1090   6.2879

     occupation numbers 
     1.0000   1.0000   1.0000   1.0000   1.0000   1.0000   1.0000   1.0000
     1.0000   1.0000   1.0000   1.0000   1.0000   1.0000   1.0000   1.0000
     1.0000   1.0000   1.0000   1.0000   1.0000   0.0000   0.0000   0.0000
     0.0000   0.0000   0.0000   0.0000   0.0000   0.0000   0.0000   0.0000
     0.0000   0.0000   0.0000

          k = 0.2500 0.1443 0.0000 ( 11885 PWs)   bands (ev):

   -83.6110 -53.1913 -52.8352 -52.6384 -25.9783 -25.8985 -23.5238 -22.3324
   -15.0332 -13.8368 -13.4730 -12.2917 -11.5619 -11.2208 -11.2110  -9.9328
    -9.6388  -9.3544  -9.2568  -8.5001  -6.9081  -3.5532  -3.2516  -2.4621
    -1.8634   0.1120   0.3008   2.4284   2.5717   3.4913   3.9963   5.0903
     5.9020   6.1089   6.2879

     occupation numbers 
     1.0000   1.0000   1.0000   1.0000   1.0000   1.0000   1.0000   1.0000
     1.0000   1.0000   1.0000   1.0000   1.0000   1.0000   1.0000   1.0000
     1.0000   1.0000   1.0000   1.0000   1.0000   0.0000   0.0000   0.0000
     0.0000   0.0000   0.0000   0.0000   0.0000   0.0000   0.0000   0.0000
     0.0000   0.0000   0.0000

          k =-0.3750 0.2165 0.0000 ( 11860 PWs)   bands (ev):

   -83.6054 -53.2484 -52.8474 -52.7457 -24.9043 -24.8504 -22.9914 -22.1119
   -16.2451 -15.9317 -13.8316 -12.6003 -12.0661 -11.7473 -11.7152 -10.4100
    -9.8235  -9.4665  -8.7008  -8.6897  -7.1255  -4.0089  -3.6298  -2.2440
    -1.4779  -1.2821  -0.7767   2.4296   2.9894   4.0197   4.2987   5.7883
     6.4121   6.6148   7.1620

     occupation numbers 
     1.0000   1.0000   1.0000   1.0000   1.0000   1.0000   1.0000   1.0000
     1.0000   1.0000   1.0000   1.0000   1.0000   1.0000   1.0000   1.0000
     1.0000   1.0000   1.0000   1.0000   1.0000   0.0000   0.0000   0.0000
     0.0000   0.0000   0.0000   0.0000   0.0000   0.0000   0.0000   0.0000
     0.0000   0.0000   0.0000

          k = 0.3750 0.2165 0.0000 ( 11860 PWs)   bands (ev):

   -83.6054 -53.2484 -52.8474 -52.7457 -24.9043 -24.8504 -22.9914 -22.1118
   -16.2451 -15.9316 -13.8316 -12.6003 -12.0661 -11.7474 -11.7153 -10.4100
    -9.8236  -9.4665  -8.7008  -8.6896  -7.1254  -4.0089  -3.6298  -2.2441
    -1.4778  -1.2821  -0.7767   2.4296   2.9894   4.0197   4.2988   5.7883
     6.4122   6.6148   7.1620

     occupation numbers 
     1.0000   1.0000   1.0000   1.0000   1.0000   1.0000   1.0000   1.0000
     1.0000   1.0000   1.0000   1.0000   1.0000   1.0000   1.0000   1.0000
     1.0000   1.0000   1.0000   1.0000   1.0000   0.0000   0.0000   0.0000
     0.0000   0.0000   0.0000   0.0000   0.0000   0.0000   0.0000   0.0000
     0.0000   0.0000   0.0000

          k = 0.5000-0.2887 0.0000 ( 11846 PWs)   bands (ev):

   -83.6014 -53.2014 -52.8637 -52.8565 -24.2400 -24.2131 -22.8615 -22.1262
   -17.1598 -16.8849 -13.5598 -13.0602 -12.1768 -11.9708 -11.9321 -10.6064
   -10.0247  -9.2231  -8.7546  -8.4434  -7.3067  -4.0093  -3.6847  -2.3890
    -1.8994  -1.3465  -1.0621   2.1455   2.7598   4.4230   5.1185   5.8255
     6.1777   6.5201   7.2568

     occupation numbers 
     1.0000   1.0000   1.0000   1.0000   1.0000   1.0000   1.0000   1.0000
     1.0000   1.0000   1.0000   1.0000   1.0000   1.0000   1.0000   1.0000
     1.0000   1.0000   1.0000   1.0000   1.0000   0.0000   0.0000   0.0000
     0.0000   0.0000   0.0000   0.0000   0.0000   0.0000   0.0000   0.0000
     0.0000   0.0000   0.0000

          k =-0.5000-0.2887 0.0000 ( 11846 PWs)   bands (ev):

   -83.6014 -53.2014 -52.8637 -52.8565 -24.2400 -24.2131 -22.8615 -22.1262
   -17.1598 -16.8849 -13.5597 -13.0603 -12.1768 -11.9709 -11.9322 -10.6064
   -10.0248  -9.2232  -8.7545  -8.4435  -7.3066  -4.0093  -3.6846  -2.3890
    -1.8993  -1.3465  -1.0621   2.1454   2.7598   4.4230   5.1186   5.8255
     6.1778   6.5201   7.2567

     occupation numbers 
     1.0000   1.0000   1.0000   1.0000   1.0000   1.0000   1.0000   1.0000
     1.0000   1.0000   1.0000   1.0000   1.0000   1.0000   1.0000   1.0000
     1.0000   1.0000   1.0000   1.0000   1.0000   0.0000   0.0000   0.0000
     0.0000   0.0000   0.0000   0.0000   0.0000   0.0000   0.0000   0.0000
     0.0000   0.0000   0.0000

          k =-0.1250 0.2165 0.0000 ( 11867 PWs)   bands (ev):

   -83.6019 -53.1220 -52.8517 -52.5932 -26.2305 -26.1449 -23.6930 -22.4187
   -15.0463 -13.0819 -12.8534 -12.2959 -11.6092 -11.3087 -10.9266  -9.9743
    -9.6586  -9.5518  -9.0107  -8.3579  -6.7830  -3.3893  -3.0918  -2.7055
    -1.9069   1.0471   1.2330   2.0133   2.0273   3.4884   3.6388   4.0484
     5.0943   5.7026   6.4689

     occupation numbers 
     1.0000   1.0000   1.0000   1.0000   1.0000   1.0000   1.0000   1.0000
     1.0000   1.0000   1.0000   1.0000   1.0000   1.0000   1.0000   1.0000
     1.0000   1.0000   1.0000   1.0000   1.0000   0.0000   0.0000   0.0000
     0.0000   0.0000   0.0000   0.0000   0.0000   0.0000   0.0000   0.0000
     0.0000   0.0000   0.0000

          k = 0.2500-0.0000 0.0000 ( 11867 PWs)   bands (ev):

   -83.6019 -53.1220 -52.8517 -52.5932 -26.2305 -26.1449 -23.6930 -22.4187
   -15.0463 -13.0819 -12.8534 -12.2959 -11.6092 -11.3087 -10.9266  -9.9743
    -9.6586  -9.5518  -9.0107  -8.3579  -6.7830  -3.3893  -3.0918  -2.7055
    -1.9069   1.0472   1.2330   2.0133   2.0273   3.4884   3.6388   4.0484
     5.0942   5.7026   6.4690

     occupation numbers 
     1.0000   1.0000   1.0000   1.0000   1.0000   1.0000   1.0000   1.0000
     1.0000   1.0000   1.0000   1.0000   1.0000   1.0000   1.0000   1.0000
     1.0000   1.0000   1.0000   1.0000   1.0000   0.0000   0.0000   0.0000
     0.0000   0.0000   0.0000   0.0000   0.0000   0.0000   0.0000   0.0000
     0.0000   0.0000   0.0000

          k =-0.1250 0.3608 0.0000 ( 11871 PWs)   bands (ev):

   -83.6046 -53.2149 -52.9557 -52.6051 -25.2711 -25.2050 -23.1388 -22.1580
   -15.4511 -14.9649 -13.7880 -12.5719 -12.2952 -11.9829 -11.6109 -10.5859
    -9.6708  -9.3295  -9.0852  -8.6318  -7.1473  -3.7625  -3.4953  -2.3520
    -1.5977   0.1373   0.3697   2.6669   2.7393   3.7948   4.1852   5.1196
     5.7510   6.1934   6.6255

     occupation numbers 
     1.0000   1.0000   1.0000   1.0000   1.0000   1.0000   1.0000   1.0000
     1.0000   1.0000   1.0000   1.0000   1.0000   1.0000   1.0000   1.0000
     1.0000   1.0000   1.0000   1.0000   1.0000   0.0000   0.0000   0.0000
     0.0000   0.0000   0.0000   0.0000   0.0000   0.0000   0.0000   0.0000
     0.0000   0.0000   0.0000

          k =-0.2500 0.2887 0.0000 ( 11871 PWs)   bands (ev):

   -83.6046 -53.2149 -52.9557 -52.6051 -25.2711 -25.2050 -23.1387 -22.1580
   -15.4511 -14.9649 -13.7881 -12.5719 -12.2951 -11.9829 -11.6109 -10.5859
    -9.6708  -9.3295  -9.0851  -8.6319  -7.1473  -3.7625  -3.4953  -2.3520
    -1.5977   0.1373   0.3697   2.6670   2.7394   3.7947   4.1851   5.1196
     5.7510   6.1934   6.6254

     occupation numbers 
     1.0000   1.0000   1.0000   1.0000   1.0000   1.0000   1.0000   1.0000
     1.0000   1.0000   1.0000   1.0000   1.0000   1.0000   1.0000   1.0000
     1.0000   1.0000   1.0000   1.0000   1.0000   0.0000   0.0000   0.0000
     0.0000   0.0000   0.0000   0.0000   0.0000   0.0000   0.0000   0.0000
     0.0000   0.0000   0.0000

          k = 0.3750 0.0722 0.0000 ( 11871 PWs)   bands (ev):

   -83.6046 -53.2149 -52.9557 -52.6051 -25.2711 -25.2050 -23.1388 -22.1580
   -15.4511 -14.9649 -13.7880 -12.5719 -12.2952 -11.9829 -11.6109 -10.5859
    -9.6708  -9.3295  -9.0852  -8.6318  -7.1473  -3.7625  -3.4953  -2.3520
    -1.5977   0.1373   0.3697   2.6669   2.7393   3.7947   4.1851   5.1196
     5.7510   6.1934   6.6255

     occupation numbers 
     1.0000   1.0000   1.0000   1.0000   1.0000   1.0000   1.0000   1.0000
     1.0000   1.0000   1.0000   1.0000   1.0000   1.0000   1.0000   1.0000
     1.0000   1.0000   1.0000   1.0000   1.0000   0.0000   0.0000   0.0000
     0.0000   0.0000   0.0000   0.0000   0.0000   0.0000   0.0000   0.0000
     0.0000   0.0000   0.0000

          k =-0.2500-0.2887 0.0000 ( 11871 PWs)   bands (ev):

   -83.6046 -53.2149 -52.9557 -52.6050 -25.2711 -25.2050 -23.1388 -22.1579
   -15.4511 -14.9648 -13.7880 -12.5719 -12.2952 -11.9829 -11.6110 -10.5859
    -9.6708  -9.3295  -9.0852  -8.6318  -7.1472  -3.7625  -3.4953  -2.3520
    -1.5978   0.1373   0.3697   2.6670   2.7394   3.7947   4.1851   5.1196
     5.7510   6.1934   6.6255

     occupation numbers 
     1.0000   1.0000   1.0000   1.0000   1.0000   1.0000   1.0000   1.0000
     1.0000   1.0000   1.0000   1.0000   1.0000   1.0000   1.0000   1.0000
     1.0000   1.0000   1.0000   1.0000   1.0000   0.0000   0.0000   0.0000
     0.0000   0.0000   0.0000   0.0000   0.0000   0.0000   0.0000   0.0000
     0.0000   0.0000   0.0000

          k = 0.3750-0.0722 0.0000 ( 11871 PWs)   bands (ev):

   -83.6046 -53.2149 -52.9557 -52.6051 -25.2711 -25.2050 -23.1387 -22.1580
   -15.4511 -14.9649 -13.7881 -12.5719 -12.2951 -11.9829 -11.6109 -10.5859
    -9.6708  -9.3295  -9.0851  -8.6318  -7.1473  -3.7625  -3.4953  -2.3520
    -1.5977   0.1373   0.3697   2.6669   2.7393   3.7947   4.1851   5.1196
     5.7510   6.1934   6.6255

     occupation numbers 
     1.0000   1.0000   1.0000   1.0000   1.0000   1.0000   1.0000   1.0000
     1.0000   1.0000   1.0000   1.0000   1.0000   1.0000   1.0000   1.0000
     1.0000   1.0000   1.0000   1.0000   1.0000   0.0000   0.0000   0.0000
     0.0000   0.0000   0.0000   0.0000   0.0000   0.0000   0.0000   0.0000
     0.0000   0.0000   0.0000

          k =-0.1250 0.5052 0.0000 ( 11841 PWs)   bands (ev):

   -83.6079 -53.2002 -52.9794 -52.7609 -24.2821 -24.2462 -22.8268 -22.0755
   -16.7279 -16.4401 -13.6159 -13.1092 -12.7151 -12.3306 -12.0365 -10.8029
    -9.9136  -9.2707  -9.0759  -8.5491  -7.2444  -4.1046  -3.4784  -2.0890
    -1.7540  -0.7236  -0.3390   2.7307   3.2509   3.9501   4.3509   5.3753
     6.2337   6.3132   7.0527

     occupation numbers 
     1.0000   1.0000   1.0000   1.0000   1.0000   1.0000   1.0000   1.0000
     1.0000   1.0000   1.0000   1.0000   1.0000   1.0000   1.0000   1.0000
     1.0000   1.0000   1.0000   1.0000   1.0000   0.0000   0.0000   0.0000
     0.0000   0.0000   0.0000   0.0000   0.0000   0.0000   0.0000   0.0000
     0.0000   0.0000   0.0000

          k =-0.3750 0.3608 0.0000 ( 11841 PWs)   bands (ev):

   -83.6079 -53.2002 -52.9794 -52.7609 -24.2821 -24.2462 -22.8268 -22.0755
   -16.7279 -16.4402 -13.6159 -13.1092 -12.7151 -12.3305 -12.0365 -10.8029
    -9.9136  -9.2707  -9.0759  -8.5492  -7.2445  -4.1046  -3.4784  -2.0889
    -1.7540  -0.7236  -0.3390   2.7308   3.2509   3.9500   4.3509   5.3753
     6.2336   6.3132   7.0528

     occupation numbers 
     1.0000   1.0000   1.0000   1.0000   1.0000   1.0000   1.0000   1.0000
     1.0000   1.0000   1.0000   1.0000   1.0000   1.0000   1.0000   1.0000
     1.0000   1.0000   1.0000   1.0000   1.0000   0.0000   0.0000   0.0000
     0.0000   0.0000   0.0000   0.0000   0.0000   0.0000   0.0000   0.0000
     0.0000   0.0000   0.0000

          k = 0.5000 0.1443 0.0000 ( 11841 PWs)   bands (ev):

   -83.6079 -53.2002 -52.9794 -52.7609 -24.2821 -24.2462 -22.8268 -22.0755
   -16.7279 -16.4401 -13.6159 -13.1092 -12.7151 -12.3305 -12.0364 -10.8029
    -9.9136  -9.2707  -9.0759  -8.5491  -7.2444  -4.1046  -3.4784  -2.0890
    -1.7539  -0.7236  -0.3390   2.7307   3.2509   3.9501   4.3509   5.3754
     6.2337   6.3133   7.0527

     occupation numbers 
     1.0000   1.0000   1.0000   1.0000   1.0000   1.0000   1.0000   1.0000
     1.0000   1.0000   1.0000   1.0000   1.0000   1.0000   1.0000   1.0000
     1.0000   1.0000   1.0000   1.0000   1.0000   0.0000   0.0000   0.0000
     0.0000   0.0000   0.0000   0.0000   0.0000   0.0000   0.0000   0.0000
     0.0000   0.0000   0.0000

          k =-0.3750-0.3608 0.0000 ( 11841 PWs)   bands (ev):

   -83.6079 -53.2002 -52.9794 -52.7609 -24.2821 -24.2462 -22.8268 -22.0755
   -16.7279 -16.4401 -13.6159 -13.1092 -12.7151 -12.3306 -12.0365 -10.8029
    -9.9137  -9.2707  -9.0760  -8.5491  -7.2444  -4.1046  -3.4784  -2.0889
    -1.7540  -0.7236  -0.3390   2.7307   3.2509   3.9500   4.3509   5.3753
     6.2336   6.3133   7.0528

     occupation numbers 
     1.0000   1.0000   1.0000   1.0000   1.0000   1.0000   1.0000   1.0000
     1.0000   1.0000   1.0000   1.0000   1.0000   1.0000   1.0000   1.0000
     1.0000   1.0000   1.0000   1.0000   1.0000   0.0000   0.0000   0.0000
     0.0000   0.0000   0.0000   0.0000   0.0000   0.0000   0.0000   0.0000
     0.0000   0.0000   0.0000

          k = 0.5000-0.1443 0.0000 ( 11841 PWs)   bands (ev):

   -83.6079 -53.2002 -52.9794 -52.7609 -24.2821 -24.2462 -22.8268 -22.0755
   -16.7279 -16.4402 -13.6159 -13.1092 -12.7151 -12.3305 -12.0365 -10.8029
    -9.9136  -9.2707  -9.0759  -8.5492  -7.2445  -4.1047  -3.4784  -2.0889
    -1.7540  -0.7236  -0.3390   2.7307   3.2509   3.9500   4.3509   5.3753
     6.2336   6.3132   7.0527

     occupation numbers 
     1.0000   1.0000   1.0000   1.0000   1.0000   1.0000   1.0000   1.0000
     1.0000   1.0000   1.0000   1.0000   1.0000   1.0000   1.0000   1.0000
     1.0000   1.0000   1.0000   1.0000   1.0000   0.0000   0.0000   0.0000
     0.0000   0.0000   0.0000   0.0000   0.0000   0.0000   0.0000   0.0000
     0.0000   0.0000   0.0000

          k =-0.2500 0.4330 0.0000 ( 11844 PWs)   bands (ev):

   -83.6156 -53.1788 -53.1201 -52.6653 -24.3246 -24.2813 -22.7978 -22.0304
   -16.1280 -15.7820 -14.0054 -13.7998 -13.2893 -11.9826 -11.8363 -11.1887
   -10.0800  -9.5783  -9.0429  -8.5248  -7.3236  -4.0175  -3.4102  -2.1519
    -1.6670   0.5052   0.7398   2.6205   3.0285   4.4548   4.7120   5.0805
     5.4752   6.1223   6.8633

     occupation numbers 
     1.0000   1.0000   1.0000   1.0000   1.0000   1.0000   1.0000   1.0000
     1.0000   1.0000   1.0000   1.0000   1.0000   1.0000   1.0000   1.0000
     1.0000   1.0000   1.0000   1.0000   1.0000   0.0000   0.0000   0.0000
     0.0000   0.0000   0.0000   0.0000   0.0000   0.0000   0.0000   0.0000
     0.0000   0.0000   0.0000

          k = 0.5000-0.0000 0.0000 ( 11844 PWs)   bands (ev):

   -83.6156 -53.1788 -53.1201 -52.6653 -24.3246 -24.2813 -22.7978 -22.0304
   -16.1280 -15.7820 -14.0054 -13.7998 -13.2893 -11.9826 -11.8363 -11.1887
   -10.0800  -9.5783  -9.0429  -8.5248  -7.3236  -4.0175  -3.4102  -2.1519
    -1.6669   0.5052   0.7398   2.6205   3.0284   4.4548   4.7119   5.0805
     5.4753   6.1224   6.8633

     occupation numbers 
     1.0000   1.0000   1.0000   1.0000   1.0000   1.0000   1.0000   1.0000
     1.0000   1.0000   1.0000   1.0000   1.0000   1.0000   1.0000   1.0000
     1.0000   1.0000   1.0000   1.0000   1.0000   0.0000   0.0000   0.0000
     0.0000   0.0000   0.0000   0.0000   0.0000   0.0000   0.0000   0.0000
     0.0000   0.0000   0.0000

          k =-0.3750 0.5052 0.0000 ( 11800 PWs)   bands (ev):

   -83.6049 -53.2063 -53.1362 -52.6321 -23.7837 -23.7557 -22.7489 -22.0520
   -16.3800 -16.0484 -14.6479 -14.5199 -12.8138 -12.3623 -12.1098 -10.8399
   -10.5812  -9.9953  -8.9872  -8.3420  -6.9593  -4.4143  -3.2496  -2.0474
    -1.7613   0.2874   0.6857   2.8438   3.2815   4.3315   4.7380   5.2494
     5.8543   6.3477   6.4450

     occupation numbers 
     1.0000   1.0000   1.0000   1.0000   1.0000   1.0000   1.0000   1.0000
     1.0000   1.0000   1.0000   1.0000   1.0000   1.0000   1.0000   1.0000
     1.0000   1.0000   1.0000   1.0000   1.0000   0.0000   0.0000   0.0000
     0.0000   0.0000   0.0000   0.0000   0.0000   0.0000   0.0000   0.0000
     0.0000   0.0000   0.0000

          k = 0.6250 0.0722 0.0000 ( 11800 PWs)   bands (ev):

   -83.6049 -53.2063 -53.1362 -52.6321 -23.7836 -23.7557 -22.7489 -22.0520
   -16.3800 -16.0483 -14.6480 -14.5199 -12.8138 -12.3623 -12.1097 -10.8399
   -10.5812  -9.9953  -8.9872  -8.3420  -6.9593  -4.4143  -3.2496  -2.0474
    -1.7613   0.2874   0.6858   2.8438   3.2815   4.3314   4.7380   5.2493
     5.8544   6.3478   6.4450

     occupation numbers 
     1.0000   1.0000   1.0000   1.0000   1.0000   1.0000   1.0000   1.0000
     1.0000   1.0000   1.0000   1.0000   1.0000   1.0000   1.0000   1.0000
     1.0000   1.0000   1.0000   1.0000   1.0000   0.0000   0.0000   0.0000
     0.0000   0.0000   0.0000   0.0000   0.0000   0.0000   0.0000   0.0000
     0.0000   0.0000   0.0000

     highest occupied, lowest unoccupied level (ev):    -6.5633   -4.4143

!    total energy              =    -263.21053543 Ry
     estimated scf accuracy    <          8.3E-12 Ry

     convergence has been achieved in   7 iterations

     Using ACE for calculation of exact exchange
     ACE projected onto    35 (nbndproj) and applied to    35 (nbnd) bands

     total energy              =    -263.21053782 Ry
     Harris-Foulkes estimate   =    -263.21053782 Ry
     est. exchange err (dexx)  =       0.00000239 Ry
     - averaged Fock potential =      17.83965211 Ry
     + Fock energy (ACE)       =      -8.91996388 Ry

     EXX: now go back to refine exchange calculation

     total cpu time spent up to now is     3382.8 secs

     Self-consistent Calculation

     iteration #  1     ecut=    80.00 Ry     beta= 0.50
     Davidson diagonalization with overlap

---- Real-time Memory Report at c_bands before calling an iterative solver
          2135 MiB given to the printing process from OS
             0 MiB allocation reported by mallinfo(arena+hblkhd)
         12894 MiB available memory on the node where the printing process lives
------------------
     ethr =  1.21E-12,  avg # of iterations =  5.9

     total cpu time spent up to now is     3395.2 secs

     total energy              =    -263.21053937 Ry
     estimated scf accuracy    <       0.00000022 Ry

     iteration #  2     ecut=    80.00 Ry     beta= 0.50
     Davidson diagonalization with overlap

---- Real-time Memory Report at c_bands before calling an iterative solver
          2135 MiB given to the printing process from OS
             0 MiB allocation reported by mallinfo(arena+hblkhd)
         12884 MiB available memory on the node where the printing process lives
------------------
     ethr =  5.16E-10,  avg # of iterations =  2.0

     total cpu time spent up to now is     3402.2 secs

     total energy              =    -263.21053938 Ry
     estimated scf accuracy    <       0.00000003 Ry

     iteration #  3     ecut=    80.00 Ry     beta= 0.50
     Davidson diagonalization with overlap

---- Real-time Memory Report at c_bands before calling an iterative solver
          2135 MiB given to the printing process from OS
             0 MiB allocation reported by mallinfo(arena+hblkhd)
         12883 MiB available memory on the node where the printing process lives
------------------
     ethr =  6.84E-11,  avg # of iterations =  2.0

     total cpu time spent up to now is     3410.0 secs

     total energy              =    -263.21053938 Ry
     estimated scf accuracy    <       0.00000010 Ry

     iteration #  4     ecut=    80.00 Ry     beta= 0.50
     Davidson diagonalization with overlap

---- Real-time Memory Report at c_bands before calling an iterative solver
          2135 MiB given to the printing process from OS
             0 MiB allocation reported by mallinfo(arena+hblkhd)
         12882 MiB available memory on the node where the printing process lives
------------------
     ethr =  6.84E-11,  avg # of iterations =  2.0

     total cpu time spent up to now is     3417.1 secs

     total energy              =    -263.21053940 Ry
     estimated scf accuracy    <          2.5E-09 Ry

     iteration #  5     ecut=    80.00 Ry     beta= 0.50
     Davidson diagonalization with overlap

---- Real-time Memory Report at c_bands before calling an iterative solver
          2135 MiB given to the printing process from OS
             0 MiB allocation reported by mallinfo(arena+hblkhd)
         12881 MiB available memory on the node where the printing process lives
------------------
     ethr =  5.99E-12,  avg # of iterations =  2.0

     total cpu time spent up to now is     3424.3 secs

     total energy              =    -263.21053940 Ry
     estimated scf accuracy    <          2.4E-09 Ry

     iteration #  6     ecut=    80.00 Ry     beta= 0.50
     Davidson diagonalization with overlap

---- Real-time Memory Report at c_bands before calling an iterative solver
          2135 MiB given to the printing process from OS
             0 MiB allocation reported by mallinfo(arena+hblkhd)
         12884 MiB available memory on the node where the printing process lives
------------------
     ethr =  5.66E-12,  avg # of iterations =  1.5

     total cpu time spent up to now is     3430.9 secs

     total energy              =    -263.21053940 Ry
     estimated scf accuracy    <          1.6E-10 Ry

     iteration #  7     ecut=    80.00 Ry     beta= 0.50
     Davidson diagonalization with overlap

---- Real-time Memory Report at c_bands before calling an iterative solver
          2135 MiB given to the printing process from OS
             0 MiB allocation reported by mallinfo(arena+hblkhd)
         12902 MiB available memory on the node where the printing process lives
------------------
     ethr =  3.91E-13,  avg # of iterations =  1.6

     total cpu time spent up to now is     3437.6 secs

     End of self-consistent calculation

          k = 0.0000 0.0000 0.0000 ( 11937 PWs)   bands (ev):

   -83.5889 -52.8400 -52.7339 -52.7339 -27.0868 -26.9890 -24.3182 -22.7309
   -15.6433 -12.7268 -10.6448 -10.4744 -10.4743 -10.4277 -10.4276  -9.9063
    -9.9062  -8.4939  -8.4936  -8.4914  -6.5672  -2.6791  -2.6788  -2.4432
    -2.4430  -0.2224   0.1108   2.3491   2.3825   2.5024   4.0138   4.0138
     4.0684   4.0685   4.2608

     occupation numbers 
     1.0000   1.0000   1.0000   1.0000   1.0000   1.0000   1.0000   1.0000
     1.0000   1.0000   1.0000   1.0000   1.0000   1.0000   1.0000   1.0000
     1.0000   1.0000   1.0000   1.0000   1.0000   0.0000   0.0000   0.0000
     0.0000   0.0000   0.0000   0.0000   0.0000   0.0000   0.0000   0.0000
     0.0000   0.0000   0.0000

          k = 0.0000 0.1443 0.0000 ( 11905 PWs)   bands (ev):

   -83.5995 -52.9330 -52.7658 -52.7317 -26.7834 -26.6893 -24.0839 -22.6121
   -15.3910 -12.6006 -11.5949 -11.5320 -10.6935 -10.6654 -10.5406 -10.2717
    -9.7563  -8.8989  -8.7586  -8.3038  -6.5844  -2.9416  -2.7418  -2.7168
    -2.3887   0.5045   0.7307   2.4394   2.4916   3.0540   3.2425   3.5279
     4.6774   4.7397   5.1337

     occupation numbers 
     1.0000   1.0000   1.0000   1.0000   1.0000   1.0000   1.0000   1.0000
     1.0000   1.0000   1.0000   1.0000   1.0000   1.0000   1.0000   1.0000
     1.0000   1.0000   1.0000   1.0000   1.0000   0.0000   0.0000   0.0000
     0.0000   0.0000   0.0000   0.0000   0.0000   0.0000   0.0000   0.0000
     0.0000   0.0000   0.0000

          k = 0.0000 0.2887 0.0000 ( 11885 PWs)   bands (ev):

   -83.6104 -53.1929 -52.8342 -52.6363 -25.9783 -25.8985 -23.5237 -22.3321
   -15.0330 -13.8368 -13.4730 -12.2915 -11.5627 -11.2207 -11.2110  -9.9329
    -9.6386  -9.3539  -9.2560  -8.4996  -6.9072  -3.5554  -3.2497  -2.4613
    -1.8630   0.1119   0.3009   2.4285   2.5717   3.4914   3.9964   5.0902
     5.9020   6.1091   6.2879

     occupation numbers 
     1.0000   1.0000   1.0000   1.0000   1.0000   1.0000   1.0000   1.0000
     1.0000   1.0000   1.0000   1.0000   1.0000   1.0000   1.0000   1.0000
     1.0000   1.0000   1.0000   1.0000   1.0000   0.0000   0.0000   0.0000
     0.0000   0.0000   0.0000   0.0000   0.0000   0.0000   0.0000   0.0000
     0.0000   0.0000   0.0000

          k = 0.0000 0.4330 0.0000 ( 11860 PWs)   bands (ev):

   -83.6048 -53.2488 -52.8459 -52.7454 -24.9042 -24.8504 -22.9912 -22.1115
   -16.2450 -15.9316 -13.8311 -12.6003 -12.0659 -11.7473 -11.7153 -10.4098
    -9.8231  -9.4663  -8.7004  -8.6892  -7.1272  -4.0104  -3.6283  -2.2432
    -1.4771  -1.2820  -0.7763   2.4296   2.9895   4.0198   4.2989   5.7884
     6.4122   6.6149   7.1621

     occupation numbers 
     1.0000   1.0000   1.0000   1.0000   1.0000   1.0000   1.0000   1.0000
     1.0000   1.0000   1.0000   1.0000   1.0000   1.0000   1.0000   1.0000
     1.0000   1.0000   1.0000   1.0000   1.0000   0.0000   0.0000   0.0000
     0.0000   0.0000   0.0000   0.0000   0.0000   0.0000   0.0000   0.0000
     0.0000   0.0000   0.0000

          k = 0.0000-0.5774 0.0000 ( 11846 PWs)   bands (ev):

   -83.6008 -53.2007 -52.8635 -52.8561 -24.2399 -24.2131 -22.8614 -22.1260
   -17.1597 -16.8848 -13.5595 -13.0602 -12.1766 -11.9708 -11.9322 -10.6061
   -10.0243  -9.2230  -8.7543  -8.4434  -7.3089  -4.0100  -3.6830  -2.3884
    -1.8992  -1.3457  -1.0616   2.1455   2.7599   4.4230   5.1186   5.8256
     6.1778   6.5202   7.2568

     occupation numbers 
     1.0000   1.0000   1.0000   1.0000   1.0000   1.0000   1.0000   1.0000
     1.0000   1.0000   1.0000   1.0000   1.0000   1.0000   1.0000   1.0000
     1.0000   1.0000   1.0000   1.0000   1.0000   0.0000   0.0000   0.0000
     0.0000   0.0000   0.0000   0.0000   0.0000   0.0000   0.0000   0.0000
     0.0000   0.0000   0.0000

          k = 0.1250 0.2165 0.0000 ( 11867 PWs)   bands (ev):

   -83.6012 -53.1231 -52.8506 -52.5913 -26.2305 -26.1449 -23.6928 -22.4184
   -15.0461 -13.0818 -12.8533 -12.2957 -11.6091 -11.3088 -10.9265  -9.9741
    -9.6589  -9.5522  -9.0102  -8.3575  -6.7821  -3.3920  -3.0892  -2.7049
    -1.9060   1.0473   1.2331   2.0132   2.0273   3.4885   3.6388   4.0484
     5.0944   5.7026   6.4690

     occupation numbers 
     1.0000   1.0000   1.0000   1.0000   1.0000   1.0000   1.0000   1.0000
     1.0000   1.0000   1.0000   1.0000   1.0000   1.0000   1.0000   1.0000
     1.0000   1.0000   1.0000   1.0000   1.0000   0.0000   0.0000   0.0000
     0.0000   0.0000   0.0000   0.0000   0.0000   0.0000   0.0000   0.0000
     0.0000   0.0000   0.0000

          k = 0.1250 0.3608 0.0000 ( 11871 PWs)   bands (ev):

   -83.6039 -53.2154 -52.9552 -52.6032 -25.2710 -25.2050 -23.1386 -22.1577
   -15.4510 -14.9648 -13.7880 -12.5719 -12.2951 -11.9827 -11.6110 -10.5856
    -9.6708  -9.3291  -9.0849  -8.6315  -7.1478  -3.7622  -3.4945  -2.3512
    -1.5971   0.1373   0.3698   2.6670   2.7394   3.7948   4.1852   5.1196
     5.7510   6.1934   6.6255

     occupation numbers 
     1.0000   1.0000   1.0000   1.0000   1.0000   1.0000   1.0000   1.0000
     1.0000   1.0000   1.0000   1.0000   1.0000   1.0000   1.0000   1.0000
     1.0000   1.0000   1.0000   1.0000   1.0000   0.0000   0.0000   0.0000
     0.0000   0.0000   0.0000   0.0000   0.0000   0.0000   0.0000   0.0000
     0.0000   0.0000   0.0000

          k = 0.1250 0.5052 0.0000 ( 11841 PWs)   bands (ev):

   -83.6073 -53.1992 -52.9793 -52.7606 -24.2820 -24.2462 -22.8266 -22.0752
   -16.7279 -16.4401 -13.6158 -13.1090 -12.7151 -12.3305 -12.0361 -10.8025
    -9.9134  -9.2706  -9.0758  -8.5490  -7.2470  -4.1052  -3.4759  -2.0882
    -1.7533  -0.7234  -0.3387   2.7308   3.2510   3.9500   4.3509   5.3753
     6.2337   6.3133   7.0528

     occupation numbers 
     1.0000   1.0000   1.0000   1.0000   1.0000   1.0000   1.0000   1.0000
     1.0000   1.0000   1.0000   1.0000   1.0000   1.0000   1.0000   1.0000
     1.0000   1.0000   1.0000   1.0000   1.0000   0.0000   0.0000   0.0000
     0.0000   0.0000   0.0000   0.0000   0.0000   0.0000   0.0000   0.0000
     0.0000   0.0000   0.0000

          k = 0.2500 0.4330 0.0000 ( 11844 PWs)   bands (ev):

   -83.6150 -53.1790 -53.1203 -52.6631 -24.3246 -24.2813 -22.7976 -22.0301
   -16.1280 -15.7820 -14.0054 -13.7999 -13.2891 -11.9824 -11.8361 -11.1883
   -10.0796  -9.5781  -9.0427  -8.5245  -7.3273  -4.0137  -3.4105  -2.1509
    -1.6665   0.5052   0.7401   2.6205   3.0285   4.4548   4.7120   5.0804
     5.4754   6.1223   6.8629

     occupation numbers 
     1.0000   1.0000   1.0000   1.0000   1.0000   1.0000   1.0000   1.0000
     1.0000   1.0000   1.0000   1.0000   1.0000   1.0000   1.0000   1.0000
     1.0000   1.0000   1.0000   1.0000   1.0000   0.0000   0.0000   0.0000
     0.0000   0.0000   0.0000   0.0000   0.0000   0.0000   0.0000   0.0000
     0.0000   0.0000   0.0000

          k = 0.2500 0.5774 0.0000 ( 11800 PWs)   bands (ev):

   -83.6043 -53.2069 -53.1358 -52.6299 -23.7836 -23.7558 -22.7487 -22.0517
   -16.3800 -16.0483 -14.6479 -14.5199 -12.8139 -12.3619 -12.1093 -10.8398
   -10.5809  -9.9952  -8.9872  -8.3419  -6.9608  -4.4109  -3.2506  -2.0467
    -1.7606   0.2874   0.6860   2.8438   3.2815   4.3314   4.7380   5.2492
     5.8545   6.3478   6.4450

     occupation numbers 
     1.0000   1.0000   1.0000   1.0000   1.0000   1.0000   1.0000   1.0000
     1.0000   1.0000   1.0000   1.0000   1.0000   1.0000   1.0000   1.0000
     1.0000   1.0000   1.0000   1.0000   1.0000   0.0000   0.0000   0.0000
     0.0000   0.0000   0.0000   0.0000   0.0000   0.0000   0.0000   0.0000
     0.0000   0.0000   0.0000

          k =-0.1250 0.0722 0.0000 ( 11905 PWs)   bands (ev):

   -83.5995 -52.9330 -52.7658 -52.7317 -26.7834 -26.6893 -24.0839 -22.6121
   -15.3910 -12.6007 -11.5950 -11.5321 -10.6934 -10.6653 -10.5406 -10.2717
    -9.7563  -8.8990  -8.7584  -8.3039  -6.5845  -2.9417  -2.7417  -2.7167
    -2.3888   0.5044   0.7307   2.4394   2.4916   3.0540   3.2425   3.5279
     4.6774   4.7397   5.1337

     occupation numbers 
     1.0000   1.0000   1.0000   1.0000   1.0000   1.0000   1.0000   1.0000
     1.0000   1.0000   1.0000   1.0000   1.0000   1.0000   1.0000   1.0000
     1.0000   1.0000   1.0000   1.0000   1.0000   0.0000   0.0000   0.0000
     0.0000   0.0000   0.0000   0.0000   0.0000   0.0000   0.0000   0.0000
     0.0000   0.0000   0.0000

          k = 0.1250 0.0722 0.0000 ( 11905 PWs)   bands (ev):

   -83.5995 -52.9330 -52.7658 -52.7317 -26.7834 -26.6893 -24.0839 -22.6121
   -15.3910 -12.6006 -11.5949 -11.5320 -10.6935 -10.6654 -10.5406 -10.2717
    -9.7563  -8.8989  -8.7586  -8.3038  -6.5844  -2.9416  -2.7418  -2.7168
    -2.3887   0.5045   0.7307   2.4394   2.4916   3.0540   3.2425   3.5279
     4.6774   4.7397   5.1337

     occupation numbers 
     1.0000   1.0000   1.0000   1.0000   1.0000   1.0000   1.0000   1.0000
     1.0000   1.0000   1.0000   1.0000   1.0000   1.0000   1.0000   1.0000
     1.0000   1.0000   1.0000   1.0000   1.0000   0.0000   0.0000   0.0000
     0.0000   0.0000   0.0000   0.0000   0.0000   0.0000   0.0000   0.0000
     0.0000   0.0000   0.0000

          k =-0.2500 0.1443 0.0000 ( 11885 PWs)   bands (ev):

   -83.6104 -53.1929 -52.8342 -52.6363 -25.9783 -25.8985 -23.5236 -22.3322
   -15.0330 -13.8368 -13.4730 -12.2916 -11.5627 -11.2207 -11.2109  -9.9329
    -9.6386  -9.3538  -9.2559  -8.4997  -6.9072  -3.5555  -3.2496  -2.4612
    -1.8631   0.1119   0.3009   2.4285   2.5717   3.4914   3.9964   5.0902
     5.9020   6.1091   6.2879

     occupation numbers 
     1.0000   1.0000   1.0000   1.0000   1.0000   1.0000   1.0000   1.0000
     1.0000   1.0000   1.0000   1.0000   1.0000   1.0000   1.0000   1.0000
     1.0000   1.0000   1.0000   1.0000   1.0000   0.0000   0.0000   0.0000
     0.0000   0.0000   0.0000   0.0000   0.0000   0.0000   0.0000   0.0000
     0.0000   0.0000   0.0000

          k = 0.2500 0.1443 0.0000 ( 11885 PWs)   bands (ev):

   -83.6104 -53.1929 -52.8342 -52.6363 -25.9783 -25.8985 -23.5237 -22.3321
   -15.0330 -13.8368 -13.4730 -12.2915 -11.5627 -11.2207 -11.2110  -9.9329
    -9.6386  -9.3539  -9.2560  -8.4996  -6.9072  -3.5554  -3.2497  -2.4613
    -1.8630   0.1119   0.3009   2.4285   2.5717   3.4914   3.9964   5.0902
     5.9020   6.1090   6.2879

     occupation numbers 
     1.0000   1.0000   1.0000   1.0000   1.0000   1.0000   1.0000   1.0000
     1.0000   1.0000   1.0000   1.0000   1.0000   1.0000   1.0000   1.0000
     1.0000   1.0000   1.0000   1.0000   1.0000   0.0000   0.0000   0.0000
     0.0000   0.0000   0.0000   0.0000   0.0000   0.0000   0.0000   0.0000
     0.0000   0.0000   0.0000

          k =-0.3750 0.2165 0.0000 ( 11860 PWs)   bands (ev):

   -83.6048 -53.2488 -52.8459 -52.7454 -24.9042 -24.8504 -22.9912 -22.1116
   -16.2451 -15.9316 -13.8311 -12.6003 -12.0659 -11.7473 -11.7152 -10.4098
    -9.8230  -9.4662  -8.7003  -8.6893  -7.1273  -4.0104  -3.6284  -2.2432
    -1.4772  -1.2820  -0.7763   2.4296   2.9894   4.0197   4.2988   5.7885
     6.4122   6.6149   7.1621

     occupation numbers 
     1.0000   1.0000   1.0000   1.0000   1.0000   1.0000   1.0000   1.0000
     1.0000   1.0000   1.0000   1.0000   1.0000   1.0000   1.0000   1.0000
     1.0000   1.0000   1.0000   1.0000   1.0000   0.0000   0.0000   0.0000
     0.0000   0.0000   0.0000   0.0000   0.0000   0.0000   0.0000   0.0000
     0.0000   0.0000   0.0000

          k = 0.3750 0.2165 0.0000 ( 11860 PWs)   bands (ev):

   -83.6048 -53.2488 -52.8459 -52.7454 -24.9042 -24.8504 -22.9912 -22.1115
   -16.2450 -15.9316 -13.8311 -12.6003 -12.0659 -11.7473 -11.7153 -10.4098
    -9.8231  -9.4663  -8.7004  -8.6892  -7.1272  -4.0104  -3.6283  -2.2432
    -1.4771  -1.2820  -0.7763   2.4296   2.9894   4.0197   4.2988   5.7884
     6.4122   6.6149   7.1621

     occupation numbers 
     1.0000   1.0000   1.0000   1.0000   1.0000   1.0000   1.0000   1.0000
     1.0000   1.0000   1.0000   1.0000   1.0000   1.0000   1.0000   1.0000
     1.0000   1.0000   1.0000   1.0000   1.0000   0.0000   0.0000   0.0000
     0.0000   0.0000   0.0000   0.0000   0.0000   0.0000   0.0000   0.0000
     0.0000   0.0000   0.0000

          k = 0.5000-0.2887 0.0000 ( 11846 PWs)   bands (ev):

   -83.6008 -53.2007 -52.8635 -52.8561 -24.2399 -24.2131 -22.8614 -22.1260
   -17.1598 -16.8849 -13.5595 -13.0602 -12.1766 -11.9708 -11.9321 -10.6061
   -10.0242  -9.2230  -8.7544  -8.4433  -7.3090  -4.0101  -3.6830  -2.3884
    -1.8992  -1.3457  -1.0615   2.1455   2.7599   4.4231   5.1186   5.8256
     6.1778   6.5202   7.2568

     occupation numbers 
     1.0000   1.0000   1.0000   1.0000   1.0000   1.0000   1.0000   1.0000
     1.0000   1.0000   1.0000   1.0000   1.0000   1.0000   1.0000   1.0000
     1.0000   1.0000   1.0000   1.0000   1.0000   0.0000   0.0000   0.0000
     0.0000   0.0000   0.0000   0.0000   0.0000   0.0000   0.0000   0.0000
     0.0000   0.0000   0.0000

          k =-0.5000-0.2887 0.0000 ( 11846 PWs)   bands (ev):

   -83.6008 -53.2007 -52.8635 -52.8561 -24.2399 -24.2131 -22.8614 -22.1260
   -17.1598 -16.8849 -13.5595 -13.0602 -12.1766 -11.9708 -11.9322 -10.6061
   -10.0243  -9.2230  -8.7544  -8.4434  -7.3089  -4.0100  -3.6830  -2.3885
    -1.8992  -1.3457  -1.0616   2.1455   2.7599   4.4231   5.1186   5.8256
     6.1778   6.5202   7.2568

     occupation numbers 
     1.0000   1.0000   1.0000   1.0000   1.0000   1.0000   1.0000   1.0000
     1.0000   1.0000   1.0000   1.0000   1.0000   1.0000   1.0000   1.0000
     1.0000   1.0000   1.0000   1.0000   1.0000   0.0000   0.0000   0.0000
     0.0000   0.0000   0.0000   0.0000   0.0000   0.0000   0.0000   0.0000
     0.0000   0.0000   0.0000

          k =-0.1250 0.2165 0.0000 ( 11867 PWs)   bands (ev):

   -83.6012 -53.1231 -52.8506 -52.5913 -26.2305 -26.1449 -23.6928 -22.4184
   -15.0461 -13.0819 -12.8534 -12.2958 -11.6091 -11.3087 -10.9265  -9.9741
    -9.6589  -9.5521  -9.0102  -8.3575  -6.7821  -3.3920  -3.0892  -2.7048
    -1.9060   1.0473   1.2330   2.0133   2.0273   3.4885   3.6388   4.0484
     5.0944   5.7027   6.4690

     occupation numbers 
     1.0000   1.0000   1.0000   1.0000   1.0000   1.0000   1.0000   1.0000
     1.0000   1.0000   1.0000   1.0000   1.0000   1.0000   1.0000   1.0000
     1.0000   1.0000   1.0000   1.0000   1.0000   0.0000   0.0000   0.0000
     0.0000   0.0000   0.0000   0.0000   0.0000   0.0000   0.0000   0.0000
     0.0000   0.0000   0.0000

          k = 0.2500-0.0000 0.0000 ( 11867 PWs)   bands (ev):

   -83.6012 -53.1231 -52.8506 -52.5913 -26.2305 -26.1449 -23.6928 -22.4184
   -15.0461 -13.0819 -12.8534 -12.2958 -11.6091 -11.3087 -10.9265  -9.9741
    -9.6589  -9.5521  -9.0102  -8.3575  -6.7821  -3.3920  -3.0892  -2.7048
    -1.9060   1.0473   1.2331   2.0133   2.0273   3.4885   3.6388   4.0484
     5.0943   5.7026   6.4691

     occupation numbers 
     1.0000   1.0000   1.0000   1.0000   1.0000   1.0000   1.0000   1.0000
     1.0000   1.0000   1.0000   1.0000   1.0000   1.0000   1.0000   1.0000
     1.0000   1.0000   1.0000   1.0000   1.0000   0.0000   0.0000   0.0000
     0.0000   0.0000   0.0000   0.0000   0.0000   0.0000   0.0000   0.0000
     0.0000   0.0000   0.0000

          k =-0.1250 0.3608 0.0000 ( 11871 PWs)   bands (ev):

   -83.6039 -53.2154 -52.9552 -52.6032 -25.2710 -25.2050 -23.1386 -22.1577
   -15.4511 -14.9648 -13.7880 -12.5719 -12.2951 -11.9828 -11.6110 -10.5856
    -9.6709  -9.3291  -9.0849  -8.6315  -7.1478  -3.7622  -3.4945  -2.3512
    -1.5970   0.1373   0.3698   2.6669   2.7394   3.7948   4.1852   5.1196
     5.7510   6.1934   6.6255

     occupation numbers 
     1.0000   1.0000   1.0000   1.0000   1.0000   1.0000   1.0000   1.0000
     1.0000   1.0000   1.0000   1.0000   1.0000   1.0000   1.0000   1.0000
     1.0000   1.0000   1.0000   1.0000   1.0000   0.0000   0.0000   0.0000
     0.0000   0.0000   0.0000   0.0000   0.0000   0.0000   0.0000   0.0000
     0.0000   0.0000   0.0000

          k =-0.2500 0.2887 0.0000 ( 11871 PWs)   bands (ev):

   -83.6039 -53.2154 -52.9552 -52.6032 -25.2710 -25.2050 -23.1386 -22.1577
   -15.4511 -14.9649 -13.7880 -12.5718 -12.2951 -11.9828 -11.6110 -10.5855
    -9.6708  -9.3291  -9.0848  -8.6316  -7.1478  -3.7622  -3.4945  -2.3512
    -1.5971   0.1373   0.3698   2.6670   2.7394   3.7947   4.1852   5.1196
     5.7510   6.1934   6.6254

     occupation numbers 
     1.0000   1.0000   1.0000   1.0000   1.0000   1.0000   1.0000   1.0000
     1.0000   1.0000   1.0000   1.0000   1.0000   1.0000   1.0000   1.0000
     1.0000   1.0000   1.0000   1.0000   1.0000   0.0000   0.0000   0.0000
     0.0000   0.0000   0.0000   0.0000   0.0000   0.0000   0.0000   0.0000
     0.0000   0.0000   0.0000

          k = 0.3750 0.0722 0.0000 ( 11871 PWs)   bands (ev):

   -83.6039 -53.2154 -52.9552 -52.6032 -25.2710 -25.2050 -23.1386 -22.1577
   -15.4510 -14.9649 -13.7880 -12.5719 -12.2951 -11.9828 -11.6110 -10.5856
    -9.6709  -9.3291  -9.0849  -8.6315  -7.1478  -3.7622  -3.4945  -2.3512
    -1.5970   0.1373   0.3698   2.6670   2.7394   3.7948   4.1852   5.1196
     5.7510   6.1935   6.6255

     occupation numbers 
     1.0000   1.0000   1.0000   1.0000   1.0000   1.0000   1.0000   1.0000
     1.0000   1.0000   1.0000   1.0000   1.0000   1.0000   1.0000   1.0000
     1.0000   1.0000   1.0000   1.0000   1.0000   0.0000   0.0000   0.0000
     0.0000   0.0000   0.0000   0.0000   0.0000   0.0000   0.0000   0.0000
     0.0000   0.0000   0.0000

          k =-0.2500-0.2887 0.0000 ( 11871 PWs)   bands (ev):

   -83.6039 -53.2154 -52.9552 -52.6032 -25.2710 -25.2050 -23.1386 -22.1577
   -15.4510 -14.9648 -13.7880 -12.5719 -12.2951 -11.9827 -11.6110 -10.5856
    -9.6708  -9.3291  -9.0849  -8.6315  -7.1478  -3.7622  -3.4945  -2.3512
    -1.5971   0.1373   0.3698   2.6670   2.7394   3.7947   4.1852   5.1196
     5.7510   6.1934   6.6255

     occupation numbers 
     1.0000   1.0000   1.0000   1.0000   1.0000   1.0000   1.0000   1.0000
     1.0000   1.0000   1.0000   1.0000   1.0000   1.0000   1.0000   1.0000
     1.0000   1.0000   1.0000   1.0000   1.0000   0.0000   0.0000   0.0000
     0.0000   0.0000   0.0000   0.0000   0.0000   0.0000   0.0000   0.0000
     0.0000   0.0000   0.0000

          k = 0.3750-0.0722 0.0000 ( 11871 PWs)   bands (ev):

   -83.6039 -53.2154 -52.9552 -52.6032 -25.2710 -25.2050 -23.1386 -22.1577
   -15.4511 -14.9649 -13.7880 -12.5719 -12.2951 -11.9828 -11.6110 -10.5855
    -9.6708  -9.3291  -9.0848  -8.6316  -7.1478  -3.7622  -3.4945  -2.3512
    -1.5971   0.1373   0.3698   2.6670   2.7394   3.7948   4.1852   5.1196
     5.7510   6.1935   6.6254

     occupation numbers 
     1.0000   1.0000   1.0000   1.0000   1.0000   1.0000   1.0000   1.0000
     1.0000   1.0000   1.0000   1.0000   1.0000   1.0000   1.0000   1.0000
     1.0000   1.0000   1.0000   1.0000   1.0000   0.0000   0.0000   0.0000
     0.0000   0.0000   0.0000   0.0000   0.0000   0.0000   0.0000   0.0000
     0.0000   0.0000   0.0000

          k =-0.1250 0.5052 0.0000 ( 11841 PWs)   bands (ev):

   -83.6073 -53.1992 -52.9793 -52.7606 -24.2820 -24.2462 -22.8266 -22.0752
   -16.7279 -16.4401 -13.6158 -13.1090 -12.7151 -12.3305 -12.0361 -10.8026
    -9.9133  -9.2706  -9.0758  -8.5490  -7.2470  -4.1052  -3.4759  -2.0882
    -1.7533  -0.7234  -0.3387   2.7308   3.2510   3.9501   4.3509   5.3754
     6.2337   6.3133   7.0528

     occupation numbers 
     1.0000   1.0000   1.0000   1.0000   1.0000   1.0000   1.0000   1.0000
     1.0000   1.0000   1.0000   1.0000   1.0000   1.0000   1.0000   1.0000
     1.0000   1.0000   1.0000   1.0000   1.0000   0.0000   0.0000   0.0000
     0.0000   0.0000   0.0000   0.0000   0.0000   0.0000   0.0000   0.0000
     0.0000   0.0000   0.0000

          k =-0.3750 0.3608 0.0000 ( 11841 PWs)   bands (ev):

   -83.6073 -53.1992 -52.9793 -52.7606 -24.2820 -24.2462 -22.8266 -22.0752
   -16.7279 -16.4401 -13.6158 -13.1090 -12.7150 -12.3305 -12.0361 -10.8025
    -9.9133  -9.2705  -9.0757  -8.5490  -7.2471  -4.1052  -3.4759  -2.0881
    -1.7533  -0.7234  -0.3387   2.7308   3.2510   3.9501   4.3509   5.3754
     6.2337   6.3132   7.0529

     occupation numbers 
     1.0000   1.0000   1.0000   1.0000   1.0000   1.0000   1.0000   1.0000
     1.0000   1.0000   1.0000   1.0000   1.0000   1.0000   1.0000   1.0000
     1.0000   1.0000   1.0000   1.0000   1.0000   0.0000   0.0000   0.0000
     0.0000   0.0000   0.0000   0.0000   0.0000   0.0000   0.0000   0.0000
     0.0000   0.0000   0.0000

          k = 0.5000 0.1443 0.0000 ( 11841 PWs)   bands (ev):

   -83.6073 -53.1992 -52.9793 -52.7606 -24.2820 -24.2462 -22.8266 -22.0752
   -16.7279 -16.4401 -13.6158 -13.1090 -12.7151 -12.3305 -12.0361 -10.8026
    -9.9133  -9.2706  -9.0757  -8.5490  -7.2470  -4.1052  -3.4759  -2.0882
    -1.7533  -0.7234  -0.3387   2.7308   3.2510   3.9501   4.3509   5.3754
     6.2337   6.3133   7.0527

     occupation numbers 
     1.0000   1.0000   1.0000   1.0000   1.0000   1.0000   1.0000   1.0000
     1.0000   1.0000   1.0000   1.0000   1.0000   1.0000   1.0000   1.0000
     1.0000   1.0000   1.0000   1.0000   1.0000   0.0000   0.0000   0.0000
     0.0000   0.0000   0.0000   0.0000   0.0000   0.0000   0.0000   0.0000
     0.0000   0.0000   0.0000

          k =-0.3750-0.3608 0.0000 ( 11841 PWs)   bands (ev):

   -83.6073 -53.1992 -52.9793 -52.7606 -24.2820 -24.2462 -22.8266 -22.0752
   -16.7279 -16.4401 -13.6158 -13.1090 -12.7151 -12.3305 -12.0361 -10.8026
    -9.9134  -9.2705  -9.0758  -8.5490  -7.2470  -4.1052  -3.4759  -2.0882
    -1.7533  -0.7234  -0.3387   2.7308   3.2510   3.9500   4.3509   5.3753
     6.2337   6.3133   7.0529

     occupation numbers 
     1.0000   1.0000   1.0000   1.0000   1.0000   1.0000   1.0000   1.0000
     1.0000   1.0000   1.0000   1.0000   1.0000   1.0000   1.0000   1.0000
     1.0000   1.0000   1.0000   1.0000   1.0000   0.0000   0.0000   0.0000
     0.0000   0.0000   0.0000   0.0000   0.0000   0.0000   0.0000   0.0000
     0.0000   0.0000   0.0000

          k = 0.5000-0.1443 0.0000 ( 11841 PWs)   bands (ev):

   -83.6073 -53.1992 -52.9793 -52.7606 -24.2820 -24.2462 -22.8266 -22.0752
   -16.7279 -16.4401 -13.6158 -13.1090 -12.7150 -12.3305 -12.0361 -10.8025
    -9.9133  -9.2705  -9.0757  -8.5490  -7.2471  -4.1052  -3.4759  -2.0881
    -1.7533  -0.7234  -0.3387   2.7308   3.2510   3.9501   4.3509   5.3754
     6.2337   6.3133   7.0527

     occupation numbers 
     1.0000   1.0000   1.0000   1.0000   1.0000   1.0000   1.0000   1.0000
     1.0000   1.0000   1.0000   1.0000   1.0000   1.0000   1.0000   1.0000
     1.0000   1.0000   1.0000   1.0000   1.0000   0.0000   0.0000   0.0000
     0.0000   0.0000   0.0000   0.0000   0.0000   0.0000   0.0000   0.0000
     0.0000   0.0000   0.0000

          k =-0.2500 0.4330 0.0000 ( 11844 PWs)   bands (ev):

   -83.6150 -53.1790 -53.1203 -52.6631 -24.3246 -24.2813 -22.7976 -22.0302
   -16.1280 -15.7820 -14.0054 -13.7998 -13.2891 -11.9824 -11.8361 -11.1883
   -10.0796  -9.5781  -9.0427  -8.5245  -7.3273  -4.0138  -3.4105  -2.1510
    -1.6664   0.5053   0.7401   2.6205   3.0285   4.4548   4.7120   5.0805
     5.4753   6.1224   6.8628

     occupation numbers 
     1.0000   1.0000   1.0000   1.0000   1.0000   1.0000   1.0000   1.0000
     1.0000   1.0000   1.0000   1.0000   1.0000   1.0000   1.0000   1.0000
     1.0000   1.0000   1.0000   1.0000   1.0000   0.0000   0.0000   0.0000
     0.0000   0.0000   0.0000   0.0000   0.0000   0.0000   0.0000   0.0000
     0.0000   0.0000   0.0000

          k = 0.5000-0.0000 0.0000 ( 11844 PWs)   bands (ev):

   -83.6150 -53.1790 -53.1203 -52.6631 -24.3246 -24.2813 -22.7976 -22.0301
   -16.1280 -15.7820 -14.0054 -13.7998 -13.2891 -11.9824 -11.8361 -11.1883
   -10.0796  -9.5781  -9.0427  -8.5245  -7.3274  -4.0138  -3.4105  -2.1510
    -1.6664   0.5053   0.7400   2.6205   3.0285   4.4548   4.7120   5.0806
     5.4753   6.1224   6.8628

     occupation numbers 
     1.0000   1.0000   1.0000   1.0000   1.0000   1.0000   1.0000   1.0000
     1.0000   1.0000   1.0000   1.0000   1.0000   1.0000   1.0000   1.0000
     1.0000   1.0000   1.0000   1.0000   1.0000   0.0000   0.0000   0.0000
     0.0000   0.0000   0.0000   0.0000   0.0000   0.0000   0.0000   0.0000
     0.0000   0.0000   0.0000

          k =-0.3750 0.5052 0.0000 ( 11800 PWs)   bands (ev):

   -83.6043 -53.2069 -53.1358 -52.6299 -23.7836 -23.7558 -22.7487 -22.0517
   -16.3800 -16.0483 -14.6479 -14.5199 -12.8139 -12.3619 -12.1093 -10.8398
   -10.5809  -9.9952  -8.9872  -8.3419  -6.9608  -4.4109  -3.2506  -2.0467
    -1.7605   0.2874   0.6860   2.8438   3.2815   4.3315   4.7380   5.2492
     5.8544   6.3478   6.4451

     occupation numbers 
     1.0000   1.0000   1.0000   1.0000   1.0000   1.0000   1.0000   1.0000
     1.0000   1.0000   1.0000   1.0000   1.0000   1.0000   1.0000   1.0000
     1.0000   1.0000   1.0000   1.0000   1.0000   0.0000   0.0000   0.0000
     0.0000   0.0000   0.0000   0.0000   0.0000   0.0000   0.0000   0.0000
     0.0000   0.0000   0.0000

          k = 0.6250 0.0722 0.0000 ( 11800 PWs)   bands (ev):

   -83.6043 -53.2069 -53.1358 -52.6299 -23.7836 -23.7558 -22.7487 -22.0517
   -16.3800 -16.0483 -14.6479 -14.5199 -12.8139 -12.3619 -12.1093 -10.8398
   -10.5809  -9.9952  -8.9872  -8.3419  -6.9608  -4.4109  -3.2506  -2.0467
    -1.7606   0.2874   0.6860   2.8438   3.2815   4.3314   4.7380   5.2492
     5.8545   6.3478   6.4451

     occupation numbers 
     1.0000   1.0000   1.0000   1.0000   1.0000   1.0000   1.0000   1.0000
     1.0000   1.0000   1.0000   1.0000   1.0000   1.0000   1.0000   1.0000
     1.0000   1.0000   1.0000   1.0000   1.0000   0.0000   0.0000   0.0000
     0.0000   0.0000   0.0000   0.0000   0.0000   0.0000   0.0000   0.0000
     0.0000   0.0000   0.0000

     highest occupied, lowest unoccupied level (ev):    -6.5672   -4.4109

!    total energy              =    -263.21053940 Ry
     estimated scf accuracy    <          2.8E-12 Ry

     convergence has been achieved in   7 iterations

     Using ACE for calculation of exact exchange
     ACE projected onto    35 (nbndproj) and applied to    35 (nbnd) bands

     total energy              =    -263.21054045 Ry
     Harris-Foulkes estimate   =    -263.21054045 Ry
     est. exchange err (dexx)  =       0.00000106 Ry
     - averaged Fock potential =      17.84009687 Ry
     + Fock energy (ACE)       =      -8.92013404 Ry

     EXX: now go back to refine exchange calculation

     total cpu time spent up to now is     3778.2 secs

     Self-consistent Calculation

     iteration #  1     ecut=    80.00 Ry     beta= 0.50
     Davidson diagonalization with overlap

---- Real-time Memory Report at c_bands before calling an iterative solver
          2135 MiB given to the printing process from OS
             0 MiB allocation reported by mallinfo(arena+hblkhd)
         12933 MiB available memory on the node where the printing process lives
------------------
     ethr =  3.91E-13,  avg # of iterations =  6.3

     total cpu time spent up to now is     3791.2 secs

     total energy              =    -263.21054115 Ry
     estimated scf accuracy    <       0.00000007 Ry

     iteration #  2     ecut=    80.00 Ry     beta= 0.50
     Davidson diagonalization with overlap

---- Real-time Memory Report at c_bands before calling an iterative solver
          2135 MiB given to the printing process from OS
             0 MiB allocation reported by mallinfo(arena+hblkhd)
         12925 MiB available memory on the node where the printing process lives
------------------
     ethr =  1.78E-10,  avg # of iterations =  2.0

     total cpu time spent up to now is     3798.2 secs

     total energy              =    -263.21054116 Ry
     estimated scf accuracy    <       0.00000001 Ry

     iteration #  3     ecut=    80.00 Ry     beta= 0.50
     Davidson diagonalization with overlap

---- Real-time Memory Report at c_bands before calling an iterative solver
          2135 MiB given to the printing process from OS
             0 MiB allocation reported by mallinfo(arena+hblkhd)
         12921 MiB available memory on the node where the printing process lives
------------------
     ethr =  2.87E-11,  avg # of iterations =  2.0

     total cpu time spent up to now is     3805.6 secs

     total energy              =    -263.21054116 Ry
     estimated scf accuracy    <       0.00000004 Ry

     iteration #  4     ecut=    80.00 Ry     beta= 0.50
     Davidson diagonalization with overlap

---- Real-time Memory Report at c_bands before calling an iterative solver
          2135 MiB given to the printing process from OS
             0 MiB allocation reported by mallinfo(arena+hblkhd)
         12918 MiB available memory on the node where the printing process lives
------------------
     ethr =  2.87E-11,  avg # of iterations =  2.0

     total cpu time spent up to now is     3812.6 secs

     total energy              =    -263.21054116 Ry
     estimated scf accuracy    <          9.8E-10 Ry

     iteration #  5     ecut=    80.00 Ry     beta= 0.50
     Davidson diagonalization with overlap

---- Real-time Memory Report at c_bands before calling an iterative solver
          2135 MiB given to the printing process from OS
             0 MiB allocation reported by mallinfo(arena+hblkhd)
         12915 MiB available memory on the node where the printing process lives
------------------
     ethr =  2.34E-12,  avg # of iterations =  2.0

     total cpu time spent up to now is     3819.7 secs

     total energy              =    -263.21054116 Ry
     estimated scf accuracy    <          8.2E-10 Ry

     iteration #  6     ecut=    80.00 Ry     beta= 0.50
     Davidson diagonalization with overlap

---- Real-time Memory Report at c_bands before calling an iterative solver
          2135 MiB given to the printing process from OS
             0 MiB allocation reported by mallinfo(arena+hblkhd)
         12912 MiB available memory on the node where the printing process lives
------------------
     ethr =  1.96E-12,  avg # of iterations =  1.4

     total cpu time spent up to now is     3826.3 secs

     End of self-consistent calculation

          k = 0.0000 0.0000 0.0000 ( 11937 PWs)   bands (ev):

   -83.5885 -52.8399 -52.7336 -52.7336 -27.0867 -26.9889 -24.3180 -22.7307
   -15.6433 -12.7267 -10.6449 -10.4744 -10.4743 -10.4277 -10.4276  -9.9059
    -9.9059  -8.4936  -8.4933  -8.4912  -6.5692  -2.6786  -2.6784  -2.4426
    -2.4424  -0.2224   0.1109   2.3491   2.3826   2.5025   4.0139   4.0139
     4.0684   4.0685   4.2609

     occupation numbers 
     1.0000   1.0000   1.0000   1.0000   1.0000   1.0000   1.0000   1.0000
     1.0000   1.0000   1.0000   1.0000   1.0000   1.0000   1.0000   1.0000
     1.0000   1.0000   1.0000   1.0000   1.0000   0.0000   0.0000   0.0000
     0.0000   0.0000   0.0000   0.0000   0.0000   0.0000   0.0000   0.0000
     0.0000   0.0000   0.0000

          k = 0.0000 0.1443 0.0000 ( 11905 PWs)   bands (ev):

   -83.5991 -52.9334 -52.7647 -52.7317 -26.7833 -26.6893 -24.0837 -22.6119
   -15.3911 -12.6006 -11.5949 -11.5320 -10.6934 -10.6654 -10.5403 -10.2720
    -9.7558  -8.8986  -8.7583  -8.3035  -6.5853  -2.9419  -2.7413  -2.7160
    -2.3883   0.5044   0.7307   2.4394   2.4916   3.0541   3.2425   3.5280
     4.6775   4.7397   5.1338

     occupation numbers 
     1.0000   1.0000   1.0000   1.0000   1.0000   1.0000   1.0000   1.0000
     1.0000   1.0000   1.0000   1.0000   1.0000   1.0000   1.0000   1.0000
     1.0000   1.0000   1.0000   1.0000   1.0000   0.0000   0.0000   0.0000
     0.0000   0.0000   0.0000   0.0000   0.0000   0.0000   0.0000   0.0000
     0.0000   0.0000   0.0000

          k = 0.0000 0.2887 0.0000 ( 11885 PWs)   bands (ev):

   -83.6099 -53.1940 -52.8336 -52.6348 -25.9782 -25.8984 -23.5235 -22.3320
   -15.0329 -13.8368 -13.4730 -12.2914 -11.5632 -11.2207 -11.2110  -9.9330
    -9.6384  -9.3536  -9.2556  -8.4993  -6.9063  -3.5568  -3.2484  -2.4607
    -1.8627   0.1118   0.3010   2.4285   2.5717   3.4915   3.9965   5.0902
     5.9021   6.1091   6.2879

     occupation numbers 
     1.0000   1.0000   1.0000   1.0000   1.0000   1.0000   1.0000   1.0000
     1.0000   1.0000   1.0000   1.0000   1.0000   1.0000   1.0000   1.0000
     1.0000   1.0000   1.0000   1.0000   1.0000   0.0000   0.0000   0.0000
     0.0000   0.0000   0.0000   0.0000   0.0000   0.0000   0.0000   0.0000
     0.0000   0.0000   0.0000

          k = 0.0000 0.4330 0.0000 ( 11860 PWs)   bands (ev):

   -83.6044 -53.2490 -52.8448 -52.7453 -24.9041 -24.8504 -22.9910 -22.1113
   -16.2450 -15.9316 -13.8307 -12.6003 -12.0658 -11.7473 -11.7153 -10.4097
    -9.8228  -9.4661  -8.7000  -8.6889  -7.1285  -4.0113  -3.6274  -2.2427
    -1.4767  -1.2819  -0.7761   2.4296   2.9895   4.0198   4.2989   5.7885
     6.4122   6.6150   7.1622

     occupation numbers 
     1.0000   1.0000   1.0000   1.0000   1.0000   1.0000   1.0000   1.0000
     1.0000   1.0000   1.0000   1.0000   1.0000   1.0000   1.0000   1.0000
     1.0000   1.0000   1.0000   1.0000   1.0000   0.0000   0.0000   0.0000
     0.0000   0.0000   0.0000   0.0000   0.0000   0.0000   0.0000   0.0000
     0.0000   0.0000   0.0000

          k = 0.0000-0.5774 0.0000 ( 11846 PWs)   bands (ev):

   -83.6004 -53.2003 -52.8633 -52.8558 -24.2398 -24.2131 -22.8613 -22.1258
   -17.1597 -16.8848 -13.5593 -13.0601 -12.1764 -11.9708 -11.9321 -10.6059
   -10.0240  -9.2229  -8.7542  -8.4433  -7.3101  -4.0104  -3.6820  -2.3881
    -1.8991  -1.3451  -1.0612   2.1456   2.7600   4.4231   5.1187   5.8257
     6.1779   6.5203   7.2569

     occupation numbers 
     1.0000   1.0000   1.0000   1.0000   1.0000   1.0000   1.0000   1.0000
     1.0000   1.0000   1.0000   1.0000   1.0000   1.0000   1.0000   1.0000
     1.0000   1.0000   1.0000   1.0000   1.0000   0.0000   0.0000   0.0000
     0.0000   0.0000   0.0000   0.0000   0.0000   0.0000   0.0000   0.0000
     0.0000   0.0000   0.0000

          k = 0.1250 0.2165 0.0000 ( 11867 PWs)   bands (ev):

   -83.6008 -53.1237 -52.8499 -52.5902 -26.2304 -26.1449 -23.6927 -22.4182
   -15.0459 -13.0818 -12.8533 -12.2957 -11.6090 -11.3088 -10.9264  -9.9739
    -9.6591  -9.5524  -9.0099  -8.3572  -6.7814  -3.3938  -3.0875  -2.7044
    -1.9054   1.0474   1.2331   2.0133   2.0273   3.4885   3.6388   4.0485
     5.0945   5.7027   6.4690

     occupation numbers 
     1.0000   1.0000   1.0000   1.0000   1.0000   1.0000   1.0000   1.0000
     1.0000   1.0000   1.0000   1.0000   1.0000   1.0000   1.0000   1.0000
     1.0000   1.0000   1.0000   1.0000   1.0000   0.0000   0.0000   0.0000
     0.0000   0.0000   0.0000   0.0000   0.0000   0.0000   0.0000   0.0000
     0.0000   0.0000   0.0000

          k = 0.1250 0.3608 0.0000 ( 11871 PWs)   bands (ev):

   -83.6034 -53.2156 -52.9548 -52.6021 -25.2710 -25.2050 -23.1384 -22.1575
   -15.4510 -14.9648 -13.7879 -12.5718 -12.2951 -11.9826 -11.6110 -10.5854
    -9.6708  -9.3289  -9.0847  -8.6313  -7.1481  -3.7619  -3.4940  -2.3507
    -1.5967   0.1374   0.3699   2.6670   2.7394   3.7948   4.1853   5.1196
     5.7511   6.1935   6.6254

     occupation numbers 
     1.0000   1.0000   1.0000   1.0000   1.0000   1.0000   1.0000   1.0000
     1.0000   1.0000   1.0000   1.0000   1.0000   1.0000   1.0000   1.0000
     1.0000   1.0000   1.0000   1.0000   1.0000   0.0000   0.0000   0.0000
     0.0000   0.0000   0.0000   0.0000   0.0000   0.0000   0.0000   0.0000
     0.0000   0.0000   0.0000

          k = 0.1250 0.5052 0.0000 ( 11841 PWs)   bands (ev):

   -83.6069 -53.1985 -52.9793 -52.7605 -24.2820 -24.2462 -22.8264 -22.0750
   -16.7278 -16.4401 -13.6156 -13.1089 -12.7150 -12.3305 -12.0359 -10.8023
    -9.9132  -9.2705  -9.0757  -8.5489  -7.2487  -4.1055  -3.4741  -2.0877
    -1.7529  -0.7232  -0.3385   2.7308   3.2511   3.9501   4.3510   5.3754
     6.2338   6.3134   7.0529

     occupation numbers 
     1.0000   1.0000   1.0000   1.0000   1.0000   1.0000   1.0000   1.0000
     1.0000   1.0000   1.0000   1.0000   1.0000   1.0000   1.0000   1.0000
     1.0000   1.0000   1.0000   1.0000   1.0000   0.0000   0.0000   0.0000
     0.0000   0.0000   0.0000   0.0000   0.0000   0.0000   0.0000   0.0000
     0.0000   0.0000   0.0000

          k = 0.2500 0.4330 0.0000 ( 11844 PWs)   bands (ev):

   -83.6146 -53.1792 -53.1204 -52.6616 -24.3245 -24.2813 -22.7975 -22.0300
   -16.1279 -15.7819 -14.0054 -13.7998 -13.2889 -11.9823 -11.8360 -11.1881
   -10.0794  -9.5780  -9.0425  -8.5244  -7.3295  -4.0111  -3.4109  -2.1504
    -1.6662   0.5053   0.7403   2.6205   3.0285   4.4548   4.7121   5.0805
     5.4754   6.1223   6.8626

     occupation numbers 
     1.0000   1.0000   1.0000   1.0000   1.0000   1.0000   1.0000   1.0000
     1.0000   1.0000   1.0000   1.0000   1.0000   1.0000   1.0000   1.0000
     1.0000   1.0000   1.0000   1.0000   1.0000   0.0000   0.0000   0.0000
     0.0000   0.0000   0.0000   0.0000   0.0000   0.0000   0.0000   0.0000
     0.0000   0.0000   0.0000

          k = 0.2500 0.5774 0.0000 ( 11800 PWs)   bands (ev):

   -83.6038 -53.2072 -53.1355 -52.6286 -23.7835 -23.7558 -22.7485 -22.0515
   -16.3800 -16.0483 -14.6479 -14.5199 -12.8140 -12.3616 -12.1089 -10.8397
   -10.5807  -9.9952  -8.9872  -8.3418  -6.9616  -4.4087  -3.2510  -2.0462
    -1.7601   0.2874   0.6862   2.8438   3.2815   4.3314   4.7380   5.2491
     5.8546   6.3478   6.4451

     occupation numbers 
     1.0000   1.0000   1.0000   1.0000   1.0000   1.0000   1.0000   1.0000
     1.0000   1.0000   1.0000   1.0000   1.0000   1.0000   1.0000   1.0000
     1.0000   1.0000   1.0000   1.0000   1.0000   0.0000   0.0000   0.0000
     0.0000   0.0000   0.0000   0.0000   0.0000   0.0000   0.0000   0.0000
     0.0000   0.0000   0.0000

          k =-0.1250 0.0722 0.0000 ( 11905 PWs)   bands (ev):

   -83.5991 -52.9334 -52.7647 -52.7317 -26.7833 -26.6893 -24.0837 -22.6119
   -15.3911 -12.6006 -11.5949 -11.5321 -10.6934 -10.6653 -10.5403 -10.2720
    -9.7558  -8.8987  -8.7580  -8.3036  -6.5854  -2.9420  -2.7412  -2.7159
    -2.3884   0.5044   0.7307   2.4394   2.4916   3.0541   3.2425   3.5280
     4.6775   4.7397   5.1338

     occupation numbers 
     1.0000   1.0000   1.0000   1.0000   1.0000   1.0000   1.0000   1.0000
     1.0000   1.0000   1.0000   1.0000   1.0000   1.0000   1.0000   1.0000
     1.0000   1.0000   1.0000   1.0000   1.0000   0.0000   0.0000   0.0000
     0.0000   0.0000   0.0000   0.0000   0.0000   0.0000   0.0000   0.0000
     0.0000   0.0000   0.0000

          k = 0.1250 0.0722 0.0000 ( 11905 PWs)   bands (ev):

   -83.5991 -52.9334 -52.7647 -52.7317 -26.7833 -26.6893 -24.0837 -22.6119
   -15.3911 -12.6006 -11.5949 -11.5320 -10.6934 -10.6654 -10.5403 -10.2720
    -9.7558  -8.8986  -8.7582  -8.3035  -6.5853  -2.9420  -2.7413  -2.7160
    -2.3883   0.5044   0.7307   2.4394   2.4916   3.0541   3.2425   3.5280
     4.6775   4.7397   5.1338

     occupation numbers 
     1.0000   1.0000   1.0000   1.0000   1.0000   1.0000   1.0000   1.0000
     1.0000   1.0000   1.0000   1.0000   1.0000   1.0000   1.0000   1.0000
     1.0000   1.0000   1.0000   1.0000   1.0000   0.0000   0.0000   0.0000
     0.0000   0.0000   0.0000   0.0000   0.0000   0.0000   0.0000   0.0000
     0.0000   0.0000   0.0000

          k =-0.2500 0.1443 0.0000 ( 11885 PWs)   bands (ev):

   -83.6099 -53.1940 -52.8336 -52.6348 -25.9782 -25.8984 -23.5235 -22.3320
   -15.0329 -13.8368 -13.4730 -12.2915 -11.5632 -11.2206 -11.2109  -9.9330
    -9.6384  -9.3535  -9.2555  -8.4994  -6.9064  -3.5569  -3.2483  -2.4607
    -1.8628   0.1118   0.3010   2.4285   2.5718   3.4914   3.9964   5.0902
     5.9021   6.1091   6.2879

     occupation numbers 
     1.0000   1.0000   1.0000   1.0000   1.0000   1.0000   1.0000   1.0000
     1.0000   1.0000   1.0000   1.0000   1.0000   1.0000   1.0000   1.0000
     1.0000   1.0000   1.0000   1.0000   1.0000   0.0000   0.0000   0.0000
     0.0000   0.0000   0.0000   0.0000   0.0000   0.0000   0.0000   0.0000
     0.0000   0.0000   0.0000

          k = 0.2500 0.1443 0.0000 ( 11885 PWs)   bands (ev):

   -83.6099 -53.1940 -52.8336 -52.6348 -25.9782 -25.8984 -23.5235 -22.3320
   -15.0329 -13.8368 -13.4730 -12.2914 -11.5632 -11.2207 -11.2110  -9.9330
    -9.6384  -9.3536  -9.2555  -8.4993  -6.9063  -3.5568  -3.2484  -2.4607
    -1.8627   0.1119   0.3010   2.4285   2.5718   3.4915   3.9964   5.0902
     5.9021   6.1091   6.2879

     occupation numbers 
     1.0000   1.0000   1.0000   1.0000   1.0000   1.0000   1.0000   1.0000
     1.0000   1.0000   1.0000   1.0000   1.0000   1.0000   1.0000   1.0000
     1.0000   1.0000   1.0000   1.0000   1.0000   0.0000   0.0000   0.0000
     0.0000   0.0000   0.0000   0.0000   0.0000   0.0000   0.0000   0.0000
     0.0000   0.0000   0.0000

          k =-0.3750 0.2165 0.0000 ( 11860 PWs)   bands (ev):

   -83.6044 -53.2491 -52.8448 -52.7453 -24.9041 -24.8504 -22.9910 -22.1113
   -16.2450 -15.9316 -13.8307 -12.6003 -12.0658 -11.7472 -11.7152 -10.4097
    -9.8227  -9.4661  -8.6999  -8.6890  -7.1286  -4.0113  -3.6274  -2.2427
    -1.4768  -1.2819  -0.7761   2.4296   2.9895   4.0198   4.2989   5.7887
     6.4122   6.6150   7.1622

     occupation numbers 
     1.0000   1.0000   1.0000   1.0000   1.0000   1.0000   1.0000   1.0000
     1.0000   1.0000   1.0000   1.0000   1.0000   1.0000   1.0000   1.0000
     1.0000   1.0000   1.0000   1.0000   1.0000   0.0000   0.0000   0.0000
     0.0000   0.0000   0.0000   0.0000   0.0000   0.0000   0.0000   0.0000
     0.0000   0.0000   0.0000

          k = 0.3750 0.2165 0.0000 ( 11860 PWs)   bands (ev):

   -83.6044 -53.2490 -52.8448 -52.7453 -24.9041 -24.8504 -22.9910 -22.1113
   -16.2450 -15.9316 -13.8307 -12.6003 -12.0658 -11.7473 -11.7153 -10.4097
    -9.8228  -9.4661  -8.7000  -8.6889  -7.1285  -4.0113  -3.6274  -2.2427
    -1.4767  -1.2819  -0.7761   2.4296   2.9895   4.0198   4.2989   5.7886
     6.4123   6.6150   7.1621

     occupation numbers 
     1.0000   1.0000   1.0000   1.0000   1.0000   1.0000   1.0000   1.0000
     1.0000   1.0000   1.0000   1.0000   1.0000   1.0000   1.0000   1.0000
     1.0000   1.0000   1.0000   1.0000   1.0000   0.0000   0.0000   0.0000
     0.0000   0.0000   0.0000   0.0000   0.0000   0.0000   0.0000   0.0000
     0.0000   0.0000   0.0000

          k = 0.5000-0.2887 0.0000 ( 11846 PWs)   bands (ev):

   -83.6004 -53.2003 -52.8633 -52.8558 -24.2398 -24.2131 -22.8612 -22.1258
   -17.1597 -16.8848 -13.5593 -13.0601 -12.1764 -11.9707 -11.9321 -10.6059
   -10.0239  -9.2228  -8.7543  -8.4432  -7.3102  -4.0105  -3.6820  -2.3881
    -1.8991  -1.3452  -1.0612   2.1456   2.7600   4.4231   5.1186   5.8257
     6.1778   6.5203   7.2569

     occupation numbers 
     1.0000   1.0000   1.0000   1.0000   1.0000   1.0000   1.0000   1.0000
     1.0000   1.0000   1.0000   1.0000   1.0000   1.0000   1.0000   1.0000
     1.0000   1.0000   1.0000   1.0000   1.0000   0.0000   0.0000   0.0000
     0.0000   0.0000   0.0000   0.0000   0.0000   0.0000   0.0000   0.0000
     0.0000   0.0000   0.0000

          k =-0.5000-0.2887 0.0000 ( 11846 PWs)   bands (ev):

   -83.6004 -53.2003 -52.8633 -52.8558 -24.2398 -24.2131 -22.8613 -22.1258
   -17.1597 -16.8848 -13.5593 -13.0601 -12.1764 -11.9708 -11.9321 -10.6059
   -10.0240  -9.2229  -8.7542  -8.4433  -7.3101  -4.0104  -3.6820  -2.3881
    -1.8991  -1.3451  -1.0612   2.1456   2.7599   4.4231   5.1187   5.8257
     6.1779   6.5203   7.2569

     occupation numbers 
     1.0000   1.0000   1.0000   1.0000   1.0000   1.0000   1.0000   1.0000
     1.0000   1.0000   1.0000   1.0000   1.0000   1.0000   1.0000   1.0000
     1.0000   1.0000   1.0000   1.0000   1.0000   0.0000   0.0000   0.0000
     0.0000   0.0000   0.0000   0.0000   0.0000   0.0000   0.0000   0.0000
     0.0000   0.0000   0.0000

          k =-0.1250 0.2165 0.0000 ( 11867 PWs)   bands (ev):

   -83.6008 -53.1237 -52.8499 -52.5902 -26.2304 -26.1449 -23.6927 -22.4182
   -15.0459 -13.0819 -12.8534 -12.2957 -11.6090 -11.3087 -10.9264  -9.9740
    -9.6591  -9.5523  -9.0099  -8.3572  -6.7815  -3.3938  -3.0875  -2.7044
    -1.9055   1.0474   1.2331   2.0133   2.0273   3.4885   3.6388   4.0485
     5.0945   5.7027   6.4690

     occupation numbers 
     1.0000   1.0000   1.0000   1.0000   1.0000   1.0000   1.0000   1.0000
     1.0000   1.0000   1.0000   1.0000   1.0000   1.0000   1.0000   1.0000
     1.0000   1.0000   1.0000   1.0000   1.0000   0.0000   0.0000   0.0000
     0.0000   0.0000   0.0000   0.0000   0.0000   0.0000   0.0000   0.0000
     0.0000   0.0000   0.0000

          k = 0.2500-0.0000 0.0000 ( 11867 PWs)   bands (ev):

   -83.6008 -53.1237 -52.8499 -52.5902 -26.2304 -26.1449 -23.6927 -22.4182
   -15.0459 -13.0819 -12.8534 -12.2957 -11.6090 -11.3087 -10.9264  -9.9740
    -9.6591  -9.5523  -9.0099  -8.3572  -6.7815  -3.3937  -3.0875  -2.7044
    -1.9055   1.0474   1.2331   2.0133   2.0273   3.4885   3.6388   4.0485
     5.0944   5.7027   6.4691

     occupation numbers 
     1.0000   1.0000   1.0000   1.0000   1.0000   1.0000   1.0000   1.0000
     1.0000   1.0000   1.0000   1.0000   1.0000   1.0000   1.0000   1.0000
     1.0000   1.0000   1.0000   1.0000   1.0000   0.0000   0.0000   0.0000
     0.0000   0.0000   0.0000   0.0000   0.0000   0.0000   0.0000   0.0000
     0.0000   0.0000   0.0000

          k =-0.1250 0.3608 0.0000 ( 11871 PWs)   bands (ev):

   -83.6034 -53.2156 -52.9548 -52.6021 -25.2710 -25.2050 -23.1384 -22.1575
   -15.4510 -14.9648 -13.7879 -12.5718 -12.2951 -11.9826 -11.6110 -10.5853
    -9.6708  -9.3289  -9.0847  -8.6313  -7.1481  -3.7619  -3.4941  -2.3507
    -1.5966   0.1374   0.3699   2.6670   2.7394   3.7949   4.1853   5.1196
     5.7511   6.1935   6.6254

     occupation numbers 
     1.0000   1.0000   1.0000   1.0000   1.0000   1.0000   1.0000   1.0000
     1.0000   1.0000   1.0000   1.0000   1.0000   1.0000   1.0000   1.0000
     1.0000   1.0000   1.0000   1.0000   1.0000   0.0000   0.0000   0.0000
     0.0000   0.0000   0.0000   0.0000   0.0000   0.0000   0.0000   0.0000
     0.0000   0.0000   0.0000

          k =-0.2500 0.2887 0.0000 ( 11871 PWs)   bands (ev):

   -83.6034 -53.2156 -52.9548 -52.6021 -25.2710 -25.2050 -23.1384 -22.1575
   -15.4510 -14.9649 -13.7879 -12.5718 -12.2950 -11.9826 -11.6110 -10.5853
    -9.6708  -9.3288  -9.0846  -8.6314  -7.1482  -3.7619  -3.4941  -2.3507
    -1.5966   0.1374   0.3699   2.6670   2.7394   3.7948   4.1852   5.1196
     5.7511   6.1935   6.6254

     occupation numbers 
     1.0000   1.0000   1.0000   1.0000   1.0000   1.0000   1.0000   1.0000
     1.0000   1.0000   1.0000   1.0000   1.0000   1.0000   1.0000   1.0000
     1.0000   1.0000   1.0000   1.0000   1.0000   0.0000   0.0000   0.0000
     0.0000   0.0000   0.0000   0.0000   0.0000   0.0000   0.0000   0.0000
     0.0000   0.0000   0.0000

          k = 0.3750 0.0722 0.0000 ( 11871 PWs)   bands (ev):

   -83.6034 -53.2156 -52.9548 -52.6021 -25.2710 -25.2050 -23.1384 -22.1575
   -15.4510 -14.9648 -13.7879 -12.5718 -12.2951 -11.9826 -11.6110 -10.5853
    -9.6708  -9.3289  -9.0847  -8.6313  -7.1481  -3.7619  -3.4941  -2.3507
    -1.5966   0.1374   0.3699   2.6670   2.7394   3.7949   4.1852   5.1196
     5.7511   6.1935   6.6255

     occupation numbers 
     1.0000   1.0000   1.0000   1.0000   1.0000   1.0000   1.0000   1.0000
     1.0000   1.0000   1.0000   1.0000   1.0000   1.0000   1.0000   1.0000
     1.0000   1.0000   1.0000   1.0000   1.0000   0.0000   0.0000   0.0000
     0.0000   0.0000   0.0000   0.0000   0.0000   0.0000   0.0000   0.0000
     0.0000   0.0000   0.0000

          k =-0.2500-0.2887 0.0000 ( 11871 PWs)   bands (ev):

   -83.6034 -53.2156 -52.9548 -52.6021 -25.2710 -25.2050 -23.1384 -22.1575
   -15.4510 -14.9648 -13.7879 -12.5718 -12.2951 -11.9826 -11.6110 -10.5854
    -9.6708  -9.3289  -9.0847  -8.6313  -7.1481  -3.7619  -3.4940  -2.3507
    -1.5967   0.1374   0.3699   2.6670   2.7394   3.7948   4.1852   5.1196
     5.7511   6.1935   6.6255

     occupation numbers 
     1.0000   1.0000   1.0000   1.0000   1.0000   1.0000   1.0000   1.0000
     1.0000   1.0000   1.0000   1.0000   1.0000   1.0000   1.0000   1.0000
     1.0000   1.0000   1.0000   1.0000   1.0000   0.0000   0.0000   0.0000
     0.0000   0.0000   0.0000   0.0000   0.0000   0.0000   0.0000   0.0000
     0.0000   0.0000   0.0000

          k = 0.3750-0.0722 0.0000 ( 11871 PWs)   bands (ev):

   -83.6034 -53.2156 -52.9548 -52.6021 -25.2710 -25.2050 -23.1384 -22.1575
   -15.4510 -14.9649 -13.7879 -12.5718 -12.2951 -11.9826 -11.6110 -10.5853
    -9.6708  -9.3288  -9.0846  -8.6314  -7.1482  -3.7619  -3.4941  -2.3507
    -1.5966   0.1374   0.3699   2.6670   2.7394   3.7948   4.1852   5.1196
     5.7511   6.1935   6.6254

     occupation numbers 
     1.0000   1.0000   1.0000   1.0000   1.0000   1.0000   1.0000   1.0000
     1.0000   1.0000   1.0000   1.0000   1.0000   1.0000   1.0000   1.0000
     1.0000   1.0000   1.0000   1.0000   1.0000   0.0000   0.0000   0.0000
     0.0000   0.0000   0.0000   0.0000   0.0000   0.0000   0.0000   0.0000
     0.0000   0.0000   0.0000

          k =-0.1250 0.5052 0.0000 ( 11841 PWs)   bands (ev):

   -83.6069 -53.1984 -52.9793 -52.7605 -24.2820 -24.2462 -22.8264 -22.0750
   -16.7278 -16.4401 -13.6156 -13.1089 -12.7150 -12.3305 -12.0359 -10.8023
    -9.9131  -9.2705  -9.0756  -8.5489  -7.2487  -4.1056  -3.4741  -2.0877
    -1.7529  -0.7232  -0.3385   2.7308   3.2510   3.9501   4.3510   5.3755
     6.2338   6.3133   7.0528

     occupation numbers 
     1.0000   1.0000   1.0000   1.0000   1.0000   1.0000   1.0000   1.0000
     1.0000   1.0000   1.0000   1.0000   1.0000   1.0000   1.0000   1.0000
     1.0000   1.0000   1.0000   1.0000   1.0000   0.0000   0.0000   0.0000
     0.0000   0.0000   0.0000   0.0000   0.0000   0.0000   0.0000   0.0000
     0.0000   0.0000   0.0000

          k =-0.3750 0.3608 0.0000 ( 11841 PWs)   bands (ev):

   -83.6069 -53.1985 -52.9793 -52.7605 -24.2820 -24.2462 -22.8264 -22.0750
   -16.7279 -16.4401 -13.6156 -13.1089 -12.7150 -12.3304 -12.0359 -10.8023
    -9.9131  -9.2704  -9.0756  -8.5489  -7.2488  -4.1056  -3.4741  -2.0876
    -1.7529  -0.7232  -0.3385   2.7308   3.2510   3.9501   4.3509   5.3754
     6.2338   6.3133   7.0529

     occupation numbers 
     1.0000   1.0000   1.0000   1.0000   1.0000   1.0000   1.0000   1.0000
     1.0000   1.0000   1.0000   1.0000   1.0000   1.0000   1.0000   1.0000
     1.0000   1.0000   1.0000   1.0000   1.0000   0.0000   0.0000   0.0000
     0.0000   0.0000   0.0000   0.0000   0.0000   0.0000   0.0000   0.0000
     0.0000   0.0000   0.0000

          k = 0.5000 0.1443 0.0000 ( 11841 PWs)   bands (ev):

   -83.6069 -53.1984 -52.9793 -52.7605 -24.2820 -24.2462 -22.8264 -22.0750
   -16.7278 -16.4401 -13.6156 -13.1089 -12.7150 -12.3305 -12.0359 -10.8024
    -9.9131  -9.2705  -9.0756  -8.5489  -7.2487  -4.1056  -3.4741  -2.0877
    -1.7528  -0.7232  -0.3385   2.7308   3.2510   3.9501   4.3510   5.3755
     6.2338   6.3133   7.0528

     occupation numbers 
     1.0000   1.0000   1.0000   1.0000   1.0000   1.0000   1.0000   1.0000
     1.0000   1.0000   1.0000   1.0000   1.0000   1.0000   1.0000   1.0000
     1.0000   1.0000   1.0000   1.0000   1.0000   0.0000   0.0000   0.0000
     0.0000   0.0000   0.0000   0.0000   0.0000   0.0000   0.0000   0.0000
     0.0000   0.0000   0.0000

          k =-0.3750-0.3608 0.0000 ( 11841 PWs)   bands (ev):

   -83.6069 -53.1985 -52.9793 -52.7605 -24.2820 -24.2462 -22.8264 -22.0750
   -16.7278 -16.4401 -13.6157 -13.1089 -12.7150 -12.3305 -12.0359 -10.8023
    -9.9132  -9.2704  -9.0756  -8.5489  -7.2487  -4.1055  -3.4741  -2.0877
    -1.7529  -0.7232  -0.3385   2.7308   3.2510   3.9501   4.3510   5.3754
     6.2338   6.3134   7.0529

     occupation numbers 
     1.0000   1.0000   1.0000   1.0000   1.0000   1.0000   1.0000   1.0000
     1.0000   1.0000   1.0000   1.0000   1.0000   1.0000   1.0000   1.0000
     1.0000   1.0000   1.0000   1.0000   1.0000   0.0000   0.0000   0.0000
     0.0000   0.0000   0.0000   0.0000   0.0000   0.0000   0.0000   0.0000
     0.0000   0.0000   0.0000

          k = 0.5000-0.1443 0.0000 ( 11841 PWs)   bands (ev):

   -83.6069 -53.1985 -52.9793 -52.7605 -24.2820 -24.2462 -22.8264 -22.0750
   -16.7279 -16.4401 -13.6156 -13.1089 -12.7150 -12.3304 -12.0359 -10.8023
    -9.9131  -9.2704  -9.0756  -8.5489  -7.2488  -4.1056  -3.4741  -2.0876
    -1.7529  -0.7232  -0.3385   2.7308   3.2510   3.9501   4.3510   5.3755
     6.2338   6.3133   7.0528

     occupation numbers 
     1.0000   1.0000   1.0000   1.0000   1.0000   1.0000   1.0000   1.0000
     1.0000   1.0000   1.0000   1.0000   1.0000   1.0000   1.0000   1.0000
     1.0000   1.0000   1.0000   1.0000   1.0000   0.0000   0.0000   0.0000
     0.0000   0.0000   0.0000   0.0000   0.0000   0.0000   0.0000   0.0000
     0.0000   0.0000   0.0000

          k =-0.2500 0.4330 0.0000 ( 11844 PWs)   bands (ev):

   -83.6146 -53.1792 -53.1204 -52.6616 -24.3245 -24.2813 -22.7975 -22.0300
   -16.1280 -15.7820 -14.0053 -13.7998 -13.2889 -11.9823 -11.8359 -11.1881
   -10.0793  -9.5779  -9.0426  -8.5244  -7.3296  -4.0111  -3.4109  -2.1504
    -1.6661   0.5054   0.7402   2.6205   3.0285   4.4548   4.7121   5.0805
     5.4753   6.1224   6.8625

     occupation numbers 
     1.0000   1.0000   1.0000   1.0000   1.0000   1.0000   1.0000   1.0000
     1.0000   1.0000   1.0000   1.0000   1.0000   1.0000   1.0000   1.0000
     1.0000   1.0000   1.0000   1.0000   1.0000   0.0000   0.0000   0.0000
     0.0000   0.0000   0.0000   0.0000   0.0000   0.0000   0.0000   0.0000
     0.0000   0.0000   0.0000

          k = 0.5000-0.0000 0.0000 ( 11844 PWs)   bands (ev):

   -83.6146 -53.1792 -53.1204 -52.6616 -24.3245 -24.2813 -22.7975 -22.0300
   -16.1280 -15.7820 -14.0053 -13.7998 -13.2889 -11.9823 -11.8359 -11.1881
   -10.0793  -9.5779  -9.0426  -8.5244  -7.3296  -4.0111  -3.4109  -2.1504
    -1.6661   0.5053   0.7402   2.6205   3.0285   4.4549   4.7120   5.0806
     5.4754   6.1225   6.8625

     occupation numbers 
     1.0000   1.0000   1.0000   1.0000   1.0000   1.0000   1.0000   1.0000
     1.0000   1.0000   1.0000   1.0000   1.0000   1.0000   1.0000   1.0000
     1.0000   1.0000   1.0000   1.0000   1.0000   0.0000   0.0000   0.0000
     0.0000   0.0000   0.0000   0.0000   0.0000   0.0000   0.0000   0.0000
     0.0000   0.0000   0.0000

          k =-0.3750 0.5052 0.0000 ( 11800 PWs)   bands (ev):

   -83.6038 -53.2072 -53.1355 -52.6287 -23.7835 -23.7558 -22.7485 -22.0515
   -16.3800 -16.0483 -14.6478 -14.5198 -12.8140 -12.3616 -12.1089 -10.8397
   -10.5807  -9.9952  -8.9872  -8.3418  -6.9616  -4.4087  -3.2511  -2.0462
    -1.7600   0.2875   0.6861   2.8439   3.2815   4.3315   4.7381   5.2492
     5.8545   6.3478   6.4451

     occupation numbers 
     1.0000   1.0000   1.0000   1.0000   1.0000   1.0000   1.0000   1.0000
     1.0000   1.0000   1.0000   1.0000   1.0000   1.0000   1.0000   1.0000
     1.0000   1.0000   1.0000   1.0000   1.0000   0.0000   0.0000   0.0000
     0.0000   0.0000   0.0000   0.0000   0.0000   0.0000   0.0000   0.0000
     0.0000   0.0000   0.0000

          k = 0.6250 0.0722 0.0000 ( 11800 PWs)   bands (ev):

   -83.6038 -53.2072 -53.1355 -52.6286 -23.7835 -23.7558 -22.7485 -22.0515
   -16.3800 -16.0483 -14.6479 -14.5199 -12.8140 -12.3616 -12.1089 -10.8397
   -10.5807  -9.9952  -8.9872  -8.3418  -6.9616  -4.4087  -3.2510  -2.0462
    -1.7601   0.2874   0.6862   2.8439   3.2815   4.3315   4.7380   5.2491
     5.8545   6.3479   6.4451

     occupation numbers 
     1.0000   1.0000   1.0000   1.0000   1.0000   1.0000   1.0000   1.0000
     1.0000   1.0000   1.0000   1.0000   1.0000   1.0000   1.0000   1.0000
     1.0000   1.0000   1.0000   1.0000   1.0000   0.0000   0.0000   0.0000
     0.0000   0.0000   0.0000   0.0000   0.0000   0.0000   0.0000   0.0000
     0.0000   0.0000   0.0000

     highest occupied, lowest unoccupied level (ev):    -6.5692   -4.4087

!    total energy              =    -263.21054116 Ry
     estimated scf accuracy    <          5.5E-11 Ry

     convergence has been achieved in   6 iterations

     Using ACE for calculation of exact exchange
     ACE projected onto    35 (nbndproj) and applied to    35 (nbnd) bands

     total energy              =    -263.21054165 Ry
     Harris-Foulkes estimate   =    -263.21054165 Ry
     est. exchange err (dexx)  =       0.00000048 Ry
     - averaged Fock potential =      17.84037505 Ry
     + Fock energy (ACE)       =      -8.92024149 Ry

     EXX: now go back to refine exchange calculation

     total cpu time spent up to now is     4166.6 secs

     Self-consistent Calculation

     iteration #  1     ecut=    80.00 Ry     beta= 0.50
     Davidson diagonalization with overlap

---- Real-time Memory Report at c_bands before calling an iterative solver
          2135 MiB given to the printing process from OS
             0 MiB allocation reported by mallinfo(arena+hblkhd)
         12922 MiB available memory on the node where the printing process lives
------------------
     ethr =  1.96E-12,  avg # of iterations =  5.2

     total cpu time spent up to now is     4177.5 secs

     total energy              =    -263.21054198 Ry
     estimated scf accuracy    <       0.00000003 Ry

     iteration #  2     ecut=    80.00 Ry     beta= 0.50
     Davidson diagonalization with overlap

---- Real-time Memory Report at c_bands before calling an iterative solver
          2135 MiB given to the printing process from OS
             0 MiB allocation reported by mallinfo(arena+hblkhd)
         12917 MiB available memory on the node where the printing process lives
------------------
     ethr =  6.60E-11,  avg # of iterations =  2.0

     total cpu time spent up to now is     4184.5 secs

     total energy              =    -263.21054198 Ry
     estimated scf accuracy    <       0.00000001 Ry

     iteration #  3     ecut=    80.00 Ry     beta= 0.50
     Davidson diagonalization with overlap

---- Real-time Memory Report at c_bands before calling an iterative solver
          2135 MiB given to the printing process from OS
             0 MiB allocation reported by mallinfo(arena+hblkhd)
         12916 MiB available memory on the node where the printing process lives
------------------
     ethr =  3.13E-11,  avg # of iterations =  2.0

     total cpu time spent up to now is     4191.9 secs

     total energy              =    -263.21054198 Ry
     estimated scf accuracy    <       0.00000003 Ry

     iteration #  4     ecut=    80.00 Ry     beta= 0.50
     Davidson diagonalization with overlap

---- Real-time Memory Report at c_bands before calling an iterative solver
          2135 MiB given to the printing process from OS
             0 MiB allocation reported by mallinfo(arena+hblkhd)
         12917 MiB available memory on the node where the printing process lives
------------------
     ethr =  3.13E-11,  avg # of iterations =  2.0

     total cpu time spent up to now is     4198.9 secs

     total energy              =    -263.21054198 Ry
     estimated scf accuracy    <          1.1E-09 Ry

     iteration #  5     ecut=    80.00 Ry     beta= 0.50
     Davidson diagonalization with overlap

---- Real-time Memory Report at c_bands before calling an iterative solver
          2135 MiB given to the printing process from OS
             0 MiB allocation reported by mallinfo(arena+hblkhd)
         12912 MiB available memory on the node where the printing process lives
------------------
     ethr =  2.51E-12,  avg # of iterations =  1.7

     total cpu time spent up to now is     4205.7 secs

     total energy              =    -263.21054198 Ry
     estimated scf accuracy    <          2.1E-10 Ry

     iteration #  6     ecut=    80.00 Ry     beta= 0.50
     Davidson diagonalization with overlap

---- Real-time Memory Report at c_bands before calling an iterative solver
          2135 MiB given to the printing process from OS
             0 MiB allocation reported by mallinfo(arena+hblkhd)
         12907 MiB available memory on the node where the printing process lives
------------------
     ethr =  5.03E-13,  avg # of iterations =  1.2

     total cpu time spent up to now is     4212.0 secs

     End of self-consistent calculation

          k = 0.0000 0.0000 0.0000 ( 11937 PWs)   bands (ev):

   -83.5883 -52.8399 -52.7334 -52.7334 -27.0867 -26.9889 -24.3180 -22.7307
   -15.6433 -12.7266 -10.6450 -10.4744 -10.4743 -10.4277 -10.4276  -9.9058
    -9.9057  -8.4934  -8.4931  -8.4911  -6.5704  -2.6783  -2.6781  -2.4423
    -2.4421  -0.2224   0.1109   2.3491   2.3826   2.5026   4.0139   4.0139
     4.0684   4.0685   4.2610

     occupation numbers 
     1.0000   1.0000   1.0000   1.0000   1.0000   1.0000   1.0000   1.0000
     1.0000   1.0000   1.0000   1.0000   1.0000   1.0000   1.0000   1.0000
     1.0000   1.0000   1.0000   1.0000   1.0000   0.0000   0.0000   0.0000
     0.0000   0.0000   0.0000   0.0000   0.0000   0.0000   0.0000   0.0000
     0.0000   0.0000   0.0000

          k = 0.0000 0.1443 0.0000 ( 11905 PWs)   bands (ev):

   -83.5989 -52.9337 -52.7639 -52.7318 -26.7833 -26.6893 -24.0836 -22.6118
   -15.3912 -12.6005 -11.5949 -11.5320 -10.6934 -10.6654 -10.5400 -10.2722
    -9.7555  -8.8984  -8.7581  -8.3034  -6.5859  -2.9423  -2.7410  -2.7154
    -2.3881   0.5044   0.7307   2.4394   2.4916   3.0541   3.2426   3.5280
     4.6775   4.7397   5.1338

     occupation numbers 
     1.0000   1.0000   1.0000   1.0000   1.0000   1.0000   1.0000   1.0000
     1.0000   1.0000   1.0000   1.0000   1.0000   1.0000   1.0000   1.0000
     1.0000   1.0000   1.0000   1.0000   1.0000   0.0000   0.0000   0.0000
     0.0000   0.0000   0.0000   0.0000   0.0000   0.0000   0.0000   0.0000
     0.0000   0.0000   0.0000

          k = 0.0000 0.2887 0.0000 ( 11885 PWs)   bands (ev):

   -83.6097 -53.1947 -52.8333 -52.6338 -25.9782 -25.8984 -23.5235 -22.3319
   -15.0329 -13.8368 -13.4730 -12.2914 -11.5636 -11.2207 -11.2110  -9.9330
    -9.6384  -9.3535  -9.2553  -8.4992  -6.9056  -3.5578  -3.2476  -2.4604
    -1.8626   0.1118   0.3010   2.4285   2.5718   3.4915   3.9965   5.0901
     5.9021   6.1091   6.2879

     occupation numbers 
     1.0000   1.0000   1.0000   1.0000   1.0000   1.0000   1.0000   1.0000
     1.0000   1.0000   1.0000   1.0000   1.0000   1.0000   1.0000   1.0000
     1.0000   1.0000   1.0000   1.0000   1.0000   0.0000   0.0000   0.0000
     0.0000   0.0000   0.0000   0.0000   0.0000   0.0000   0.0000   0.0000
     0.0000   0.0000   0.0000

          k = 0.0000 0.4330 0.0000 ( 11860 PWs)   bands (ev):

   -83.6042 -53.2493 -52.8441 -52.7454 -24.9041 -24.8504 -22.9910 -22.1112
   -16.2450 -15.9316 -13.8305 -12.6004 -12.0658 -11.7473 -11.7153 -10.4096
    -9.8226  -9.4660  -8.6998  -8.6888  -7.1294  -4.0119  -3.6267  -2.2424
    -1.4765  -1.2819  -0.7760   2.4296   2.9895   4.0198   4.2989   5.7886
     6.4123   6.6150   7.1622

     occupation numbers 
     1.0000   1.0000   1.0000   1.0000   1.0000   1.0000   1.0000   1.0000
     1.0000   1.0000   1.0000   1.0000   1.0000   1.0000   1.0000   1.0000
     1.0000   1.0000   1.0000   1.0000   1.0000   0.0000   0.0000   0.0000
     0.0000   0.0000   0.0000   0.0000   0.0000   0.0000   0.0000   0.0000
     0.0000   0.0000   0.0000

          k = 0.0000-0.5774 0.0000 ( 11846 PWs)   bands (ev):

   -83.6002 -53.2000 -52.8631 -52.8557 -24.2398 -24.2131 -22.8612 -22.1258
   -17.1597 -16.8848 -13.5592 -13.0601 -12.1763 -11.9708 -11.9322 -10.6058
   -10.0238  -9.2229  -8.7542  -8.4433  -7.3108  -4.0106  -3.6815  -2.3879
    -1.8990  -1.3449  -1.0611   2.1456   2.7600   4.4231   5.1187   5.8257
     6.1779   6.5203   7.2569

     occupation numbers 
     1.0000   1.0000   1.0000   1.0000   1.0000   1.0000   1.0000   1.0000
     1.0000   1.0000   1.0000   1.0000   1.0000   1.0000   1.0000   1.0000
     1.0000   1.0000   1.0000   1.0000   1.0000   0.0000   0.0000   0.0000
     0.0000   0.0000   0.0000   0.0000   0.0000   0.0000   0.0000   0.0000
     0.0000   0.0000   0.0000

          k = 0.1250 0.2165 0.0000 ( 11867 PWs)   bands (ev):

   -83.6005 -53.1240 -52.8494 -52.5895 -26.2304 -26.1449 -23.6926 -22.4181
   -15.0459 -13.0818 -12.8533 -12.2956 -11.6090 -11.3088 -10.9264  -9.9739
    -9.6593  -9.5526  -9.0097  -8.3571  -6.7810  -3.3949  -3.0865  -2.7042
    -1.9051   1.0474   1.2331   2.0133   2.0273   3.4885   3.6387   4.0485
     5.0945   5.7027   6.4690

     occupation numbers 
     1.0000   1.0000   1.0000   1.0000   1.0000   1.0000   1.0000   1.0000
     1.0000   1.0000   1.0000   1.0000   1.0000   1.0000   1.0000   1.0000
     1.0000   1.0000   1.0000   1.0000   1.0000   0.0000   0.0000   0.0000
     0.0000   0.0000   0.0000   0.0000   0.0000   0.0000   0.0000   0.0000
     0.0000   0.0000   0.0000

          k = 0.1250 0.3608 0.0000 ( 11871 PWs)   bands (ev):

   -83.6031 -53.2157 -52.9545 -52.6014 -25.2710 -25.2050 -23.1384 -22.1574
   -15.4510 -14.9648 -13.7879 -12.5718 -12.2951 -11.9826 -11.6111 -10.5853
    -9.6708  -9.3288  -9.0846  -8.6312  -7.1484  -3.7617  -3.4938  -2.3504
    -1.5964   0.1374   0.3700   2.6670   2.7394   3.7949   4.1853   5.1196
     5.7511   6.1935   6.6254

     occupation numbers 
     1.0000   1.0000   1.0000   1.0000   1.0000   1.0000   1.0000   1.0000
     1.0000   1.0000   1.0000   1.0000   1.0000   1.0000   1.0000   1.0000
     1.0000   1.0000   1.0000   1.0000   1.0000   0.0000   0.0000   0.0000
     0.0000   0.0000   0.0000   0.0000   0.0000   0.0000   0.0000   0.0000
     0.0000   0.0000   0.0000

          k = 0.1250 0.5052 0.0000 ( 11841 PWs)   bands (ev):

   -83.6067 -53.1980 -52.9793 -52.7606 -24.2819 -24.2462 -22.8264 -22.0749
   -16.7278 -16.4401 -13.6156 -13.1088 -12.7150 -12.3305 -12.0358 -10.8022
    -9.9131  -9.2704  -9.0756  -8.5489  -7.2500  -4.1059  -3.4728  -2.0874
    -1.7527  -0.7232  -0.3384   2.7308   3.2511   3.9501   4.3510   5.3754
     6.2338   6.3134   7.0529

     occupation numbers 
     1.0000   1.0000   1.0000   1.0000   1.0000   1.0000   1.0000   1.0000
     1.0000   1.0000   1.0000   1.0000   1.0000   1.0000   1.0000   1.0000
     1.0000   1.0000   1.0000   1.0000   1.0000   0.0000   0.0000   0.0000
     0.0000   0.0000   0.0000   0.0000   0.0000   0.0000   0.0000   0.0000
     0.0000   0.0000   0.0000

          k = 0.2500 0.4330 0.0000 ( 11844 PWs)   bands (ev):

   -83.6143 -53.1795 -53.1205 -52.6605 -24.3245 -24.2813 -22.7975 -22.0299
   -16.1279 -15.7819 -14.0054 -13.7998 -13.2888 -11.9822 -11.8359 -11.1880
   -10.0792  -9.5779  -9.0425  -8.5243  -7.3309  -4.0092  -3.4113  -2.1501
    -1.6660   0.5053   0.7403   2.6205   3.0285   4.4548   4.7121   5.0805
     5.4754   6.1224   6.8623

     occupation numbers 
     1.0000   1.0000   1.0000   1.0000   1.0000   1.0000   1.0000   1.0000
     1.0000   1.0000   1.0000   1.0000   1.0000   1.0000   1.0000   1.0000
     1.0000   1.0000   1.0000   1.0000   1.0000   0.0000   0.0000   0.0000
     0.0000   0.0000   0.0000   0.0000   0.0000   0.0000   0.0000   0.0000
     0.0000   0.0000   0.0000

          k = 0.2500 0.5774 0.0000 ( 11800 PWs)   bands (ev):

   -83.6035 -53.2074 -53.1353 -52.6279 -23.7835 -23.7559 -22.7485 -22.0514
   -16.3800 -16.0483 -14.6479 -14.5199 -12.8141 -12.3615 -12.1088 -10.8397
   -10.5806  -9.9952  -8.9872  -8.3418  -6.9622  -4.4075  -3.2513  -2.0460
    -1.7598   0.2874   0.6862   2.8438   3.2815   4.3314   4.7380   5.2490
     5.8546   6.3478   6.4451

     occupation numbers 
     1.0000   1.0000   1.0000   1.0000   1.0000   1.0000   1.0000   1.0000
     1.0000   1.0000   1.0000   1.0000   1.0000   1.0000   1.0000   1.0000
     1.0000   1.0000   1.0000   1.0000   1.0000   0.0000   0.0000   0.0000
     0.0000   0.0000   0.0000   0.0000   0.0000   0.0000   0.0000   0.0000
     0.0000   0.0000   0.0000

          k =-0.1250 0.0722 0.0000 ( 11905 PWs)   bands (ev):

   -83.5989 -52.9337 -52.7639 -52.7318 -26.7833 -26.6893 -24.0836 -22.6118
   -15.3912 -12.6006 -11.5949 -11.5321 -10.6933 -10.6653 -10.5400 -10.2723
    -9.7555  -8.8986  -8.7579  -8.3034  -6.5859  -2.9424  -2.7409  -2.7153
    -2.3882   0.5044   0.7307   2.4394   2.4916   3.0541   3.2426   3.5280
     4.6775   4.7397   5.1338

     occupation numbers 
     1.0000   1.0000   1.0000   1.0000   1.0000   1.0000   1.0000   1.0000
     1.0000   1.0000   1.0000   1.0000   1.0000   1.0000   1.0000   1.0000
     1.0000   1.0000   1.0000   1.0000   1.0000   0.0000   0.0000   0.0000
     0.0000   0.0000   0.0000   0.0000   0.0000   0.0000   0.0000   0.0000
     0.0000   0.0000   0.0000

          k = 0.1250 0.0722 0.0000 ( 11905 PWs)   bands (ev):

   -83.5989 -52.9337 -52.7639 -52.7318 -26.7833 -26.6893 -24.0836 -22.6118
   -15.3912 -12.6005 -11.5949 -11.5320 -10.6934 -10.6654 -10.5400 -10.2722
    -9.7555  -8.8984  -8.7581  -8.3034  -6.5859  -2.9423  -2.7410  -2.7154
    -2.3881   0.5044   0.7307   2.4394   2.4916   3.0541   3.2425   3.5280
     4.6775   4.7397   5.1338

     occupation numbers 
     1.0000   1.0000   1.0000   1.0000   1.0000   1.0000   1.0000   1.0000
     1.0000   1.0000   1.0000   1.0000   1.0000   1.0000   1.0000   1.0000
     1.0000   1.0000   1.0000   1.0000   1.0000   0.0000   0.0000   0.0000
     0.0000   0.0000   0.0000   0.0000   0.0000   0.0000   0.0000   0.0000
     0.0000   0.0000   0.0000

          k =-0.2500 0.1443 0.0000 ( 11885 PWs)   bands (ev):

   -83.6097 -53.1947 -52.8333 -52.6337 -25.9782 -25.8985 -23.5235 -22.3319
   -15.0329 -13.8368 -13.4730 -12.2914 -11.5636 -11.2206 -11.2109  -9.9330
    -9.6384  -9.3534  -9.2552  -8.4993  -6.9057  -3.5578  -3.2475  -2.4604
    -1.8627   0.1118   0.3010   2.4285   2.5718   3.4915   3.9964   5.0901
     5.9021   6.1092   6.2879

     occupation numbers 
     1.0000   1.0000   1.0000   1.0000   1.0000   1.0000   1.0000   1.0000
     1.0000   1.0000   1.0000   1.0000   1.0000   1.0000   1.0000   1.0000
     1.0000   1.0000   1.0000   1.0000   1.0000   0.0000   0.0000   0.0000
     0.0000   0.0000   0.0000   0.0000   0.0000   0.0000   0.0000   0.0000
     0.0000   0.0000   0.0000

          k = 0.2500 0.1443 0.0000 ( 11885 PWs)   bands (ev):

   -83.6097 -53.1947 -52.8333 -52.6338 -25.9782 -25.8985 -23.5235 -22.3319
   -15.0329 -13.8368 -13.4730 -12.2914 -11.5636 -11.2207 -11.2110  -9.9330
    -9.6384  -9.3535  -9.2553  -8.4992  -6.9056  -3.5578  -3.2476  -2.4604
    -1.8626   0.1118   0.3010   2.4285   2.5718   3.4915   3.9964   5.0901
     5.9021   6.1091   6.2879

     occupation numbers 
     1.0000   1.0000   1.0000   1.0000   1.0000   1.0000   1.0000   1.0000
     1.0000   1.0000   1.0000   1.0000   1.0000   1.0000   1.0000   1.0000
     1.0000   1.0000   1.0000   1.0000   1.0000   0.0000   0.0000   0.0000
     0.0000   0.0000   0.0000   0.0000   0.0000   0.0000   0.0000   0.0000
     0.0000   0.0000   0.0000

          k =-0.3750 0.2165 0.0000 ( 11860 PWs)   bands (ev):

   -83.6042 -53.2493 -52.8441 -52.7454 -24.9041 -24.8504 -22.9909 -22.1112
   -16.2450 -15.9316 -13.8305 -12.6004 -12.0658 -11.7472 -11.7152 -10.4096
    -9.8225  -9.4660  -8.6997  -8.6888  -7.1295  -4.0120  -3.6267  -2.2424
    -1.4766  -1.2819  -0.7760   2.4296   2.9895   4.0198   4.2989   5.7887
     6.4122   6.6150   7.1622

     occupation numbers 
     1.0000   1.0000   1.0000   1.0000   1.0000   1.0000   1.0000   1.0000
     1.0000   1.0000   1.0000   1.0000   1.0000   1.0000   1.0000   1.0000
     1.0000   1.0000   1.0000   1.0000   1.0000   0.0000   0.0000   0.0000
     0.0000   0.0000   0.0000   0.0000   0.0000   0.0000   0.0000   0.0000
     0.0000   0.0000   0.0000

          k = 0.3750 0.2165 0.0000 ( 11860 PWs)   bands (ev):

   -83.6042 -53.2493 -52.8441 -52.7454 -24.9041 -24.8504 -22.9909 -22.1112
   -16.2450 -15.9316 -13.8305 -12.6003 -12.0658 -11.7473 -11.7153 -10.4096
    -9.8226  -9.4660  -8.6998  -8.6888  -7.1295  -4.0119  -3.6267  -2.2424
    -1.4765  -1.2819  -0.7760   2.4296   2.9895   4.0198   4.2989   5.7886
     6.4123   6.6150   7.1622

     occupation numbers 
     1.0000   1.0000   1.0000   1.0000   1.0000   1.0000   1.0000   1.0000
     1.0000   1.0000   1.0000   1.0000   1.0000   1.0000   1.0000   1.0000
     1.0000   1.0000   1.0000   1.0000   1.0000   0.0000   0.0000   0.0000
     0.0000   0.0000   0.0000   0.0000   0.0000   0.0000   0.0000   0.0000
     0.0000   0.0000   0.0000

          k = 0.5000-0.2887 0.0000 ( 11846 PWs)   bands (ev):

   -83.6002 -53.2001 -52.8631 -52.8557 -24.2398 -24.2131 -22.8612 -22.1258
   -17.1597 -16.8848 -13.5593 -13.0601 -12.1763 -11.9707 -11.9321 -10.6058
   -10.0237  -9.2228  -8.7543  -8.4432  -7.3108  -4.0107  -3.6815  -2.3879
    -1.8990  -1.3449  -1.0610   2.1456   2.7600   4.4231   5.1187   5.8258
     6.1778   6.5203   7.2569

     occupation numbers 
     1.0000   1.0000   1.0000   1.0000   1.0000   1.0000   1.0000   1.0000
     1.0000   1.0000   1.0000   1.0000   1.0000   1.0000   1.0000   1.0000
     1.0000   1.0000   1.0000   1.0000   1.0000   0.0000   0.0000   0.0000
     0.0000   0.0000   0.0000   0.0000   0.0000   0.0000   0.0000   0.0000
     0.0000   0.0000   0.0000

          k =-0.5000-0.2887 0.0000 ( 11846 PWs)   bands (ev):

   -83.6002 -53.2000 -52.8631 -52.8557 -24.2398 -24.2131 -22.8612 -22.1258
   -17.1597 -16.8848 -13.5592 -13.0601 -12.1763 -11.9708 -11.9322 -10.6058
   -10.0238  -9.2228  -8.7542  -8.4433  -7.3108  -4.0106  -3.6815  -2.3879
    -1.8990  -1.3449  -1.0611   2.1456   2.7600   4.4231   5.1187   5.8257
     6.1779   6.5203   7.2569

     occupation numbers 
     1.0000   1.0000   1.0000   1.0000   1.0000   1.0000   1.0000   1.0000
     1.0000   1.0000   1.0000   1.0000   1.0000   1.0000   1.0000   1.0000
     1.0000   1.0000   1.0000   1.0000   1.0000   0.0000   0.0000   0.0000
     0.0000   0.0000   0.0000   0.0000   0.0000   0.0000   0.0000   0.0000
     0.0000   0.0000   0.0000

          k =-0.1250 0.2165 0.0000 ( 11867 PWs)   bands (ev):

   -83.6005 -53.1241 -52.8494 -52.5895 -26.2304 -26.1449 -23.6926 -22.4181
   -15.0459 -13.0819 -12.8534 -12.2957 -11.6089 -11.3087 -10.9263  -9.9739
    -9.6593  -9.5525  -9.0098  -8.3570  -6.7811  -3.3949  -3.0865  -2.7042
    -1.9052   1.0474   1.2331   2.0133   2.0273   3.4885   3.6388   4.0485
     5.0945   5.7027   6.4690

     occupation numbers 
     1.0000   1.0000   1.0000   1.0000   1.0000   1.0000   1.0000   1.0000
     1.0000   1.0000   1.0000   1.0000   1.0000   1.0000   1.0000   1.0000
     1.0000   1.0000   1.0000   1.0000   1.0000   0.0000   0.0000   0.0000
     0.0000   0.0000   0.0000   0.0000   0.0000   0.0000   0.0000   0.0000
     0.0000   0.0000   0.0000

          k = 0.2500-0.0000 0.0000 ( 11867 PWs)   bands (ev):

   -83.6005 -53.1241 -52.8494 -52.5895 -26.2304 -26.1449 -23.6926 -22.4181
   -15.0459 -13.0818 -12.8533 -12.2957 -11.6089 -11.3087 -10.9263  -9.9739
    -9.6593  -9.5524  -9.0098  -8.3571  -6.7811  -3.3949  -3.0865  -2.7042
    -1.9052   1.0474   1.2331   2.0133   2.0273   3.4885   3.6388   4.0485
     5.0944   5.7027   6.4691

     occupation numbers 
     1.0000   1.0000   1.0000   1.0000   1.0000   1.0000   1.0000   1.0000
     1.0000   1.0000   1.0000   1.0000   1.0000   1.0000   1.0000   1.0000
     1.0000   1.0000   1.0000   1.0000   1.0000   0.0000   0.0000   0.0000
     0.0000   0.0000   0.0000   0.0000   0.0000   0.0000   0.0000   0.0000
     0.0000   0.0000   0.0000

          k =-0.1250 0.3608 0.0000 ( 11871 PWs)   bands (ev):

   -83.6031 -53.2157 -52.9545 -52.6014 -25.2710 -25.2050 -23.1384 -22.1575
   -15.4510 -14.9648 -13.7879 -12.5718 -12.2951 -11.9826 -11.6110 -10.5852
    -9.6709  -9.3287  -9.0846  -8.6312  -7.1484  -3.7617  -3.4938  -2.3505
    -1.5964   0.1374   0.3700   2.6670   2.7394   3.7949   4.1853   5.1196
     5.7511   6.1935   6.6254

     occupation numbers 
     1.0000   1.0000   1.0000   1.0000   1.0000   1.0000   1.0000   1.0000
     1.0000   1.0000   1.0000   1.0000   1.0000   1.0000   1.0000   1.0000
     1.0000   1.0000   1.0000   1.0000   1.0000   0.0000   0.0000   0.0000
     0.0000   0.0000   0.0000   0.0000   0.0000   0.0000   0.0000   0.0000
     0.0000   0.0000   0.0000

          k =-0.2500 0.2887 0.0000 ( 11871 PWs)   bands (ev):

   -83.6031 -53.2158 -52.9545 -52.6014 -25.2710 -25.2050 -23.1384 -22.1575
   -15.4510 -14.9649 -13.7879 -12.5718 -12.2950 -11.9826 -11.6110 -10.5852
    -9.6708  -9.3287  -9.0845  -8.6313  -7.1484  -3.7617  -3.4938  -2.3504
    -1.5964   0.1374   0.3700   2.6670   2.7394   3.7948   4.1852   5.1196
     5.7511   6.1935   6.6254

     occupation numbers 
     1.0000   1.0000   1.0000   1.0000   1.0000   1.0000   1.0000   1.0000
     1.0000   1.0000   1.0000   1.0000   1.0000   1.0000   1.0000   1.0000
     1.0000   1.0000   1.0000   1.0000   1.0000   0.0000   0.0000   0.0000
     0.0000   0.0000   0.0000   0.0000   0.0000   0.0000   0.0000   0.0000
     0.0000   0.0000   0.0000

          k = 0.3750 0.0722 0.0000 ( 11871 PWs)   bands (ev):

   -83.6031 -53.2157 -52.9545 -52.6014 -25.2710 -25.2050 -23.1384 -22.1575
   -15.4510 -14.9648 -13.7879 -12.5718 -12.2951 -11.9826 -11.6110 -10.5852
    -9.6709  -9.3288  -9.0846  -8.6312  -7.1484  -3.7617  -3.4938  -2.3505
    -1.5964   0.1374   0.3700   2.6670   2.7394   3.7949   4.1852   5.1196
     5.7511   6.1935   6.6255

     occupation numbers 
     1.0000   1.0000   1.0000   1.0000   1.0000   1.0000   1.0000   1.0000
     1.0000   1.0000   1.0000   1.0000   1.0000   1.0000   1.0000   1.0000
     1.0000   1.0000   1.0000   1.0000   1.0000   0.0000   0.0000   0.0000
     0.0000   0.0000   0.0000   0.0000   0.0000   0.0000   0.0000   0.0000
     0.0000   0.0000   0.0000

          k =-0.2500-0.2887 0.0000 ( 11871 PWs)   bands (ev):

   -83.6031 -53.2157 -52.9545 -52.6014 -25.2710 -25.2050 -23.1384 -22.1574
   -15.4510 -14.9648 -13.7879 -12.5718 -12.2951 -11.9826 -11.6111 -10.5853
    -9.6708  -9.3288  -9.0846  -8.6312  -7.1484  -3.7617  -3.4938  -2.3504
    -1.5964   0.1374   0.3700   2.6670   2.7394   3.7948   4.1852   5.1196
     5.7511   6.1935   6.6254

     occupation numbers 
     1.0000   1.0000   1.0000   1.0000   1.0000   1.0000   1.0000   1.0000
     1.0000   1.0000   1.0000   1.0000   1.0000   1.0000   1.0000   1.0000
     1.0000   1.0000   1.0000   1.0000   1.0000   0.0000   0.0000   0.0000
     0.0000   0.0000   0.0000   0.0000   0.0000   0.0000   0.0000   0.0000
     0.0000   0.0000   0.0000

          k = 0.3750-0.0722 0.0000 ( 11871 PWs)   bands (ev):

   -83.6031 -53.2158 -52.9545 -52.6014 -25.2710 -25.2050 -23.1384 -22.1575
   -15.4510 -14.9649 -13.7879 -12.5718 -12.2950 -11.9826 -11.6110 -10.5852
    -9.6708  -9.3287  -9.0845  -8.6313  -7.1485  -3.7617  -3.4938  -2.3504
    -1.5964   0.1374   0.3700   2.6670   2.7394   3.7948   4.1852   5.1196
     5.7511   6.1935   6.6254

     occupation numbers 
     1.0000   1.0000   1.0000   1.0000   1.0000   1.0000   1.0000   1.0000
     1.0000   1.0000   1.0000   1.0000   1.0000   1.0000   1.0000   1.0000
     1.0000   1.0000   1.0000   1.0000   1.0000   0.0000   0.0000   0.0000
     0.0000   0.0000   0.0000   0.0000   0.0000   0.0000   0.0000   0.0000
     0.0000   0.0000   0.0000

          k =-0.1250 0.5052 0.0000 ( 11841 PWs)   bands (ev):

   -83.6067 -53.1980 -52.9793 -52.7606 -24.2819 -24.2462 -22.8264 -22.0749
   -16.7278 -16.4401 -13.6156 -13.1088 -12.7150 -12.3305 -12.0357 -10.8022
    -9.9130  -9.2704  -9.0756  -8.5489  -7.2500  -4.1059  -3.4728  -2.0874
    -1.7526  -0.7232  -0.3384   2.7308   3.2511   3.9501   4.3510   5.3755
     6.2338   6.3133   7.0529

     occupation numbers 
     1.0000   1.0000   1.0000   1.0000   1.0000   1.0000   1.0000   1.0000
     1.0000   1.0000   1.0000   1.0000   1.0000   1.0000   1.0000   1.0000
     1.0000   1.0000   1.0000   1.0000   1.0000   0.0000   0.0000   0.0000
     0.0000   0.0000   0.0000   0.0000   0.0000   0.0000   0.0000   0.0000
     0.0000   0.0000   0.0000

          k =-0.3750 0.3608 0.0000 ( 11841 PWs)   bands (ev):

   -83.6067 -53.1980 -52.9793 -52.7606 -24.2820 -24.2462 -22.8263 -22.0749
   -16.7279 -16.4401 -13.6156 -13.1088 -12.7150 -12.3304 -12.0358 -10.8022
    -9.9130  -9.2704  -9.0755  -8.5489  -7.2500  -4.1059  -3.4729  -2.0874
    -1.7527  -0.7232  -0.3384   2.7308   3.2511   3.9501   4.3510   5.3754
     6.2338   6.3133   7.0529

     occupation numbers 
     1.0000   1.0000   1.0000   1.0000   1.0000   1.0000   1.0000   1.0000
     1.0000   1.0000   1.0000   1.0000   1.0000   1.0000   1.0000   1.0000
     1.0000   1.0000   1.0000   1.0000   1.0000   0.0000   0.0000   0.0000
     0.0000   0.0000   0.0000   0.0000   0.0000   0.0000   0.0000   0.0000
     0.0000   0.0000   0.0000

          k = 0.5000 0.1443 0.0000 ( 11841 PWs)   bands (ev):

   -83.6067 -53.1980 -52.9793 -52.7606 -24.2820 -24.2462 -22.8264 -22.0749
   -16.7278 -16.4401 -13.6156 -13.1088 -12.7150 -12.3305 -12.0357 -10.8023
    -9.9130  -9.2704  -9.0755  -8.5489  -7.2500  -4.1059  -3.4728  -2.0874
    -1.7526  -0.7232  -0.3384   2.7308   3.2510   3.9501   4.3510   5.3755
     6.2338   6.3134   7.0528

     occupation numbers 
     1.0000   1.0000   1.0000   1.0000   1.0000   1.0000   1.0000   1.0000
     1.0000   1.0000   1.0000   1.0000   1.0000   1.0000   1.0000   1.0000
     1.0000   1.0000   1.0000   1.0000   1.0000   0.0000   0.0000   0.0000
     0.0000   0.0000   0.0000   0.0000   0.0000   0.0000   0.0000   0.0000
     0.0000   0.0000   0.0000

          k =-0.3750-0.3608 0.0000 ( 11841 PWs)   bands (ev):

   -83.6067 -53.1980 -52.9793 -52.7606 -24.2819 -24.2462 -22.8264 -22.0749
   -16.7278 -16.4401 -13.6156 -13.1088 -12.7150 -12.3305 -12.0358 -10.8022
    -9.9131  -9.2704  -9.0756  -8.5489  -7.2500  -4.1059  -3.4728  -2.0874
    -1.7527  -0.7232  -0.3384   2.7308   3.2511   3.9501   4.3510   5.3754
     6.2338   6.3134   7.0529

     occupation numbers 
     1.0000   1.0000   1.0000   1.0000   1.0000   1.0000   1.0000   1.0000
     1.0000   1.0000   1.0000   1.0000   1.0000   1.0000   1.0000   1.0000
     1.0000   1.0000   1.0000   1.0000   1.0000   0.0000   0.0000   0.0000
     0.0000   0.0000   0.0000   0.0000   0.0000   0.0000   0.0000   0.0000
     0.0000   0.0000   0.0000

          k = 0.5000-0.1443 0.0000 ( 11841 PWs)   bands (ev):

   -83.6067 -53.1980 -52.9793 -52.7606 -24.2820 -24.2462 -22.8263 -22.0749
   -16.7279 -16.4401 -13.6156 -13.1088 -12.7150 -12.3304 -12.0358 -10.8022
    -9.9130  -9.2704  -9.0755  -8.5489  -7.2500  -4.1059  -3.4729  -2.0874
    -1.7526  -0.7232  -0.3384   2.7308   3.2510   3.9501   4.3510   5.3755
     6.2338   6.3133   7.0528

     occupation numbers 
     1.0000   1.0000   1.0000   1.0000   1.0000   1.0000   1.0000   1.0000
     1.0000   1.0000   1.0000   1.0000   1.0000   1.0000   1.0000   1.0000
     1.0000   1.0000   1.0000   1.0000   1.0000   0.0000   0.0000   0.0000
     0.0000   0.0000   0.0000   0.0000   0.0000   0.0000   0.0000   0.0000
     0.0000   0.0000   0.0000

          k =-0.2500 0.4330 0.0000 ( 11844 PWs)   bands (ev):

   -83.6143 -53.1795 -53.1205 -52.6605 -24.3245 -24.2813 -22.7975 -22.0300
   -16.1280 -15.7820 -14.0053 -13.7998 -13.2888 -11.9822 -11.8359 -11.1880
   -10.0792  -9.5779  -9.0425  -8.5243  -7.3310  -4.0092  -3.4113  -2.1501
    -1.6659   0.5054   0.7403   2.6205   3.0285   4.4548   4.7121   5.0806
     5.4753   6.1225   6.8623

     occupation numbers 
     1.0000   1.0000   1.0000   1.0000   1.0000   1.0000   1.0000   1.0000
     1.0000   1.0000   1.0000   1.0000   1.0000   1.0000   1.0000   1.0000
     1.0000   1.0000   1.0000   1.0000   1.0000   0.0000   0.0000   0.0000
     0.0000   0.0000   0.0000   0.0000   0.0000   0.0000   0.0000   0.0000
     0.0000   0.0000   0.0000

          k = 0.5000-0.0000 0.0000 ( 11844 PWs)   bands (ev):

   -83.6143 -53.1795 -53.1205 -52.6605 -24.3245 -24.2813 -22.7975 -22.0299
   -16.1280 -15.7820 -14.0054 -13.7998 -13.2888 -11.9822 -11.8359 -11.1880
   -10.0792  -9.5779  -9.0425  -8.5243  -7.3310  -4.0092  -3.4113  -2.1501
    -1.6659   0.5054   0.7403   2.6205   3.0285   4.4548   4.7120   5.0806
     5.4754   6.1225   6.8623

     occupation numbers 
     1.0000   1.0000   1.0000   1.0000   1.0000   1.0000   1.0000   1.0000
     1.0000   1.0000   1.0000   1.0000   1.0000   1.0000   1.0000   1.0000
     1.0000   1.0000   1.0000   1.0000   1.0000   0.0000   0.0000   0.0000
     0.0000   0.0000   0.0000   0.0000   0.0000   0.0000   0.0000   0.0000
     0.0000   0.0000   0.0000

          k =-0.3750 0.5052 0.0000 ( 11800 PWs)   bands (ev):

   -83.6035 -53.2074 -53.1353 -52.6279 -23.7835 -23.7558 -22.7485 -22.0514
   -16.3800 -16.0483 -14.6478 -14.5199 -12.8141 -12.3615 -12.1088 -10.8397
   -10.5806  -9.9952  -8.9872  -8.3418  -6.9622  -4.4075  -3.2514  -2.0460
    -1.7598   0.2875   0.6862   2.8439   3.2815   4.3315   4.7381   5.2491
     5.8545   6.3478   6.4451

     occupation numbers 
     1.0000   1.0000   1.0000   1.0000   1.0000   1.0000   1.0000   1.0000
     1.0000   1.0000   1.0000   1.0000   1.0000   1.0000   1.0000   1.0000
     1.0000   1.0000   1.0000   1.0000   1.0000   0.0000   0.0000   0.0000
     0.0000   0.0000   0.0000   0.0000   0.0000   0.0000   0.0000   0.0000
     0.0000   0.0000   0.0000

          k = 0.6250 0.0722 0.0000 ( 11800 PWs)   bands (ev):

   -83.6035 -53.2074 -53.1353 -52.6279 -23.7835 -23.7559 -22.7485 -22.0514
   -16.3800 -16.0483 -14.6479 -14.5199 -12.8141 -12.3615 -12.1088 -10.8398
   -10.5806  -9.9952  -8.9872  -8.3418  -6.9622  -4.4075  -3.2513  -2.0460
    -1.7598   0.2874   0.6862   2.8439   3.2815   4.3314   4.7380   5.2491
     5.8545   6.3479   6.4451

     occupation numbers 
     1.0000   1.0000   1.0000   1.0000   1.0000   1.0000   1.0000   1.0000
     1.0000   1.0000   1.0000   1.0000   1.0000   1.0000   1.0000   1.0000
     1.0000   1.0000   1.0000   1.0000   1.0000   0.0000   0.0000   0.0000
     0.0000   0.0000   0.0000   0.0000   0.0000   0.0000   0.0000   0.0000
     0.0000   0.0000   0.0000

     highest occupied, lowest unoccupied level (ev):    -6.5704   -4.4075

!    total energy              =    -263.21054198 Ry
     estimated scf accuracy    <          2.7E-11 Ry

     convergence has been achieved in   6 iterations

     Using ACE for calculation of exact exchange
     ACE projected onto    35 (nbndproj) and applied to    35 (nbnd) bands

     total energy              =    -263.21054221 Ry
     Harris-Foulkes estimate   =    -263.21054221 Ry
     est. exchange err (dexx)  =       0.00000023 Ry
     - averaged Fock potential =      17.84055108 Ry
     + Fock energy (ACE)       =      -8.92030982 Ry

     EXX: now go back to refine exchange calculation

     total cpu time spent up to now is     4552.6 secs

     Self-consistent Calculation

     iteration #  1     ecut=    80.00 Ry     beta= 0.50
     Davidson diagonalization with overlap

---- Real-time Memory Report at c_bands before calling an iterative solver
          2135 MiB given to the printing process from OS
             0 MiB allocation reported by mallinfo(arena+hblkhd)
         12908 MiB available memory on the node where the printing process lives
------------------
     ethr =  5.03E-13,  avg # of iterations =  5.6

     total cpu time spent up to now is     4563.8 secs

     total energy              =    -263.21054237 Ry
     estimated scf accuracy    <          9.7E-09 Ry

     iteration #  2     ecut=    80.00 Ry     beta= 0.50
     Davidson diagonalization with overlap

---- Real-time Memory Report at c_bands before calling an iterative solver
          2135 MiB given to the printing process from OS
             0 MiB allocation reported by mallinfo(arena+hblkhd)
         12899 MiB available memory on the node where the printing process lives
------------------
     ethr =  2.32E-11,  avg # of iterations =  2.0

     total cpu time spent up to now is     4570.9 secs

     total energy              =    -263.21054237 Ry
     estimated scf accuracy    <          2.0E-09 Ry

     iteration #  3     ecut=    80.00 Ry     beta= 0.50
     Davidson diagonalization with overlap

---- Real-time Memory Report at c_bands before calling an iterative solver
          2135 MiB given to the printing process from OS
             0 MiB allocation reported by mallinfo(arena+hblkhd)
         12899 MiB available memory on the node where the printing process lives
------------------
     ethr =  4.77E-12,  avg # of iterations =  2.0

     total cpu time spent up to now is     4578.3 secs

     total energy              =    -263.21054237 Ry
     estimated scf accuracy    <          9.4E-09 Ry

     iteration #  4     ecut=    80.00 Ry     beta= 0.50
     Davidson diagonalization with overlap

---- Real-time Memory Report at c_bands before calling an iterative solver
          2135 MiB given to the printing process from OS
             0 MiB allocation reported by mallinfo(arena+hblkhd)
         12898 MiB available memory on the node where the printing process lives
------------------
     ethr =  4.77E-12,  avg # of iterations =  2.0

     total cpu time spent up to now is     4585.5 secs

     total energy              =    -263.21054237 Ry
     estimated scf accuracy    <          1.9E-10 Ry

     iteration #  5     ecut=    80.00 Ry     beta= 0.50
     Davidson diagonalization with overlap

---- Real-time Memory Report at c_bands before calling an iterative solver
          2135 MiB given to the printing process from OS
             0 MiB allocation reported by mallinfo(arena+hblkhd)
         12896 MiB available memory on the node where the printing process lives
------------------
     ethr =  4.51E-13,  avg # of iterations =  1.7

     total cpu time spent up to now is     4592.4 secs

     End of self-consistent calculation

          k = 0.0000 0.0000 0.0000 ( 11937 PWs)   bands (ev):

   -83.5881 -52.8398 -52.7333 -52.7333 -27.0867 -26.9889 -24.3179 -22.7306
   -15.6433 -12.7266 -10.6451 -10.4743 -10.4743 -10.4277 -10.4276  -9.9056
    -9.9056  -8.4933  -8.4929  -8.4910  -6.5709  -2.6782  -2.6779  -2.4421
    -2.4419  -0.2224   0.1109   2.3491   2.3826   2.5027   4.0139   4.0139
     4.0684   4.0685   4.2610

     occupation numbers 
     1.0000   1.0000   1.0000   1.0000   1.0000   1.0000   1.0000   1.0000
     1.0000   1.0000   1.0000   1.0000   1.0000   1.0000   1.0000   1.0000
     1.0000   1.0000   1.0000   1.0000   1.0000   0.0000   0.0000   0.0000
     0.0000   0.0000   0.0000   0.0000   0.0000   0.0000   0.0000   0.0000
     0.0000   0.0000   0.0000

          k = 0.0000 0.1443 0.0000 ( 11905 PWs)   bands (ev):

   -83.5988 -52.9338 -52.7633 -52.7319 -26.7833 -26.6893 -24.0836 -22.6117
   -15.3913 -12.6005 -11.5948 -11.5320 -10.6934 -10.6654 -10.5399 -10.2724
    -9.7553  -8.8984  -8.7579  -8.3033  -6.5862  -2.9426  -2.7408  -2.7151
    -2.3880   0.5043   0.7307   2.4394   2.4916   3.0541   3.2426   3.5281
     4.6775   4.7397   5.1339

     occupation numbers 
     1.0000   1.0000   1.0000   1.0000   1.0000   1.0000   1.0000   1.0000
     1.0000   1.0000   1.0000   1.0000   1.0000   1.0000   1.0000   1.0000
     1.0000   1.0000   1.0000   1.0000   1.0000   0.0000   0.0000   0.0000
     0.0000   0.0000   0.0000   0.0000   0.0000   0.0000   0.0000   0.0000
     0.0000   0.0000   0.0000

          k = 0.0000 0.2887 0.0000 ( 11885 PWs)   bands (ev):

   -83.6095 -53.1951 -52.8331 -52.6329 -25.9782 -25.8985 -23.5235 -22.3319
   -15.0329 -13.8368 -13.4730 -12.2914 -11.5639 -11.2207 -11.2110  -9.9331
    -9.6383  -9.3534  -9.2551  -8.4991  -6.9050  -3.5584  -3.2470  -2.4602
    -1.8626   0.1117   0.3010   2.4285   2.5718   3.4915   3.9965   5.0901
     5.9021   6.1092   6.2879

     occupation numbers 
     1.0000   1.0000   1.0000   1.0000   1.0000   1.0000   1.0000   1.0000
     1.0000   1.0000   1.0000   1.0000   1.0000   1.0000   1.0000   1.0000
     1.0000   1.0000   1.0000   1.0000   1.0000   0.0000   0.0000   0.0000
     0.0000   0.0000   0.0000   0.0000   0.0000   0.0000   0.0000   0.0000
     0.0000   0.0000   0.0000

          k = 0.0000 0.4330 0.0000 ( 11860 PWs)   bands (ev):

   -83.6040 -53.2494 -52.8435 -52.7454 -24.9041 -24.8504 -22.9909 -22.1111
   -16.2450 -15.9316 -13.8303 -12.6004 -12.0658 -11.7473 -11.7153 -10.4096
    -9.8225  -9.4659  -8.6997  -8.6886  -7.1301  -4.0123  -3.6263  -2.2422
    -1.4764  -1.2819  -0.7759   2.4297   2.9895   4.0198   4.2989   5.7887
     6.4123   6.6150   7.1622

     occupation numbers 
     1.0000   1.0000   1.0000   1.0000   1.0000   1.0000   1.0000   1.0000
     1.0000   1.0000   1.0000   1.0000   1.0000   1.0000   1.0000   1.0000
     1.0000   1.0000   1.0000   1.0000   1.0000   0.0000   0.0000   0.0000
     0.0000   0.0000   0.0000   0.0000   0.0000   0.0000   0.0000   0.0000
     0.0000   0.0000   0.0000

          k = 0.0000-0.5774 0.0000 ( 11846 PWs)   bands (ev):

   -83.6000 -53.1999 -52.8629 -52.8556 -24.2398 -24.2131 -22.8612 -22.1257
   -17.1597 -16.8848 -13.5592 -13.0601 -12.1763 -11.9708 -11.9322 -10.6057
   -10.0237  -9.2228  -8.7542  -8.4433  -7.3111  -4.0107  -3.6812  -2.3878
    -1.8990  -1.3447  -1.0610   2.1456   2.7600   4.4231   5.1187   5.8257
     6.1779   6.5203   7.2569

     occupation numbers 
     1.0000   1.0000   1.0000   1.0000   1.0000   1.0000   1.0000   1.0000
     1.0000   1.0000   1.0000   1.0000   1.0000   1.0000   1.0000   1.0000
     1.0000   1.0000   1.0000   1.0000   1.0000   0.0000   0.0000   0.0000
     0.0000   0.0000   0.0000   0.0000   0.0000   0.0000   0.0000   0.0000
     0.0000   0.0000   0.0000

          k = 0.1250 0.2165 0.0000 ( 11867 PWs)   bands (ev):

   -83.6003 -53.1242 -52.8490 -52.5891 -26.2304 -26.1449 -23.6926 -22.4181
   -15.0458 -13.0818 -12.8533 -12.2956 -11.6089 -11.3088 -10.9263  -9.9738
    -9.6594  -9.5527  -9.0096  -8.3570  -6.7807  -3.3957  -3.0858  -2.7040
    -1.9049   1.0475   1.2331   2.0133   2.0273   3.4885   3.6387   4.0485
     5.0946   5.7027   6.4690

     occupation numbers 
     1.0000   1.0000   1.0000   1.0000   1.0000   1.0000   1.0000   1.0000
     1.0000   1.0000   1.0000   1.0000   1.0000   1.0000   1.0000   1.0000
     1.0000   1.0000   1.0000   1.0000   1.0000   0.0000   0.0000   0.0000
     0.0000   0.0000   0.0000   0.0000   0.0000   0.0000   0.0000   0.0000
     0.0000   0.0000   0.0000

          k = 0.1250 0.3608 0.0000 ( 11871 PWs)   bands (ev):

   -83.6029 -53.2158 -52.9543 -52.6010 -25.2710 -25.2050 -23.1384 -22.1574
   -15.4510 -14.9648 -13.7879 -12.5718 -12.2951 -11.9825 -11.6111 -10.5852
    -9.6708  -9.3287  -9.0846  -8.6312  -7.1485  -3.7615  -3.4937  -2.3502
    -1.5963   0.1374   0.3700   2.6670   2.7394   3.7949   4.1853   5.1196
     5.7511   6.1935   6.6254

     occupation numbers 
     1.0000   1.0000   1.0000   1.0000   1.0000   1.0000   1.0000   1.0000
     1.0000   1.0000   1.0000   1.0000   1.0000   1.0000   1.0000   1.0000
     1.0000   1.0000   1.0000   1.0000   1.0000   0.0000   0.0000   0.0000
     0.0000   0.0000   0.0000   0.0000   0.0000   0.0000   0.0000   0.0000
     0.0000   0.0000   0.0000

          k = 0.1250 0.5052 0.0000 ( 11841 PWs)   bands (ev):

   -83.6066 -53.1976 -52.9793 -52.7606 -24.2819 -24.2462 -22.8263 -22.0748
   -16.7278 -16.4400 -13.6156 -13.1087 -12.7150 -12.3305 -12.0357 -10.8021
    -9.9130  -9.2704  -9.0756  -8.5489  -7.2508  -4.1061  -3.4719  -2.0872
    -1.7525  -0.7231  -0.3383   2.7308   3.2511   3.9501   4.3510   5.3755
     6.2338   6.3134   7.0529

     occupation numbers 
     1.0000   1.0000   1.0000   1.0000   1.0000   1.0000   1.0000   1.0000
     1.0000   1.0000   1.0000   1.0000   1.0000   1.0000   1.0000   1.0000
     1.0000   1.0000   1.0000   1.0000   1.0000   0.0000   0.0000   0.0000
     0.0000   0.0000   0.0000   0.0000   0.0000   0.0000   0.0000   0.0000
     0.0000   0.0000   0.0000

          k = 0.2500 0.4330 0.0000 ( 11844 PWs)   bands (ev):

   -83.6141 -53.1796 -53.1206 -52.6597 -24.3245 -24.2813 -22.7975 -22.0299
   -16.1279 -15.7819 -14.0054 -13.7998 -13.2888 -11.9822 -11.8359 -11.1879
   -10.0791  -9.5779  -9.0424  -8.5243  -7.3318  -4.0078  -3.4117  -2.1499
    -1.6659   0.5053   0.7403   2.6205   3.0285   4.4548   4.7121   5.0805
     5.4754   6.1224   6.8622

     occupation numbers 
     1.0000   1.0000   1.0000   1.0000   1.0000   1.0000   1.0000   1.0000
     1.0000   1.0000   1.0000   1.0000   1.0000   1.0000   1.0000   1.0000
     1.0000   1.0000   1.0000   1.0000   1.0000   0.0000   0.0000   0.0000
     0.0000   0.0000   0.0000   0.0000   0.0000   0.0000   0.0000   0.0000
     0.0000   0.0000   0.0000

          k = 0.2500 0.5774 0.0000 ( 11800 PWs)   bands (ev):

   -83.6033 -53.2075 -53.1351 -52.6274 -23.7835 -23.7559 -22.7485 -22.0514
   -16.3800 -16.0483 -14.6479 -14.5199 -12.8142 -12.3614 -12.1087 -10.8398
   -10.5805  -9.9952  -8.9872  -8.3418  -6.9625  -4.4067  -3.2515  -2.0458
    -1.7596   0.2874   0.6863   2.8439   3.2815   4.3314   4.7380   5.2490
     5.8546   6.3478   6.4451

     occupation numbers 
     1.0000   1.0000   1.0000   1.0000   1.0000   1.0000   1.0000   1.0000
     1.0000   1.0000   1.0000   1.0000   1.0000   1.0000   1.0000   1.0000
     1.0000   1.0000   1.0000   1.0000   1.0000   0.0000   0.0000   0.0000
     0.0000   0.0000   0.0000   0.0000   0.0000   0.0000   0.0000   0.0000
     0.0000   0.0000   0.0000

          k =-0.1250 0.0722 0.0000 ( 11905 PWs)   bands (ev):

   -83.5988 -52.9338 -52.7633 -52.7318 -26.7833 -26.6893 -24.0836 -22.6117
   -15.3913 -12.6005 -11.5949 -11.5321 -10.6933 -10.6653 -10.5399 -10.2724
    -9.7553  -8.8985  -8.7577  -8.3033  -6.5863  -2.9426  -2.7407  -2.7150
    -2.3881   0.5043   0.7307   2.4394   2.4917   3.0541   3.2426   3.5281
     4.6775   4.7397   5.1339

     occupation numbers 
     1.0000   1.0000   1.0000   1.0000   1.0000   1.0000   1.0000   1.0000
     1.0000   1.0000   1.0000   1.0000   1.0000   1.0000   1.0000   1.0000
     1.0000   1.0000   1.0000   1.0000   1.0000   0.0000   0.0000   0.0000
     0.0000   0.0000   0.0000   0.0000   0.0000   0.0000   0.0000   0.0000
     0.0000   0.0000   0.0000

          k = 0.1250 0.0722 0.0000 ( 11905 PWs)   bands (ev):

   -83.5988 -52.9338 -52.7633 -52.7319 -26.7833 -26.6893 -24.0836 -22.6117
   -15.3913 -12.6005 -11.5948 -11.5320 -10.6934 -10.6654 -10.5399 -10.2724
    -9.7553  -8.8984  -8.7579  -8.3033  -6.5862  -2.9426  -2.7408  -2.7151
    -2.3880   0.5043   0.7307   2.4394   2.4917   3.0541   3.2426   3.5281
     4.6775   4.7397   5.1339

     occupation numbers 
     1.0000   1.0000   1.0000   1.0000   1.0000   1.0000   1.0000   1.0000
     1.0000   1.0000   1.0000   1.0000   1.0000   1.0000   1.0000   1.0000
     1.0000   1.0000   1.0000   1.0000   1.0000   0.0000   0.0000   0.0000
     0.0000   0.0000   0.0000   0.0000   0.0000   0.0000   0.0000   0.0000
     0.0000   0.0000   0.0000

          k =-0.2500 0.1443 0.0000 ( 11885 PWs)   bands (ev):

   -83.6095 -53.1951 -52.8331 -52.6329 -25.9782 -25.8985 -23.5235 -22.3319
   -15.0329 -13.8368 -13.4730 -12.2914 -11.5640 -11.2206 -11.2109  -9.9331
    -9.6383  -9.3533  -9.2550  -8.4992  -6.9050  -3.5584  -3.2470  -2.4602
    -1.8626   0.1117   0.3010   2.4285   2.5718   3.4915   3.9964   5.0901
     5.9021   6.1092   6.2879

     occupation numbers 
     1.0000   1.0000   1.0000   1.0000   1.0000   1.0000   1.0000   1.0000
     1.0000   1.0000   1.0000   1.0000   1.0000   1.0000   1.0000   1.0000
     1.0000   1.0000   1.0000   1.0000   1.0000   0.0000   0.0000   0.0000
     0.0000   0.0000   0.0000   0.0000   0.0000   0.0000   0.0000   0.0000
     0.0000   0.0000   0.0000

          k = 0.2500 0.1443 0.0000 ( 11885 PWs)   bands (ev):

   -83.6095 -53.1951 -52.8331 -52.6329 -25.9782 -25.8985 -23.5235 -22.3319
   -15.0329 -13.8368 -13.4730 -12.2914 -11.5639 -11.2207 -11.2110  -9.9331
    -9.6383  -9.3534  -9.2551  -8.4991  -6.9050  -3.5584  -3.2470  -2.4602
    -1.8626   0.1117   0.3010   2.4285   2.5718   3.4915   3.9964   5.0901
     5.9021   6.1092   6.2879

     occupation numbers 
     1.0000   1.0000   1.0000   1.0000   1.0000   1.0000   1.0000   1.0000
     1.0000   1.0000   1.0000   1.0000   1.0000   1.0000   1.0000   1.0000
     1.0000   1.0000   1.0000   1.0000   1.0000   0.0000   0.0000   0.0000
     0.0000   0.0000   0.0000   0.0000   0.0000   0.0000   0.0000   0.0000
     0.0000   0.0000   0.0000

          k =-0.3750 0.2165 0.0000 ( 11860 PWs)   bands (ev):

   -83.6040 -53.2494 -52.8435 -52.7454 -24.9041 -24.8504 -22.9909 -22.1112
   -16.2450 -15.9316 -13.8303 -12.6004 -12.0658 -11.7472 -11.7152 -10.4096
    -9.8224  -9.4659  -8.6996  -8.6887  -7.1302  -4.0124  -3.6263  -2.2422
    -1.4764  -1.2819  -0.7759   2.4297   2.9895   4.0198   4.2989   5.7888
     6.4122   6.6150   7.1622

     occupation numbers 
     1.0000   1.0000   1.0000   1.0000   1.0000   1.0000   1.0000   1.0000
     1.0000   1.0000   1.0000   1.0000   1.0000   1.0000   1.0000   1.0000
     1.0000   1.0000   1.0000   1.0000   1.0000   0.0000   0.0000   0.0000
     0.0000   0.0000   0.0000   0.0000   0.0000   0.0000   0.0000   0.0000
     0.0000   0.0000   0.0000

          k = 0.3750 0.2165 0.0000 ( 11860 PWs)   bands (ev):

   -83.6040 -53.2494 -52.8435 -52.7454 -24.9041 -24.8504 -22.9909 -22.1111
   -16.2450 -15.9316 -13.8303 -12.6004 -12.0658 -11.7473 -11.7153 -10.4096
    -9.8225  -9.4659  -8.6997  -8.6886  -7.1301  -4.0123  -3.6263  -2.2422
    -1.4764  -1.2819  -0.7759   2.4296   2.9895   4.0198   4.2989   5.7887
     6.4123   6.6150   7.1622

     occupation numbers 
     1.0000   1.0000   1.0000   1.0000   1.0000   1.0000   1.0000   1.0000
     1.0000   1.0000   1.0000   1.0000   1.0000   1.0000   1.0000   1.0000
     1.0000   1.0000   1.0000   1.0000   1.0000   0.0000   0.0000   0.0000
     0.0000   0.0000   0.0000   0.0000   0.0000   0.0000   0.0000   0.0000
     0.0000   0.0000   0.0000

          k = 0.5000-0.2887 0.0000 ( 11846 PWs)   bands (ev):

   -83.6000 -53.1999 -52.8629 -52.8556 -24.2398 -24.2131 -22.8612 -22.1258
   -17.1597 -16.8848 -13.5592 -13.0601 -12.1763 -11.9707 -11.9321 -10.6058
   -10.0236  -9.2228  -8.7542  -8.4432  -7.3111  -4.0108  -3.6812  -2.3878
    -1.8990  -1.3447  -1.0609   2.1456   2.7600   4.4231   5.1187   5.8258
     6.1779   6.5203   7.2569

     occupation numbers 
     1.0000   1.0000   1.0000   1.0000   1.0000   1.0000   1.0000   1.0000
     1.0000   1.0000   1.0000   1.0000   1.0000   1.0000   1.0000   1.0000
     1.0000   1.0000   1.0000   1.0000   1.0000   0.0000   0.0000   0.0000
     0.0000   0.0000   0.0000   0.0000   0.0000   0.0000   0.0000   0.0000
     0.0000   0.0000   0.0000

          k =-0.5000-0.2887 0.0000 ( 11846 PWs)   bands (ev):

   -83.6000 -53.1999 -52.8629 -52.8556 -24.2398 -24.2131 -22.8612 -22.1257
   -17.1597 -16.8848 -13.5592 -13.0601 -12.1763 -11.9708 -11.9322 -10.6058
   -10.0237  -9.2228  -8.7542  -8.4433  -7.3111  -4.0107  -3.6812  -2.3878
    -1.8990  -1.3447  -1.0609   2.1456   2.7600   4.4231   5.1187   5.8258
     6.1779   6.5203   7.2569

     occupation numbers 
     1.0000   1.0000   1.0000   1.0000   1.0000   1.0000   1.0000   1.0000
     1.0000   1.0000   1.0000   1.0000   1.0000   1.0000   1.0000   1.0000
     1.0000   1.0000   1.0000   1.0000   1.0000   0.0000   0.0000   0.0000
     0.0000   0.0000   0.0000   0.0000   0.0000   0.0000   0.0000   0.0000
     0.0000   0.0000   0.0000

          k =-0.1250 0.2165 0.0000 ( 11867 PWs)   bands (ev):

   -83.6003 -53.1242 -52.8490 -52.5891 -26.2304 -26.1449 -23.6926 -22.4181
   -15.0458 -13.0818 -12.8533 -12.2956 -11.6089 -11.3087 -10.9263  -9.9738
    -9.6594  -9.5526  -9.0097  -8.3570  -6.7808  -3.3957  -3.0858  -2.7040
    -1.9049   1.0474   1.2331   2.0133   2.0273   3.4885   3.6387   4.0485
     5.0945   5.7027   6.4690

     occupation numbers 
     1.0000   1.0000   1.0000   1.0000   1.0000   1.0000   1.0000   1.0000
     1.0000   1.0000   1.0000   1.0000   1.0000   1.0000   1.0000   1.0000
     1.0000   1.0000   1.0000   1.0000   1.0000   0.0000   0.0000   0.0000
     0.0000   0.0000   0.0000   0.0000   0.0000   0.0000   0.0000   0.0000
     0.0000   0.0000   0.0000

          k = 0.2500-0.0000 0.0000 ( 11867 PWs)   bands (ev):

   -83.6003 -53.1242 -52.8490 -52.5891 -26.2304 -26.1449 -23.6926 -22.4181
   -15.0458 -13.0818 -12.8533 -12.2956 -11.6089 -11.3087 -10.9263  -9.9738
    -9.6594  -9.5525  -9.0097  -8.3570  -6.7808  -3.3957  -3.0858  -2.7040
    -1.9049   1.0474   1.2331   2.0133   2.0273   3.4885   3.6388   4.0485
     5.0944   5.7027   6.4691

     occupation numbers 
     1.0000   1.0000   1.0000   1.0000   1.0000   1.0000   1.0000   1.0000
     1.0000   1.0000   1.0000   1.0000   1.0000   1.0000   1.0000   1.0000
     1.0000   1.0000   1.0000   1.0000   1.0000   0.0000   0.0000   0.0000
     0.0000   0.0000   0.0000   0.0000   0.0000   0.0000   0.0000   0.0000
     0.0000   0.0000   0.0000

          k =-0.1250 0.3608 0.0000 ( 11871 PWs)   bands (ev):

   -83.6029 -53.2158 -52.9543 -52.6010 -25.2710 -25.2050 -23.1384 -22.1574
   -15.4510 -14.9648 -13.7879 -12.5718 -12.2951 -11.9826 -11.6111 -10.5851
    -9.6709  -9.3287  -9.0845  -8.6311  -7.1486  -3.7615  -3.4937  -2.3503
    -1.5962   0.1374   0.3700   2.6670   2.7394   3.7949   4.1853   5.1196
     5.7511   6.1935   6.6254

     occupation numbers 
     1.0000   1.0000   1.0000   1.0000   1.0000   1.0000   1.0000   1.0000
     1.0000   1.0000   1.0000   1.0000   1.0000   1.0000   1.0000   1.0000
     1.0000   1.0000   1.0000   1.0000   1.0000   0.0000   0.0000   0.0000
     0.0000   0.0000   0.0000   0.0000   0.0000   0.0000   0.0000   0.0000
     0.0000   0.0000   0.0000

          k =-0.2500 0.2887 0.0000 ( 11871 PWs)   bands (ev):

   -83.6029 -53.2158 -52.9543 -52.6010 -25.2710 -25.2050 -23.1383 -22.1574
   -15.4510 -14.9649 -13.7879 -12.5718 -12.2950 -11.9826 -11.6111 -10.5851
    -9.6708  -9.3286  -9.0845  -8.6312  -7.1486  -3.7615  -3.4937  -2.3502
    -1.5962   0.1374   0.3700   2.6670   2.7394   3.7948   4.1852   5.1196
     5.7511   6.1935   6.6254

     occupation numbers 
     1.0000   1.0000   1.0000   1.0000   1.0000   1.0000   1.0000   1.0000
     1.0000   1.0000   1.0000   1.0000   1.0000   1.0000   1.0000   1.0000
     1.0000   1.0000   1.0000   1.0000   1.0000   0.0000   0.0000   0.0000
     0.0000   0.0000   0.0000   0.0000   0.0000   0.0000   0.0000   0.0000
     0.0000   0.0000   0.0000

          k = 0.3750 0.0722 0.0000 ( 11871 PWs)   bands (ev):

   -83.6029 -53.2158 -52.9543 -52.6010 -25.2710 -25.2050 -23.1383 -22.1574
   -15.4510 -14.9648 -13.7879 -12.5718 -12.2951 -11.9826 -11.6110 -10.5852
    -9.6709  -9.3287  -9.0845  -8.6311  -7.1486  -3.7615  -3.4937  -2.3503
    -1.5962   0.1374   0.3700   2.6670   2.7394   3.7949   4.1852   5.1196
     5.7511   6.1935   6.6254

     occupation numbers 
     1.0000   1.0000   1.0000   1.0000   1.0000   1.0000   1.0000   1.0000
     1.0000   1.0000   1.0000   1.0000   1.0000   1.0000   1.0000   1.0000
     1.0000   1.0000   1.0000   1.0000   1.0000   0.0000   0.0000   0.0000
     0.0000   0.0000   0.0000   0.0000   0.0000   0.0000   0.0000   0.0000
     0.0000   0.0000   0.0000

          k =-0.2500-0.2887 0.0000 ( 11871 PWs)   bands (ev):

   -83.6029 -53.2158 -52.9543 -52.6010 -25.2710 -25.2050 -23.1384 -22.1574
   -15.4510 -14.9648 -13.7879 -12.5718 -12.2951 -11.9825 -11.6111 -10.5852
    -9.6708  -9.3287  -9.0845  -8.6312  -7.1485  -3.7615  -3.4937  -2.3502
    -1.5963   0.1374   0.3700   2.6670   2.7394   3.7948   4.1852   5.1196
     5.7511   6.1935   6.6254

     occupation numbers 
     1.0000   1.0000   1.0000   1.0000   1.0000   1.0000   1.0000   1.0000
     1.0000   1.0000   1.0000   1.0000   1.0000   1.0000   1.0000   1.0000
     1.0000   1.0000   1.0000   1.0000   1.0000   0.0000   0.0000   0.0000
     0.0000   0.0000   0.0000   0.0000   0.0000   0.0000   0.0000   0.0000
     0.0000   0.0000   0.0000

          k = 0.3750-0.0722 0.0000 ( 11871 PWs)   bands (ev):

   -83.6029 -53.2158 -52.9543 -52.6010 -25.2710 -25.2050 -23.1383 -22.1574
   -15.4510 -14.9649 -13.7879 -12.5718 -12.2950 -11.9826 -11.6110 -10.5851
    -9.6708  -9.3286  -9.0845  -8.6312  -7.1486  -3.7615  -3.4937  -2.3502
    -1.5962   0.1374   0.3700   2.6670   2.7394   3.7948   4.1852   5.1196
     5.7511   6.1935   6.6254

     occupation numbers 
     1.0000   1.0000   1.0000   1.0000   1.0000   1.0000   1.0000   1.0000
     1.0000   1.0000   1.0000   1.0000   1.0000   1.0000   1.0000   1.0000
     1.0000   1.0000   1.0000   1.0000   1.0000   0.0000   0.0000   0.0000
     0.0000   0.0000   0.0000   0.0000   0.0000   0.0000   0.0000   0.0000
     0.0000   0.0000   0.0000

          k =-0.1250 0.5052 0.0000 ( 11841 PWs)   bands (ev):

   -83.6066 -53.1976 -52.9793 -52.7606 -24.2819 -24.2462 -22.8263 -22.0749
   -16.7278 -16.4401 -13.6155 -13.1088 -12.7150 -12.3305 -12.0357 -10.8022
    -9.9130  -9.2704  -9.0755  -8.5489  -7.2508  -4.1061  -3.4719  -2.0872
    -1.7525  -0.7231  -0.3384   2.7308   3.2511   3.9501   4.3510   5.3755
     6.2338   6.3133   7.0529

     occupation numbers 
     1.0000   1.0000   1.0000   1.0000   1.0000   1.0000   1.0000   1.0000
     1.0000   1.0000   1.0000   1.0000   1.0000   1.0000   1.0000   1.0000
     1.0000   1.0000   1.0000   1.0000   1.0000   0.0000   0.0000   0.0000
     0.0000   0.0000   0.0000   0.0000   0.0000   0.0000   0.0000   0.0000
     0.0000   0.0000   0.0000

          k =-0.3750 0.3608 0.0000 ( 11841 PWs)   bands (ev):

   -83.6066 -53.1976 -52.9792 -52.7606 -24.2819 -24.2462 -22.8263 -22.0749
   -16.7279 -16.4401 -13.6156 -13.1087 -12.7150 -12.3304 -12.0357 -10.8021
    -9.9129  -9.2704  -9.0755  -8.5489  -7.2508  -4.1061  -3.4720  -2.0872
    -1.7525  -0.7231  -0.3384   2.7309   3.2511   3.9501   4.3510   5.3755
     6.2338   6.3133   7.0530

     occupation numbers 
     1.0000   1.0000   1.0000   1.0000   1.0000   1.0000   1.0000   1.0000
     1.0000   1.0000   1.0000   1.0000   1.0000   1.0000   1.0000   1.0000
     1.0000   1.0000   1.0000   1.0000   1.0000   0.0000   0.0000   0.0000
     0.0000   0.0000   0.0000   0.0000   0.0000   0.0000   0.0000   0.0000
     0.0000   0.0000   0.0000

          k = 0.5000 0.1443 0.0000 ( 11841 PWs)   bands (ev):

   -83.6066 -53.1976 -52.9793 -52.7606 -24.2819 -24.2462 -22.8263 -22.0748
   -16.7278 -16.4401 -13.6156 -13.1088 -12.7150 -12.3304 -12.0356 -10.8022
    -9.9130  -9.2704  -9.0755  -8.5489  -7.2508  -4.1061  -3.4719  -2.0872
    -1.7525  -0.7231  -0.3384   2.7308   3.2510   3.9501   4.3510   5.3755
     6.2338   6.3134   7.0528

     occupation numbers 
     1.0000   1.0000   1.0000   1.0000   1.0000   1.0000   1.0000   1.0000
     1.0000   1.0000   1.0000   1.0000   1.0000   1.0000   1.0000   1.0000
     1.0000   1.0000   1.0000   1.0000   1.0000   0.0000   0.0000   0.0000
     0.0000   0.0000   0.0000   0.0000   0.0000   0.0000   0.0000   0.0000
     0.0000   0.0000   0.0000

          k =-0.3750-0.3608 0.0000 ( 11841 PWs)   bands (ev):

   -83.6066 -53.1976 -52.9793 -52.7606 -24.2819 -24.2462 -22.8263 -22.0748
   -16.7278 -16.4401 -13.6156 -13.1087 -12.7150 -12.3305 -12.0357 -10.8021
    -9.9130  -9.2704  -9.0755  -8.5489  -7.2508  -4.1061  -3.4719  -2.0872
    -1.7525  -0.7231  -0.3383   2.7308   3.2511   3.9501   4.3510   5.3754
     6.2338   6.3134   7.0530

     occupation numbers 
     1.0000   1.0000   1.0000   1.0000   1.0000   1.0000   1.0000   1.0000
     1.0000   1.0000   1.0000   1.0000   1.0000   1.0000   1.0000   1.0000
     1.0000   1.0000   1.0000   1.0000   1.0000   0.0000   0.0000   0.0000
     0.0000   0.0000   0.0000   0.0000   0.0000   0.0000   0.0000   0.0000
     0.0000   0.0000   0.0000

          k = 0.5000-0.1443 0.0000 ( 11841 PWs)   bands (ev):

   -83.6066 -53.1976 -52.9792 -52.7606 -24.2819 -24.2462 -22.8263 -22.0749
   -16.7279 -16.4401 -13.6156 -13.1087 -12.7150 -12.3304 -12.0357 -10.8021
    -9.9129  -9.2704  -9.0755  -8.5489  -7.2508  -4.1061  -3.4720  -2.0872
    -1.7525  -0.7231  -0.3384   2.7308   3.2510   3.9501   4.3510   5.3755
     6.2338   6.3134   7.0528

     occupation numbers 
     1.0000   1.0000   1.0000   1.0000   1.0000   1.0000   1.0000   1.0000
     1.0000   1.0000   1.0000   1.0000   1.0000   1.0000   1.0000   1.0000
     1.0000   1.0000   1.0000   1.0000   1.0000   0.0000   0.0000   0.0000
     0.0000   0.0000   0.0000   0.0000   0.0000   0.0000   0.0000   0.0000
     0.0000   0.0000   0.0000

          k =-0.2500 0.4330 0.0000 ( 11844 PWs)   bands (ev):

   -83.6141 -53.1796 -53.1206 -52.6597 -24.3245 -24.2813 -22.7975 -22.0299
   -16.1280 -15.7820 -14.0053 -13.7998 -13.2888 -11.9822 -11.8359 -11.1879
   -10.0791  -9.5778  -9.0425  -8.5243  -7.3318  -4.0079  -3.4117  -2.1499
    -1.6658   0.5054   0.7403   2.6205   3.0285   4.4548   4.7121   5.0806
     5.4753   6.1225   6.8622

     occupation numbers 
     1.0000   1.0000   1.0000   1.0000   1.0000   1.0000   1.0000   1.0000
     1.0000   1.0000   1.0000   1.0000   1.0000   1.0000   1.0000   1.0000
     1.0000   1.0000   1.0000   1.0000   1.0000   0.0000   0.0000   0.0000
     0.0000   0.0000   0.0000   0.0000   0.0000   0.0000   0.0000   0.0000
     0.0000   0.0000   0.0000

          k = 0.5000-0.0000 0.0000 ( 11844 PWs)   bands (ev):

   -83.6141 -53.1796 -53.1206 -52.6597 -24.3245 -24.2813 -22.7975 -22.0299
   -16.1280 -15.7820 -14.0054 -13.7998 -13.2888 -11.9822 -11.8359 -11.1879
   -10.0791  -9.5778  -9.0424  -8.5243  -7.3318  -4.0079  -3.4117  -2.1499
    -1.6658   0.5054   0.7403   2.6205   3.0285   4.4548   4.7120   5.0806
     5.4754   6.1225   6.8621

     occupation numbers 
     1.0000   1.0000   1.0000   1.0000   1.0000   1.0000   1.0000   1.0000
     1.0000   1.0000   1.0000   1.0000   1.0000   1.0000   1.0000   1.0000
     1.0000   1.0000   1.0000   1.0000   1.0000   0.0000   0.0000   0.0000
     0.0000   0.0000   0.0000   0.0000   0.0000   0.0000   0.0000   0.0000
     0.0000   0.0000   0.0000

          k =-0.3750 0.5052 0.0000 ( 11800 PWs)   bands (ev):

   -83.6033 -53.2075 -53.1351 -52.6274 -23.7835 -23.7559 -22.7484 -22.0514
   -16.3800 -16.0483 -14.6478 -14.5199 -12.8142 -12.3614 -12.1086 -10.8397
   -10.5805  -9.9952  -8.9872  -8.3418  -6.9625  -4.4067  -3.2515  -2.0458
    -1.7596   0.2875   0.6862   2.8439   3.2815   4.3314   4.7381   5.2491
     5.8545   6.3478   6.4452

     occupation numbers 
     1.0000   1.0000   1.0000   1.0000   1.0000   1.0000   1.0000   1.0000
     1.0000   1.0000   1.0000   1.0000   1.0000   1.0000   1.0000   1.0000
     1.0000   1.0000   1.0000   1.0000   1.0000   0.0000   0.0000   0.0000
     0.0000   0.0000   0.0000   0.0000   0.0000   0.0000   0.0000   0.0000
     0.0000   0.0000   0.0000

          k = 0.6250 0.0722 0.0000 ( 11800 PWs)   bands (ev):

   -83.6033 -53.2075 -53.1351 -52.6274 -23.7835 -23.7559 -22.7484 -22.0514
   -16.3800 -16.0483 -14.6479 -14.5199 -12.8142 -12.3614 -12.1086 -10.8398
   -10.5805  -9.9952  -8.9872  -8.3418  -6.9625  -4.4067  -3.2515  -2.0458
    -1.7596   0.2874   0.6863   2.8439   3.2816   4.3314   4.7380   5.2490
     5.8545   6.3479   6.4451

     occupation numbers 
     1.0000   1.0000   1.0000   1.0000   1.0000   1.0000   1.0000   1.0000
     1.0000   1.0000   1.0000   1.0000   1.0000   1.0000   1.0000   1.0000
     1.0000   1.0000   1.0000   1.0000   1.0000   0.0000   0.0000   0.0000
     0.0000   0.0000   0.0000   0.0000   0.0000   0.0000   0.0000   0.0000
     0.0000   0.0000   0.0000

     highest occupied, lowest unoccupied level (ev):    -6.5709   -4.4067

!    total energy              =    -263.21054237 Ry
     estimated scf accuracy    <          5.6E-11 Ry

     convergence has been achieved in   5 iterations

     Using ACE for calculation of exact exchange
     ACE projected onto    35 (nbndproj) and applied to    35 (nbnd) bands

     total energy              =    -263.21054249 Ry
     Harris-Foulkes estimate   =    -263.21054249 Ry
     est. exchange err (dexx)  =       0.00000011 Ry
     - averaged Fock potential =      17.84066293 Ry
     + Fock energy (ACE)       =      -8.92035323 Ry

     EXX: now go back to refine exchange calculation

     total cpu time spent up to now is     4931.9 secs

     Self-consistent Calculation

     iteration #  1     ecut=    80.00 Ry     beta= 0.50
     Davidson diagonalization with overlap

---- Real-time Memory Report at c_bands before calling an iterative solver
          2135 MiB given to the printing process from OS
             0 MiB allocation reported by mallinfo(arena+hblkhd)
         12939 MiB available memory on the node where the printing process lives
------------------
     ethr =  4.51E-13,  avg # of iterations =  5.4

     total cpu time spent up to now is     4942.8 secs

     total energy              =    -263.21054257 Ry
     estimated scf accuracy    <          5.7E-09 Ry

     iteration #  2     ecut=    80.00 Ry     beta= 0.50
     Davidson diagonalization with overlap

---- Real-time Memory Report at c_bands before calling an iterative solver
          2135 MiB given to the printing process from OS
             0 MiB allocation reported by mallinfo(arena+hblkhd)
         12932 MiB available memory on the node where the printing process lives
------------------
     ethr =  1.35E-11,  avg # of iterations =  2.0

     total cpu time spent up to now is     4949.9 secs

     total energy              =    -263.21054257 Ry
     estimated scf accuracy    <       0.00000001 Ry

     iteration #  3     ecut=    80.00 Ry     beta= 0.50
     Davidson diagonalization with overlap

---- Real-time Memory Report at c_bands before calling an iterative solver
          2135 MiB given to the printing process from OS
             0 MiB allocation reported by mallinfo(arena+hblkhd)
         12923 MiB available memory on the node where the printing process lives
------------------
     ethr =  1.35E-11,  avg # of iterations =  2.0

     total cpu time spent up to now is     4956.9 secs

     total energy              =    -263.21054257 Ry
     estimated scf accuracy    <          1.0E-09 Ry

     iteration #  4     ecut=    80.00 Ry     beta= 0.50
     Davidson diagonalization with overlap

---- Real-time Memory Report at c_bands before calling an iterative solver
          2135 MiB given to the printing process from OS
             0 MiB allocation reported by mallinfo(arena+hblkhd)
         12921 MiB available memory on the node where the printing process lives
------------------
     ethr =  2.47E-12,  avg # of iterations =  2.0

     total cpu time spent up to now is     4963.9 secs

     total energy              =    -263.21054257 Ry
     estimated scf accuracy    <          7.0E-10 Ry

     iteration #  5     ecut=    80.00 Ry     beta= 0.50
     Davidson diagonalization with overlap

---- Real-time Memory Report at c_bands before calling an iterative solver
          2135 MiB given to the printing process from OS
             0 MiB allocation reported by mallinfo(arena+hblkhd)
         12920 MiB available memory on the node where the printing process lives
------------------
     ethr =  1.66E-12,  avg # of iterations =  1.3

     total cpu time spent up to now is     4970.3 secs

     End of self-consistent calculation

          k = 0.0000 0.0000 0.0000 ( 11937 PWs)   bands (ev):

   -83.5881 -52.8397 -52.7332 -52.7332 -27.0867 -26.9889 -24.3179 -22.7306
   -15.6434 -12.7266 -10.6451 -10.4743 -10.4743 -10.4277 -10.4276  -9.9056
    -9.9056  -8.4932  -8.4929  -8.4910  -6.5712  -2.6781  -2.6779  -2.4420
    -2.4419  -0.2224   0.1109   2.3491   2.3826   2.5027   4.0139   4.0139
     4.0684   4.0684   4.2610

     occupation numbers 
     1.0000   1.0000   1.0000   1.0000   1.0000   1.0000   1.0000   1.0000
     1.0000   1.0000   1.0000   1.0000   1.0000   1.0000   1.0000   1.0000
     1.0000   1.0000   1.0000   1.0000   1.0000   0.0000   0.0000   0.0000
     0.0000   0.0000   0.0000   0.0000   0.0000   0.0000   0.0000   0.0000
     0.0000   0.0000   0.0000

          k = 0.0000 0.1443 0.0000 ( 11905 PWs)   bands (ev):

   -83.5987 -52.9340 -52.7630 -52.7320 -26.7833 -26.6893 -24.0836 -22.6117
   -15.3914 -12.6005 -11.5948 -11.5320 -10.6934 -10.6654 -10.5398 -10.2725
    -9.7552  -8.8983  -8.7579  -8.3032  -6.5865  -2.9428  -2.7407  -2.7148
    -2.3879   0.5043   0.7307   2.4394   2.4917   3.0542   3.2426   3.5281
     4.6775   4.7397   5.1339

     occupation numbers 
     1.0000   1.0000   1.0000   1.0000   1.0000   1.0000   1.0000   1.0000
     1.0000   1.0000   1.0000   1.0000   1.0000   1.0000   1.0000   1.0000
     1.0000   1.0000   1.0000   1.0000   1.0000   0.0000   0.0000   0.0000
     0.0000   0.0000   0.0000   0.0000   0.0000   0.0000   0.0000   0.0000
     0.0000   0.0000   0.0000

          k = 0.0000 0.2887 0.0000 ( 11885 PWs)   bands (ev):

   -83.6094 -53.1955 -52.8330 -52.6324 -25.9782 -25.8985 -23.5235 -22.3319
   -15.0329 -13.8368 -13.4730 -12.2914 -11.5642 -11.2207 -11.2110  -9.9331
    -9.6383  -9.3534  -9.2551  -8.4991  -6.9045  -3.5588  -3.2467  -2.4601
    -1.8626   0.1116   0.3010   2.4285   2.5718   3.4915   3.9965   5.0900
     5.9021   6.1092   6.2879

     occupation numbers 
     1.0000   1.0000   1.0000   1.0000   1.0000   1.0000   1.0000   1.0000
     1.0000   1.0000   1.0000   1.0000   1.0000   1.0000   1.0000   1.0000
     1.0000   1.0000   1.0000   1.0000   1.0000   0.0000   0.0000   0.0000
     0.0000   0.0000   0.0000   0.0000   0.0000   0.0000   0.0000   0.0000
     0.0000   0.0000   0.0000

          k = 0.0000 0.4330 0.0000 ( 11860 PWs)   bands (ev):

   -83.6040 -53.2496 -52.8431 -52.7455 -24.9041 -24.8504 -22.9909 -22.1111
   -16.2450 -15.9316 -13.8302 -12.6004 -12.0658 -11.7473 -11.7153 -10.4096
    -9.8225  -9.4659  -8.6996  -8.6886  -7.1306  -4.0126  -3.6260  -2.2421
    -1.4763  -1.2819  -0.7759   2.4296   2.9895   4.0198   4.2989   5.7887
     6.4123   6.6150   7.1622

     occupation numbers 
     1.0000   1.0000   1.0000   1.0000   1.0000   1.0000   1.0000   1.0000
     1.0000   1.0000   1.0000   1.0000   1.0000   1.0000   1.0000   1.0000
     1.0000   1.0000   1.0000   1.0000   1.0000   0.0000   0.0000   0.0000
     0.0000   0.0000   0.0000   0.0000   0.0000   0.0000   0.0000   0.0000
     0.0000   0.0000   0.0000

          k = 0.0000-0.5774 0.0000 ( 11846 PWs)   bands (ev):

   -83.6000 -53.1998 -52.8628 -52.8555 -24.2398 -24.2131 -22.8612 -22.1257
   -17.1597 -16.8848 -13.5592 -13.0601 -12.1763 -11.9708 -11.9322 -10.6057
   -10.0237  -9.2228  -8.7542  -8.4433  -7.3113  -4.0108  -3.6811  -2.3878
    -1.8990  -1.3446  -1.0609   2.1456   2.7600   4.4231   5.1187   5.8258
     6.1779   6.5203   7.2569

     occupation numbers 
     1.0000   1.0000   1.0000   1.0000   1.0000   1.0000   1.0000   1.0000
     1.0000   1.0000   1.0000   1.0000   1.0000   1.0000   1.0000   1.0000
     1.0000   1.0000   1.0000   1.0000   1.0000   0.0000   0.0000   0.0000
     0.0000   0.0000   0.0000   0.0000   0.0000   0.0000   0.0000   0.0000
     0.0000   0.0000   0.0000

          k = 0.1250 0.2165 0.0000 ( 11867 PWs)   bands (ev):

   -83.6002 -53.1244 -52.8489 -52.5889 -26.2304 -26.1449 -23.6926 -22.4181
   -15.0458 -13.0818 -12.8533 -12.2956 -11.6089 -11.3088 -10.9263  -9.9738
    -9.6595  -9.5527  -9.0096  -8.3569  -6.7806  -3.3962  -3.0854  -2.7040
    -1.9048   1.0475   1.2331   2.0133   2.0273   3.4885   3.6387   4.0485
     5.0946   5.7027   6.4690

     occupation numbers 
     1.0000   1.0000   1.0000   1.0000   1.0000   1.0000   1.0000   1.0000
     1.0000   1.0000   1.0000   1.0000   1.0000   1.0000   1.0000   1.0000
     1.0000   1.0000   1.0000   1.0000   1.0000   0.0000   0.0000   0.0000
     0.0000   0.0000   0.0000   0.0000   0.0000   0.0000   0.0000   0.0000
     0.0000   0.0000   0.0000

          k = 0.1250 0.3608 0.0000 ( 11871 PWs)   bands (ev):

   -83.6028 -53.2159 -52.9542 -52.6008 -25.2710 -25.2050 -23.1384 -22.1574
   -15.4510 -14.9648 -13.7879 -12.5718 -12.2951 -11.9825 -11.6111 -10.5852
    -9.6709  -9.3286  -9.0845  -8.6311  -7.1487  -3.7614  -3.4936  -2.3502
    -1.5962   0.1374   0.3700   2.6670   2.7394   3.7949   4.1853   5.1195
     5.7511   6.1935   6.6254

     occupation numbers 
     1.0000   1.0000   1.0000   1.0000   1.0000   1.0000   1.0000   1.0000
     1.0000   1.0000   1.0000   1.0000   1.0000   1.0000   1.0000   1.0000
     1.0000   1.0000   1.0000   1.0000   1.0000   0.0000   0.0000   0.0000
     0.0000   0.0000   0.0000   0.0000   0.0000   0.0000   0.0000   0.0000
     0.0000   0.0000   0.0000

          k = 0.1250 0.5052 0.0000 ( 11841 PWs)   bands (ev):

   -83.6066 -53.1974 -52.9793 -52.7608 -24.2819 -24.2462 -22.8263 -22.0748
   -16.7278 -16.4401 -13.6155 -13.1087 -12.7150 -12.3305 -12.0356 -10.8021
    -9.9130  -9.2704  -9.0755  -8.5489  -7.2514  -4.1063  -3.4714  -2.0871
    -1.7525  -0.7231  -0.3383   2.7308   3.2511   3.9501   4.3510   5.3755
     6.2338   6.3134   7.0529

     occupation numbers 
     1.0000   1.0000   1.0000   1.0000   1.0000   1.0000   1.0000   1.0000
     1.0000   1.0000   1.0000   1.0000   1.0000   1.0000   1.0000   1.0000
     1.0000   1.0000   1.0000   1.0000   1.0000   0.0000   0.0000   0.0000
     0.0000   0.0000   0.0000   0.0000   0.0000   0.0000   0.0000   0.0000
     0.0000   0.0000   0.0000

          k = 0.2500 0.4330 0.0000 ( 11844 PWs)   bands (ev):

   -83.6140 -53.1798 -53.1207 -52.6591 -24.3245 -24.2813 -22.7975 -22.0299
   -16.1280 -15.7819 -14.0054 -13.7999 -13.2888 -11.9822 -11.8359 -11.1879
   -10.0791  -9.5779  -9.0424  -8.5243  -7.3323  -4.0069  -3.4122  -2.1498
    -1.6659   0.5053   0.7404   2.6205   3.0285   4.4548   4.7121   5.0805
     5.4754   6.1224   6.8621

     occupation numbers 
     1.0000   1.0000   1.0000   1.0000   1.0000   1.0000   1.0000   1.0000
     1.0000   1.0000   1.0000   1.0000   1.0000   1.0000   1.0000   1.0000
     1.0000   1.0000   1.0000   1.0000   1.0000   0.0000   0.0000   0.0000
     0.0000   0.0000   0.0000   0.0000   0.0000   0.0000   0.0000   0.0000
     0.0000   0.0000   0.0000

          k = 0.2500 0.5774 0.0000 ( 11800 PWs)   bands (ev):

   -83.6033 -53.2076 -53.1351 -52.6272 -23.7835 -23.7559 -22.7485 -22.0514
   -16.3800 -16.0483 -14.6479 -14.5199 -12.8142 -12.3614 -12.1086 -10.8398
   -10.5805  -9.9952  -8.9873  -8.3418  -6.9628  -4.4062  -3.2515  -2.0457
    -1.7596   0.2874   0.6863   2.8439   3.2815   4.3314   4.7380   5.2490
     5.8546   6.3478   6.4451

     occupation numbers 
     1.0000   1.0000   1.0000   1.0000   1.0000   1.0000   1.0000   1.0000
     1.0000   1.0000   1.0000   1.0000   1.0000   1.0000   1.0000   1.0000
     1.0000   1.0000   1.0000   1.0000   1.0000   0.0000   0.0000   0.0000
     0.0000   0.0000   0.0000   0.0000   0.0000   0.0000   0.0000   0.0000
     0.0000   0.0000   0.0000

          k =-0.1250 0.0722 0.0000 ( 11905 PWs)   bands (ev):

   -83.5987 -52.9340 -52.7630 -52.7320 -26.7833 -26.6893 -24.0836 -22.6117
   -15.3914 -12.6005 -11.5949 -11.5321 -10.6933 -10.6653 -10.5398 -10.2726
    -9.7551  -8.8985  -8.7577  -8.3032  -6.5865  -2.9429  -2.7406  -2.7147
    -2.3881   0.5043   0.7307   2.4394   2.4917   3.0541   3.2426   3.5281
     4.6775   4.7397   5.1339

     occupation numbers 
     1.0000   1.0000   1.0000   1.0000   1.0000   1.0000   1.0000   1.0000
     1.0000   1.0000   1.0000   1.0000   1.0000   1.0000   1.0000   1.0000
     1.0000   1.0000   1.0000   1.0000   1.0000   0.0000   0.0000   0.0000
     0.0000   0.0000   0.0000   0.0000   0.0000   0.0000   0.0000   0.0000
     0.0000   0.0000   0.0000

          k = 0.1250 0.0722 0.0000 ( 11905 PWs)   bands (ev):

   -83.5987 -52.9340 -52.7630 -52.7320 -26.7833 -26.6893 -24.0836 -22.6117
   -15.3914 -12.6005 -11.5948 -11.5320 -10.6934 -10.6654 -10.5398 -10.2726
    -9.7552  -8.8983  -8.7579  -8.3032  -6.5865  -2.9428  -2.7407  -2.7148
    -2.3879   0.5043   0.7307   2.4394   2.4917   3.0541   3.2426   3.5281
     4.6775   4.7396   5.1339

     occupation numbers 
     1.0000   1.0000   1.0000   1.0000   1.0000   1.0000   1.0000   1.0000
     1.0000   1.0000   1.0000   1.0000   1.0000   1.0000   1.0000   1.0000
     1.0000   1.0000   1.0000   1.0000   1.0000   0.0000   0.0000   0.0000
     0.0000   0.0000   0.0000   0.0000   0.0000   0.0000   0.0000   0.0000
     0.0000   0.0000   0.0000

          k =-0.2500 0.1443 0.0000 ( 11885 PWs)   bands (ev):

   -83.6094 -53.1955 -52.8330 -52.6324 -25.9782 -25.8985 -23.5235 -22.3319
   -15.0329 -13.8368 -13.4730 -12.2914 -11.5642 -11.2206 -11.2110  -9.9331
    -9.6383  -9.3533  -9.2550  -8.4991  -6.9046  -3.5588  -3.2467  -2.4601
    -1.8626   0.1116   0.3010   2.4285   2.5718   3.4915   3.9964   5.0900
     5.9021   6.1092   6.2879

     occupation numbers 
     1.0000   1.0000   1.0000   1.0000   1.0000   1.0000   1.0000   1.0000
     1.0000   1.0000   1.0000   1.0000   1.0000   1.0000   1.0000   1.0000
     1.0000   1.0000   1.0000   1.0000   1.0000   0.0000   0.0000   0.0000
     0.0000   0.0000   0.0000   0.0000   0.0000   0.0000   0.0000   0.0000
     0.0000   0.0000   0.0000

          k = 0.2500 0.1443 0.0000 ( 11885 PWs)   bands (ev):

   -83.6094 -53.1955 -52.8330 -52.6324 -25.9782 -25.8985 -23.5235 -22.3319
   -15.0329 -13.8368 -13.4730 -12.2914 -11.5642 -11.2207 -11.2110  -9.9331
    -9.6383  -9.3534  -9.2551  -8.4991  -6.9045  -3.5588  -3.2467  -2.4601
    -1.8626   0.1117   0.3010   2.4285   2.5718   3.4915   3.9964   5.0900
     5.9021   6.1092   6.2879

     occupation numbers 
     1.0000   1.0000   1.0000   1.0000   1.0000   1.0000   1.0000   1.0000
     1.0000   1.0000   1.0000   1.0000   1.0000   1.0000   1.0000   1.0000
     1.0000   1.0000   1.0000   1.0000   1.0000   0.0000   0.0000   0.0000
     0.0000   0.0000   0.0000   0.0000   0.0000   0.0000   0.0000   0.0000
     0.0000   0.0000   0.0000

          k =-0.3750 0.2165 0.0000 ( 11860 PWs)   bands (ev):

   -83.6040 -53.2496 -52.8431 -52.7455 -24.9041 -24.8504 -22.9909 -22.1111
   -16.2450 -15.9316 -13.8302 -12.6004 -12.0658 -11.7472 -11.7152 -10.4096
    -9.8224  -9.4658  -8.6995  -8.6887  -7.1307  -4.0127  -3.6260  -2.2421
    -1.4764  -1.2819  -0.7758   2.4296   2.9895   4.0198   4.2989   5.7888
     6.4122   6.6150   7.1622

     occupation numbers 
     1.0000   1.0000   1.0000   1.0000   1.0000   1.0000   1.0000   1.0000
     1.0000   1.0000   1.0000   1.0000   1.0000   1.0000   1.0000   1.0000
     1.0000   1.0000   1.0000   1.0000   1.0000   0.0000   0.0000   0.0000
     0.0000   0.0000   0.0000   0.0000   0.0000   0.0000   0.0000   0.0000
     0.0000   0.0000   0.0000

          k = 0.3750 0.2165 0.0000 ( 11860 PWs)   bands (ev):

   -83.6040 -53.2496 -52.8431 -52.7455 -24.9041 -24.8504 -22.9909 -22.1111
   -16.2450 -15.9316 -13.8302 -12.6004 -12.0658 -11.7473 -11.7153 -10.4096
    -9.8225  -9.4659  -8.6996  -8.6886  -7.1306  -4.0127  -3.6260  -2.2421
    -1.4763  -1.2819  -0.7758   2.4296   2.9895   4.0198   4.2989   5.7887
     6.4123   6.6150   7.1622

     occupation numbers 
     1.0000   1.0000   1.0000   1.0000   1.0000   1.0000   1.0000   1.0000
     1.0000   1.0000   1.0000   1.0000   1.0000   1.0000   1.0000   1.0000
     1.0000   1.0000   1.0000   1.0000   1.0000   0.0000   0.0000   0.0000
     0.0000   0.0000   0.0000   0.0000   0.0000   0.0000   0.0000   0.0000
     0.0000   0.0000   0.0000

          k = 0.5000-0.2887 0.0000 ( 11846 PWs)   bands (ev):

   -83.6000 -53.1998 -52.8628 -52.8555 -24.2398 -24.2131 -22.8612 -22.1257
   -17.1597 -16.8848 -13.5592 -13.0601 -12.1763 -11.9707 -11.9321 -10.6058
   -10.0236  -9.2228  -8.7542  -8.4432  -7.3113  -4.0109  -3.6811  -2.3877
    -1.8990  -1.3446  -1.0609   2.1456   2.7600   4.4231   5.1187   5.8258
     6.1778   6.5203   7.2569

     occupation numbers 
     1.0000   1.0000   1.0000   1.0000   1.0000   1.0000   1.0000   1.0000
     1.0000   1.0000   1.0000   1.0000   1.0000   1.0000   1.0000   1.0000
     1.0000   1.0000   1.0000   1.0000   1.0000   0.0000   0.0000   0.0000
     0.0000   0.0000   0.0000   0.0000   0.0000   0.0000   0.0000   0.0000
     0.0000   0.0000   0.0000

          k =-0.5000-0.2887 0.0000 ( 11846 PWs)   bands (ev):

   -83.6000 -53.1998 -52.8628 -52.8555 -24.2398 -24.2131 -22.8612 -22.1257
   -17.1597 -16.8848 -13.5592 -13.0601 -12.1763 -11.9708 -11.9322 -10.6058
   -10.0237  -9.2228  -8.7542  -8.4433  -7.3113  -4.0108  -3.6811  -2.3878
    -1.8990  -1.3446  -1.0609   2.1456   2.7600   4.4231   5.1187   5.8258
     6.1779   6.5203   7.2569

     occupation numbers 
     1.0000   1.0000   1.0000   1.0000   1.0000   1.0000   1.0000   1.0000
     1.0000   1.0000   1.0000   1.0000   1.0000   1.0000   1.0000   1.0000
     1.0000   1.0000   1.0000   1.0000   1.0000   0.0000   0.0000   0.0000
     0.0000   0.0000   0.0000   0.0000   0.0000   0.0000   0.0000   0.0000
     0.0000   0.0000   0.0000

          k =-0.1250 0.2165 0.0000 ( 11867 PWs)   bands (ev):

   -83.6002 -53.1244 -52.8489 -52.5889 -26.2304 -26.1449 -23.6926 -22.4181
   -15.0458 -13.0819 -12.8533 -12.2957 -11.6089 -11.3087 -10.9262  -9.9738
    -9.6595  -9.5526  -9.0097  -8.3569  -6.7807  -3.3962  -3.0854  -2.7039
    -1.9049   1.0474   1.2331   2.0133   2.0273   3.4885   3.6387   4.0485
     5.0945   5.7027   6.4690

     occupation numbers 
     1.0000   1.0000   1.0000   1.0000   1.0000   1.0000   1.0000   1.0000
     1.0000   1.0000   1.0000   1.0000   1.0000   1.0000   1.0000   1.0000
     1.0000   1.0000   1.0000   1.0000   1.0000   0.0000   0.0000   0.0000
     0.0000   0.0000   0.0000   0.0000   0.0000   0.0000   0.0000   0.0000
     0.0000   0.0000   0.0000

          k = 0.2500-0.0000 0.0000 ( 11867 PWs)   bands (ev):

   -83.6002 -53.1244 -52.8489 -52.5889 -26.2304 -26.1449 -23.6926 -22.4181
   -15.0458 -13.0818 -12.8533 -12.2956 -11.6089 -11.3087 -10.9262  -9.9738
    -9.6595  -9.5526  -9.0097  -8.3569  -6.7807  -3.3962  -3.0854  -2.7039
    -1.9048   1.0475   1.2331   2.0133   2.0273   3.4885   3.6387   4.0485
     5.0945   5.7027   6.4691

     occupation numbers 
     1.0000   1.0000   1.0000   1.0000   1.0000   1.0000   1.0000   1.0000
     1.0000   1.0000   1.0000   1.0000   1.0000   1.0000   1.0000   1.0000
     1.0000   1.0000   1.0000   1.0000   1.0000   0.0000   0.0000   0.0000
     0.0000   0.0000   0.0000   0.0000   0.0000   0.0000   0.0000   0.0000
     0.0000   0.0000   0.0000

          k =-0.1250 0.3608 0.0000 ( 11871 PWs)   bands (ev):

   -83.6028 -53.2159 -52.9542 -52.6009 -25.2710 -25.2050 -23.1384 -22.1574
   -15.4510 -14.9648 -13.7879 -12.5718 -12.2951 -11.9825 -11.6111 -10.5851
    -9.6709  -9.3286  -9.0845  -8.6311  -7.1488  -3.7614  -3.4936  -2.3502
    -1.5962   0.1374   0.3700   2.6670   2.7394   3.7949   4.1853   5.1196
     5.7511   6.1935   6.6254

     occupation numbers 
     1.0000   1.0000   1.0000   1.0000   1.0000   1.0000   1.0000   1.0000
     1.0000   1.0000   1.0000   1.0000   1.0000   1.0000   1.0000   1.0000
     1.0000   1.0000   1.0000   1.0000   1.0000   0.0000   0.0000   0.0000
     0.0000   0.0000   0.0000   0.0000   0.0000   0.0000   0.0000   0.0000
     0.0000   0.0000   0.0000

          k =-0.2500 0.2887 0.0000 ( 11871 PWs)   bands (ev):

   -83.6028 -53.2159 -52.9542 -52.6008 -25.2710 -25.2050 -23.1383 -22.1574
   -15.4510 -14.9649 -13.7879 -12.5718 -12.2950 -11.9825 -11.6111 -10.5851
    -9.6709  -9.3286  -9.0844  -8.6312  -7.1488  -3.7614  -3.4936  -2.3501
    -1.5962   0.1374   0.3700   2.6670   2.7394   3.7948   4.1852   5.1196
     5.7511   6.1935   6.6253

     occupation numbers 
     1.0000   1.0000   1.0000   1.0000   1.0000   1.0000   1.0000   1.0000
     1.0000   1.0000   1.0000   1.0000   1.0000   1.0000   1.0000   1.0000
     1.0000   1.0000   1.0000   1.0000   1.0000   0.0000   0.0000   0.0000
     0.0000   0.0000   0.0000   0.0000   0.0000   0.0000   0.0000   0.0000
     0.0000   0.0000   0.0000

          k = 0.3750 0.0722 0.0000 ( 11871 PWs)   bands (ev):

   -83.6028 -53.2159 -52.9542 -52.6009 -25.2710 -25.2050 -23.1383 -22.1574
   -15.4510 -14.9648 -13.7879 -12.5718 -12.2951 -11.9825 -11.6111 -10.5851
    -9.6709  -9.3286  -9.0845  -8.6311  -7.1488  -3.7614  -3.4937  -2.3502
    -1.5961   0.1374   0.3700   2.6670   2.7394   3.7949   4.1852   5.1196
     5.7511   6.1935   6.6254

     occupation numbers 
     1.0000   1.0000   1.0000   1.0000   1.0000   1.0000   1.0000   1.0000
     1.0000   1.0000   1.0000   1.0000   1.0000   1.0000   1.0000   1.0000
     1.0000   1.0000   1.0000   1.0000   1.0000   0.0000   0.0000   0.0000
     0.0000   0.0000   0.0000   0.0000   0.0000   0.0000   0.0000   0.0000
     0.0000   0.0000   0.0000

          k =-0.2500-0.2887 0.0000 ( 11871 PWs)   bands (ev):

   -83.6028 -53.2159 -52.9542 -52.6008 -25.2710 -25.2050 -23.1384 -22.1574
   -15.4510 -14.9648 -13.7879 -12.5718 -12.2951 -11.9825 -11.6111 -10.5852
    -9.6709  -9.3286  -9.0845  -8.6311  -7.1487  -3.7614  -3.4936  -2.3502
    -1.5962   0.1374   0.3700   2.6670   2.7394   3.7948   4.1852   5.1196
     5.7511   6.1935   6.6254

     occupation numbers 
     1.0000   1.0000   1.0000   1.0000   1.0000   1.0000   1.0000   1.0000
     1.0000   1.0000   1.0000   1.0000   1.0000   1.0000   1.0000   1.0000
     1.0000   1.0000   1.0000   1.0000   1.0000   0.0000   0.0000   0.0000
     0.0000   0.0000   0.0000   0.0000   0.0000   0.0000   0.0000   0.0000
     0.0000   0.0000   0.0000

          k = 0.3750-0.0722 0.0000 ( 11871 PWs)   bands (ev):

   -83.6028 -53.2159 -52.9542 -52.6008 -25.2710 -25.2050 -23.1383 -22.1574
   -15.4510 -14.9649 -13.7879 -12.5718 -12.2950 -11.9826 -11.6111 -10.5851
    -9.6709  -9.3286  -9.0844  -8.6312  -7.1488  -3.7614  -3.4937  -2.3502
    -1.5962   0.1374   0.3700   2.6670   2.7394   3.7948   4.1852   5.1196
     5.7511   6.1935   6.6254

     occupation numbers 
     1.0000   1.0000   1.0000   1.0000   1.0000   1.0000   1.0000   1.0000
     1.0000   1.0000   1.0000   1.0000   1.0000   1.0000   1.0000   1.0000
     1.0000   1.0000   1.0000   1.0000   1.0000   0.0000   0.0000   0.0000
     0.0000   0.0000   0.0000   0.0000   0.0000   0.0000   0.0000   0.0000
     0.0000   0.0000   0.0000

          k =-0.1250 0.5052 0.0000 ( 11841 PWs)   bands (ev):

   -83.6066 -53.1974 -52.9793 -52.7608 -24.2819 -24.2462 -22.8263 -22.0748
   -16.7278 -16.4401 -13.6155 -13.1087 -12.7150 -12.3305 -12.0356 -10.8021
    -9.9129  -9.2704  -9.0755  -8.5489  -7.2514  -4.1063  -3.4713  -2.0872
    -1.7524  -0.7231  -0.3383   2.7308   3.2511   3.9501   4.3510   5.3755
     6.2338   6.3133   7.0529

     occupation numbers 
     1.0000   1.0000   1.0000   1.0000   1.0000   1.0000   1.0000   1.0000
     1.0000   1.0000   1.0000   1.0000   1.0000   1.0000   1.0000   1.0000
     1.0000   1.0000   1.0000   1.0000   1.0000   0.0000   0.0000   0.0000
     0.0000   0.0000   0.0000   0.0000   0.0000   0.0000   0.0000   0.0000
     0.0000   0.0000   0.0000

          k =-0.3750 0.3608 0.0000 ( 11841 PWs)   bands (ev):

   -83.6066 -53.1974 -52.9793 -52.7608 -24.2819 -24.2462 -22.8263 -22.0749
   -16.7279 -16.4401 -13.6155 -13.1087 -12.7150 -12.3304 -12.0356 -10.8021
    -9.9129  -9.2704  -9.0755  -8.5489  -7.2515  -4.1063  -3.4714  -2.0871
    -1.7524  -0.7231  -0.3383   2.7308   3.2511   3.9501   4.3510   5.3755
     6.2338   6.3133   7.0530

     occupation numbers 
     1.0000   1.0000   1.0000   1.0000   1.0000   1.0000   1.0000   1.0000
     1.0000   1.0000   1.0000   1.0000   1.0000   1.0000   1.0000   1.0000
     1.0000   1.0000   1.0000   1.0000   1.0000   0.0000   0.0000   0.0000
     0.0000   0.0000   0.0000   0.0000   0.0000   0.0000   0.0000   0.0000
     0.0000   0.0000   0.0000

          k = 0.5000 0.1443 0.0000 ( 11841 PWs)   bands (ev):

   -83.6066 -53.1974 -52.9793 -52.7608 -24.2819 -24.2462 -22.8263 -22.0748
   -16.7278 -16.4401 -13.6155 -13.1087 -12.7150 -12.3305 -12.0356 -10.8022
    -9.9129  -9.2704  -9.0755  -8.5489  -7.2514  -4.1063  -3.4714  -2.0872
    -1.7524  -0.7231  -0.3383   2.7308   3.2510   3.9501   4.3510   5.3755
     6.2338   6.3134   7.0528

     occupation numbers 
     1.0000   1.0000   1.0000   1.0000   1.0000   1.0000   1.0000   1.0000
     1.0000   1.0000   1.0000   1.0000   1.0000   1.0000   1.0000   1.0000
     1.0000   1.0000   1.0000   1.0000   1.0000   0.0000   0.0000   0.0000
     0.0000   0.0000   0.0000   0.0000   0.0000   0.0000   0.0000   0.0000
     0.0000   0.0000   0.0000

          k =-0.3750-0.3608 0.0000 ( 11841 PWs)   bands (ev):

   -83.6066 -53.1974 -52.9793 -52.7608 -24.2819 -24.2462 -22.8263 -22.0748
   -16.7278 -16.4401 -13.6156 -13.1087 -12.7150 -12.3305 -12.0356 -10.8021
    -9.9130  -9.2704  -9.0755  -8.5489  -7.2514  -4.1063  -3.4714  -2.0871
    -1.7525  -0.7231  -0.3383   2.7308   3.2511   3.9501   4.3510   5.3754
     6.2338   6.3134   7.0530

     occupation numbers 
     1.0000   1.0000   1.0000   1.0000   1.0000   1.0000   1.0000   1.0000
     1.0000   1.0000   1.0000   1.0000   1.0000   1.0000   1.0000   1.0000
     1.0000   1.0000   1.0000   1.0000   1.0000   0.0000   0.0000   0.0000
     0.0000   0.0000   0.0000   0.0000   0.0000   0.0000   0.0000   0.0000
     0.0000   0.0000   0.0000

          k = 0.5000-0.1443 0.0000 ( 11841 PWs)   bands (ev):

   -83.6066 -53.1974 -52.9793 -52.7608 -24.2819 -24.2462 -22.8263 -22.0748
   -16.7279 -16.4401 -13.6155 -13.1087 -12.7150 -12.3304 -12.0356 -10.8021
    -9.9129  -9.2704  -9.0755  -8.5489  -7.2515  -4.1063  -3.4714  -2.0871
    -1.7524  -0.7231  -0.3383   2.7308   3.2510   3.9501   4.3510   5.3755
     6.2338   6.3133   7.0528

     occupation numbers 
     1.0000   1.0000   1.0000   1.0000   1.0000   1.0000   1.0000   1.0000
     1.0000   1.0000   1.0000   1.0000   1.0000   1.0000   1.0000   1.0000
     1.0000   1.0000   1.0000   1.0000   1.0000   0.0000   0.0000   0.0000
     0.0000   0.0000   0.0000   0.0000   0.0000   0.0000   0.0000   0.0000
     0.0000   0.0000   0.0000

          k =-0.2500 0.4330 0.0000 ( 11844 PWs)   bands (ev):

   -83.6140 -53.1798 -53.1207 -52.6591 -24.3245 -24.2813 -22.7975 -22.0299
   -16.1280 -15.7820 -14.0053 -13.7998 -13.2888 -11.9822 -11.8359 -11.1879
   -10.0791  -9.5778  -9.0425  -8.5243  -7.3323  -4.0069  -3.4122  -2.1498
    -1.6658   0.5054   0.7403   2.6205   3.0285   4.4548   4.7121   5.0806
     5.4753   6.1225   6.8621

     occupation numbers 
     1.0000   1.0000   1.0000   1.0000   1.0000   1.0000   1.0000   1.0000
     1.0000   1.0000   1.0000   1.0000   1.0000   1.0000   1.0000   1.0000
     1.0000   1.0000   1.0000   1.0000   1.0000   0.0000   0.0000   0.0000
     0.0000   0.0000   0.0000   0.0000   0.0000   0.0000   0.0000   0.0000
     0.0000   0.0000   0.0000

          k = 0.5000-0.0000 0.0000 ( 11844 PWs)   bands (ev):

   -83.6140 -53.1798 -53.1207 -52.6591 -24.3245 -24.2813 -22.7975 -22.0299
   -16.1280 -15.7820 -14.0054 -13.7998 -13.2888 -11.9822 -11.8359 -11.1879
   -10.0791  -9.5778  -9.0424  -8.5243  -7.3323  -4.0069  -3.4122  -2.1498
    -1.6658   0.5054   0.7403   2.6205   3.0285   4.4548   4.7120   5.0806
     5.4753   6.1225   6.8620

     occupation numbers 
     1.0000   1.0000   1.0000   1.0000   1.0000   1.0000   1.0000   1.0000
     1.0000   1.0000   1.0000   1.0000   1.0000   1.0000   1.0000   1.0000
     1.0000   1.0000   1.0000   1.0000   1.0000   0.0000   0.0000   0.0000
     0.0000   0.0000   0.0000   0.0000   0.0000   0.0000   0.0000   0.0000
     0.0000   0.0000   0.0000

          k =-0.3750 0.5052 0.0000 ( 11800 PWs)   bands (ev):

   -83.6033 -53.2076 -53.1351 -52.6272 -23.7835 -23.7559 -22.7484 -22.0514
   -16.3800 -16.0483 -14.6478 -14.5199 -12.8142 -12.3614 -12.1086 -10.8398
   -10.5805  -9.9952  -8.9873  -8.3418  -6.9628  -4.4063  -3.2516  -2.0458
    -1.7595   0.2874   0.6863   2.8439   3.2815   4.3314   4.7380   5.2490
     5.8545   6.3478   6.4452

     occupation numbers 
     1.0000   1.0000   1.0000   1.0000   1.0000   1.0000   1.0000   1.0000
     1.0000   1.0000   1.0000   1.0000   1.0000   1.0000   1.0000   1.0000
     1.0000   1.0000   1.0000   1.0000   1.0000   0.0000   0.0000   0.0000
     0.0000   0.0000   0.0000   0.0000   0.0000   0.0000   0.0000   0.0000
     0.0000   0.0000   0.0000

          k = 0.6250 0.0722 0.0000 ( 11800 PWs)   bands (ev):

   -83.6033 -53.2076 -53.1351 -52.6272 -23.7835 -23.7559 -22.7484 -22.0513
   -16.3800 -16.0483 -14.6479 -14.5199 -12.8142 -12.3614 -12.1086 -10.8398
   -10.5805  -9.9952  -8.9873  -8.3418  -6.9628  -4.4062  -3.2515  -2.0457
    -1.7596   0.2874   0.6863   2.8439   3.2815   4.3314   4.7380   5.2490
     5.8546   6.3479   6.4452

     occupation numbers 
     1.0000   1.0000   1.0000   1.0000   1.0000   1.0000   1.0000   1.0000
     1.0000   1.0000   1.0000   1.0000   1.0000   1.0000   1.0000   1.0000
     1.0000   1.0000   1.0000   1.0000   1.0000   0.0000   0.0000   0.0000
     0.0000   0.0000   0.0000   0.0000   0.0000   0.0000   0.0000   0.0000
     0.0000   0.0000   0.0000

     highest occupied, lowest unoccupied level (ev):    -6.5712   -4.4063

!    total energy              =    -263.21054257 Ry
     estimated scf accuracy    <          1.4E-11 Ry

     convergence has been achieved in   5 iterations

     Using ACE for calculation of exact exchange
     ACE projected onto    35 (nbndproj) and applied to    35 (nbnd) bands

     total energy              =    -263.21054263 Ry
     Harris-Foulkes estimate   =    -263.21054263 Ry
     est. exchange err (dexx)  =       0.00000006 Ry
     - averaged Fock potential =      17.84073565 Ry
     + Fock energy (ACE)       =      -8.92038248 Ry

     EXX: now go back to refine exchange calculation

     total cpu time spent up to now is     5310.0 secs

     Self-consistent Calculation

     iteration #  1     ecut=    80.00 Ry     beta= 0.50
     Davidson diagonalization with overlap

---- Real-time Memory Report at c_bands before calling an iterative solver
          2135 MiB given to the printing process from OS
             0 MiB allocation reported by mallinfo(arena+hblkhd)
         12935 MiB available memory on the node where the printing process lives
------------------
     ethr =  1.66E-12,  avg # of iterations =  4.1

     total cpu time spent up to now is     5319.4 secs

     total energy              =    -263.21054267 Ry
     estimated scf accuracy    <          1.8E-09 Ry

     iteration #  2     ecut=    80.00 Ry     beta= 0.50
     Davidson diagonalization with overlap

---- Real-time Memory Report at c_bands before calling an iterative solver
          2135 MiB given to the printing process from OS
             0 MiB allocation reported by mallinfo(arena+hblkhd)
         12925 MiB available memory on the node where the printing process lives
------------------
     ethr =  4.24E-12,  avg # of iterations =  2.0

     total cpu time spent up to now is     5326.6 secs

     total energy              =    -263.21054267 Ry
     estimated scf accuracy    <          3.9E-09 Ry

     iteration #  3     ecut=    80.00 Ry     beta= 0.50
     Davidson diagonalization with overlap

---- Real-time Memory Report at c_bands before calling an iterative solver
          2135 MiB given to the printing process from OS
             0 MiB allocation reported by mallinfo(arena+hblkhd)
         12924 MiB available memory on the node where the printing process lives
------------------
     ethr =  4.24E-12,  avg # of iterations =  2.0

     total cpu time spent up to now is     5333.8 secs

     total energy              =    -263.21054267 Ry
     estimated scf accuracy    <          8.5E-10 Ry

     iteration #  4     ecut=    80.00 Ry     beta= 0.50
     Davidson diagonalization with overlap

---- Real-time Memory Report at c_bands before calling an iterative solver
          2135 MiB given to the printing process from OS
             0 MiB allocation reported by mallinfo(arena+hblkhd)
         12918 MiB available memory on the node where the printing process lives
------------------
     ethr =  2.02E-12,  avg # of iterations =  2.0

     total cpu time spent up to now is     5340.7 secs

     total energy              =    -263.21054267 Ry
     estimated scf accuracy    <          2.4E-10 Ry

     iteration #  5     ecut=    80.00 Ry     beta= 0.50
     Davidson diagonalization with overlap

---- Real-time Memory Report at c_bands before calling an iterative solver
          2135 MiB given to the printing process from OS
             0 MiB allocation reported by mallinfo(arena+hblkhd)
         12910 MiB available memory on the node where the printing process lives
------------------
     ethr =  5.71E-13,  avg # of iterations =  1.3

     total cpu time spent up to now is     5347.1 secs

     End of self-consistent calculation

          k = 0.0000 0.0000 0.0000 ( 11937 PWs)   bands (ev):

   -83.5880 -52.8396 -52.7332 -52.7332 -27.0867 -26.9889 -24.3179 -22.7306
   -15.6434 -12.7266 -10.6451 -10.4743 -10.4743 -10.4277 -10.4276  -9.9056
    -9.9056  -8.4931  -8.4928  -8.4910  -6.5713  -2.6780  -2.6778  -2.4420
    -2.4418  -0.2224   0.1109   2.3491   2.3826   2.5027   4.0139   4.0139
     4.0684   4.0685   4.2611

     occupation numbers 
     1.0000   1.0000   1.0000   1.0000   1.0000   1.0000   1.0000   1.0000
     1.0000   1.0000   1.0000   1.0000   1.0000   1.0000   1.0000   1.0000
     1.0000   1.0000   1.0000   1.0000   1.0000   0.0000   0.0000   0.0000
     0.0000   0.0000   0.0000   0.0000   0.0000   0.0000   0.0000   0.0000
     0.0000   0.0000   0.0000

          k = 0.0000 0.1443 0.0000 ( 11905 PWs)   bands (ev):

   -83.5987 -52.9341 -52.7627 -52.7321 -26.7833 -26.6893 -24.0835 -22.6117
   -15.3914 -12.6005 -11.5948 -11.5320 -10.6934 -10.6654 -10.5397 -10.2726
    -9.7550  -8.8983  -8.7578  -8.3031  -6.5866  -2.9430  -2.7406  -2.7146
    -2.3879   0.5043   0.7307   2.4394   2.4917   3.0542   3.2426   3.5281
     4.6776   4.7397   5.1339

     occupation numbers 
     1.0000   1.0000   1.0000   1.0000   1.0000   1.0000   1.0000   1.0000
     1.0000   1.0000   1.0000   1.0000   1.0000   1.0000   1.0000   1.0000
     1.0000   1.0000   1.0000   1.0000   1.0000   0.0000   0.0000   0.0000
     0.0000   0.0000   0.0000   0.0000   0.0000   0.0000   0.0000   0.0000
     0.0000   0.0000   0.0000

          k = 0.0000 0.2887 0.0000 ( 11885 PWs)   bands (ev):

   -83.6093 -53.1957 -52.8330 -52.6319 -25.9782 -25.8985 -23.5235 -22.3318
   -15.0328 -13.8368 -13.4730 -12.2913 -11.5644 -11.2207 -11.2110  -9.9331
    -9.6383  -9.3534  -9.2550  -8.4990  -6.9041  -3.5590  -3.2465  -2.4601
    -1.8625   0.1116   0.3010   2.4285   2.5718   3.4916   3.9965   5.0900
     5.9021   6.1092   6.2879

     occupation numbers 
     1.0000   1.0000   1.0000   1.0000   1.0000   1.0000   1.0000   1.0000
     1.0000   1.0000   1.0000   1.0000   1.0000   1.0000   1.0000   1.0000
     1.0000   1.0000   1.0000   1.0000   1.0000   0.0000   0.0000   0.0000
     0.0000   0.0000   0.0000   0.0000   0.0000   0.0000   0.0000   0.0000
     0.0000   0.0000   0.0000

          k = 0.0000 0.4330 0.0000 ( 11860 PWs)   bands (ev):

   -83.6039 -53.2496 -52.8428 -52.7456 -24.9041 -24.8504 -22.9908 -22.1111
   -16.2450 -15.9316 -13.8301 -12.6004 -12.0658 -11.7473 -11.7153 -10.4095
    -9.8224  -9.4658  -8.6995  -8.6885  -7.1310  -4.0128  -3.6257  -2.2420
    -1.4762  -1.2819  -0.7758   2.4297   2.9896   4.0198   4.2989   5.7887
     6.4123   6.6150   7.1622

     occupation numbers 
     1.0000   1.0000   1.0000   1.0000   1.0000   1.0000   1.0000   1.0000
     1.0000   1.0000   1.0000   1.0000   1.0000   1.0000   1.0000   1.0000
     1.0000   1.0000   1.0000   1.0000   1.0000   0.0000   0.0000   0.0000
     0.0000   0.0000   0.0000   0.0000   0.0000   0.0000   0.0000   0.0000
     0.0000   0.0000   0.0000

          k = 0.0000-0.5774 0.0000 ( 11846 PWs)   bands (ev):

   -83.5999 -53.1998 -52.8627 -52.8555 -24.2398 -24.2131 -22.8612 -22.1257
   -17.1597 -16.8848 -13.5592 -13.0601 -12.1763 -11.9708 -11.9322 -10.6057
   -10.0236  -9.2228  -8.7541  -8.4432  -7.3113  -4.0108  -3.6810  -2.3877
    -1.8990  -1.3445  -1.0609   2.1456   2.7601   4.4231   5.1187   5.8258
     6.1779   6.5203   7.2569

     occupation numbers 
     1.0000   1.0000   1.0000   1.0000   1.0000   1.0000   1.0000   1.0000
     1.0000   1.0000   1.0000   1.0000   1.0000   1.0000   1.0000   1.0000
     1.0000   1.0000   1.0000   1.0000   1.0000   0.0000   0.0000   0.0000
     0.0000   0.0000   0.0000   0.0000   0.0000   0.0000   0.0000   0.0000
     0.0000   0.0000   0.0000

          k = 0.1250 0.2165 0.0000 ( 11867 PWs)   bands (ev):

   -83.6001 -53.1245 -52.8487 -52.5888 -26.2304 -26.1449 -23.6926 -22.4180
   -15.0458 -13.0818 -12.8533 -12.2956 -11.6089 -11.3088 -10.9262  -9.9738
    -9.6596  -9.5528  -9.0095  -8.3569  -6.7805  -3.3965  -3.0851  -2.7039
    -1.9047   1.0475   1.2331   2.0133   2.0273   3.4885   3.6387   4.0485
     5.0946   5.7027   6.4690

     occupation numbers 
     1.0000   1.0000   1.0000   1.0000   1.0000   1.0000   1.0000   1.0000
     1.0000   1.0000   1.0000   1.0000   1.0000   1.0000   1.0000   1.0000
     1.0000   1.0000   1.0000   1.0000   1.0000   0.0000   0.0000   0.0000
     0.0000   0.0000   0.0000   0.0000   0.0000   0.0000   0.0000   0.0000
     0.0000   0.0000   0.0000

          k = 0.1250 0.3608 0.0000 ( 11871 PWs)   bands (ev):

   -83.6028 -53.2159 -52.9541 -52.6007 -25.2710 -25.2050 -23.1383 -22.1573
   -15.4510 -14.9648 -13.7879 -12.5718 -12.2951 -11.9825 -11.6111 -10.5851
    -9.6709  -9.3286  -9.0845  -8.6311  -7.1488  -3.7613  -3.4936  -2.3501
    -1.5961   0.1374   0.3700   2.6670   2.7394   3.7949   4.1853   5.1195
     5.7511   6.1935   6.6254

     occupation numbers 
     1.0000   1.0000   1.0000   1.0000   1.0000   1.0000   1.0000   1.0000
     1.0000   1.0000   1.0000   1.0000   1.0000   1.0000   1.0000   1.0000
     1.0000   1.0000   1.0000   1.0000   1.0000   0.0000   0.0000   0.0000
     0.0000   0.0000   0.0000   0.0000   0.0000   0.0000   0.0000   0.0000
     0.0000   0.0000   0.0000

          k = 0.1250 0.5052 0.0000 ( 11841 PWs)   bands (ev):

   -83.6065 -53.1972 -52.9793 -52.7608 -24.2819 -24.2462 -22.8263 -22.0748
   -16.7278 -16.4400 -13.6155 -13.1087 -12.7150 -12.3305 -12.0356 -10.8020
    -9.9129  -9.2704  -9.0755  -8.5489  -7.2518  -4.1063  -3.4709  -2.0870
    -1.7524  -0.7231  -0.3383   2.7308   3.2511   3.9501   4.3510   5.3755
     6.2338   6.3134   7.0529

     occupation numbers 
     1.0000   1.0000   1.0000   1.0000   1.0000   1.0000   1.0000   1.0000
     1.0000   1.0000   1.0000   1.0000   1.0000   1.0000   1.0000   1.0000
     1.0000   1.0000   1.0000   1.0000   1.0000   0.0000   0.0000   0.0000
     0.0000   0.0000   0.0000   0.0000   0.0000   0.0000   0.0000   0.0000
     0.0000   0.0000   0.0000

          k = 0.2500 0.4330 0.0000 ( 11844 PWs)   bands (ev):

   -83.6139 -53.1799 -53.1207 -52.6586 -24.3245 -24.2813 -22.7975 -22.0299
   -16.1279 -15.7819 -14.0054 -13.7998 -13.2887 -11.9822 -11.8359 -11.1878
   -10.0791  -9.5779  -9.0424  -8.5243  -7.3325  -4.0061  -3.4125  -2.1497
    -1.6658   0.5053   0.7404   2.6205   3.0285   4.4548   4.7121   5.0805
     5.4754   6.1224   6.8620

     occupation numbers 
     1.0000   1.0000   1.0000   1.0000   1.0000   1.0000   1.0000   1.0000
     1.0000   1.0000   1.0000   1.0000   1.0000   1.0000   1.0000   1.0000
     1.0000   1.0000   1.0000   1.0000   1.0000   0.0000   0.0000   0.0000
     0.0000   0.0000   0.0000   0.0000   0.0000   0.0000   0.0000   0.0000
     0.0000   0.0000   0.0000

          k = 0.2500 0.5774 0.0000 ( 11800 PWs)   bands (ev):

   -83.6032 -53.2076 -53.1350 -52.6271 -23.7835 -23.7559 -22.7484 -22.0513
   -16.3800 -16.0483 -14.6479 -14.5199 -12.8142 -12.3613 -12.1085 -10.8398
   -10.5805  -9.9952  -8.9873  -8.3418  -6.9629  -4.4059  -3.2515  -2.0457
    -1.7595   0.2874   0.6863   2.8439   3.2815   4.3314   4.7380   5.2490
     5.8546   6.3478   6.4451

     occupation numbers 
     1.0000   1.0000   1.0000   1.0000   1.0000   1.0000   1.0000   1.0000
     1.0000   1.0000   1.0000   1.0000   1.0000   1.0000   1.0000   1.0000
     1.0000   1.0000   1.0000   1.0000   1.0000   0.0000   0.0000   0.0000
     0.0000   0.0000   0.0000   0.0000   0.0000   0.0000   0.0000   0.0000
     0.0000   0.0000   0.0000

          k =-0.1250 0.0722 0.0000 ( 11905 PWs)   bands (ev):

   -83.5987 -52.9341 -52.7627 -52.7321 -26.7833 -26.6893 -24.0835 -22.6117
   -15.3914 -12.6005 -11.5949 -11.5321 -10.6933 -10.6653 -10.5397 -10.2727
    -9.7550  -8.8984  -8.7576  -8.3032  -6.5867  -2.9430  -2.7405  -2.7145
    -2.3880   0.5043   0.7307   2.4394   2.4917   3.0542   3.2426   3.5281
     4.6775   4.7397   5.1339

     occupation numbers 
     1.0000   1.0000   1.0000   1.0000   1.0000   1.0000   1.0000   1.0000
     1.0000   1.0000   1.0000   1.0000   1.0000   1.0000   1.0000   1.0000
     1.0000   1.0000   1.0000   1.0000   1.0000   0.0000   0.0000   0.0000
     0.0000   0.0000   0.0000   0.0000   0.0000   0.0000   0.0000   0.0000
     0.0000   0.0000   0.0000

          k = 0.1250 0.0722 0.0000 ( 11905 PWs)   bands (ev):

   -83.5987 -52.9341 -52.7627 -52.7321 -26.7833 -26.6893 -24.0835 -22.6117
   -15.3914 -12.6005 -11.5948 -11.5320 -10.6934 -10.6654 -10.5397 -10.2726
    -9.7550  -8.8983  -8.7578  -8.3031  -6.5866  -2.9430  -2.7406  -2.7146
    -2.3879   0.5043   0.7307   2.4394   2.4917   3.0542   3.2426   3.5281
     4.6775   4.7397   5.1339

     occupation numbers 
     1.0000   1.0000   1.0000   1.0000   1.0000   1.0000   1.0000   1.0000
     1.0000   1.0000   1.0000   1.0000   1.0000   1.0000   1.0000   1.0000
     1.0000   1.0000   1.0000   1.0000   1.0000   0.0000   0.0000   0.0000
     0.0000   0.0000   0.0000   0.0000   0.0000   0.0000   0.0000   0.0000
     0.0000   0.0000   0.0000

          k =-0.2500 0.1443 0.0000 ( 11885 PWs)   bands (ev):

   -83.6093 -53.1957 -52.8330 -52.6319 -25.9782 -25.8985 -23.5235 -22.3319
   -15.0328 -13.8368 -13.4730 -12.2914 -11.5644 -11.2206 -11.2109  -9.9331
    -9.6383  -9.3533  -9.2549  -8.4991  -6.9042  -3.5591  -3.2465  -2.4600
    -1.8626   0.1116   0.3010   2.4285   2.5718   3.4915   3.9964   5.0900
     5.9021   6.1092   6.2879

     occupation numbers 
     1.0000   1.0000   1.0000   1.0000   1.0000   1.0000   1.0000   1.0000
     1.0000   1.0000   1.0000   1.0000   1.0000   1.0000   1.0000   1.0000
     1.0000   1.0000   1.0000   1.0000   1.0000   0.0000   0.0000   0.0000
     0.0000   0.0000   0.0000   0.0000   0.0000   0.0000   0.0000   0.0000
     0.0000   0.0000   0.0000

          k = 0.2500 0.1443 0.0000 ( 11885 PWs)   bands (ev):

   -83.6093 -53.1957 -52.8330 -52.6319 -25.9782 -25.8985 -23.5235 -22.3318
   -15.0328 -13.8368 -13.4730 -12.2913 -11.5644 -11.2207 -11.2110  -9.9331
    -9.6383  -9.3534  -9.2550  -8.4990  -6.9041  -3.5590  -3.2465  -2.4601
    -1.8625   0.1116   0.3010   2.4285   2.5718   3.4915   3.9964   5.0900
     5.9021   6.1092   6.2879

     occupation numbers 
     1.0000   1.0000   1.0000   1.0000   1.0000   1.0000   1.0000   1.0000
     1.0000   1.0000   1.0000   1.0000   1.0000   1.0000   1.0000   1.0000
     1.0000   1.0000   1.0000   1.0000   1.0000   0.0000   0.0000   0.0000
     0.0000   0.0000   0.0000   0.0000   0.0000   0.0000   0.0000   0.0000
     0.0000   0.0000   0.0000

          k =-0.3750 0.2165 0.0000 ( 11860 PWs)   bands (ev):

   -83.6039 -53.2496 -52.8428 -52.7456 -24.9041 -24.8504 -22.9908 -22.1111
   -16.2450 -15.9316 -13.8301 -12.6004 -12.0658 -11.7472 -11.7152 -10.4095
    -9.8223  -9.4658  -8.6994  -8.6886  -7.1311  -4.0129  -3.6258  -2.2420
    -1.4763  -1.2819  -0.7758   2.4297   2.9895   4.0198   4.2989   5.7888
     6.4122   6.6150   7.1622

     occupation numbers 
     1.0000   1.0000   1.0000   1.0000   1.0000   1.0000   1.0000   1.0000
     1.0000   1.0000   1.0000   1.0000   1.0000   1.0000   1.0000   1.0000
     1.0000   1.0000   1.0000   1.0000   1.0000   0.0000   0.0000   0.0000
     0.0000   0.0000   0.0000   0.0000   0.0000   0.0000   0.0000   0.0000
     0.0000   0.0000   0.0000

          k = 0.3750 0.2165 0.0000 ( 11860 PWs)   bands (ev):

   -83.6039 -53.2496 -52.8428 -52.7456 -24.9041 -24.8504 -22.9908 -22.1111
   -16.2450 -15.9316 -13.8301 -12.6004 -12.0658 -11.7473 -11.7153 -10.4095
    -9.8224  -9.4658  -8.6995  -8.6885  -7.1310  -4.0128  -3.6257  -2.2420
    -1.4762  -1.2819  -0.7758   2.4296   2.9895   4.0198   4.2989   5.7887
     6.4123   6.6150   7.1622

     occupation numbers 
     1.0000   1.0000   1.0000   1.0000   1.0000   1.0000   1.0000   1.0000
     1.0000   1.0000   1.0000   1.0000   1.0000   1.0000   1.0000   1.0000
     1.0000   1.0000   1.0000   1.0000   1.0000   0.0000   0.0000   0.0000
     0.0000   0.0000   0.0000   0.0000   0.0000   0.0000   0.0000   0.0000
     0.0000   0.0000   0.0000

          k = 0.5000-0.2887 0.0000 ( 11846 PWs)   bands (ev):

   -83.5999 -53.1998 -52.8627 -52.8555 -24.2398 -24.2131 -22.8611 -22.1257
   -17.1597 -16.8848 -13.5592 -13.0601 -12.1763 -11.9707 -11.9321 -10.6058
   -10.0235  -9.2228  -8.7542  -8.4431  -7.3114  -4.0108  -3.6810  -2.3877
    -1.8990  -1.3445  -1.0608   2.1456   2.7600   4.4231   5.1187   5.8258
     6.1779   6.5203   7.2570

     occupation numbers 
     1.0000   1.0000   1.0000   1.0000   1.0000   1.0000   1.0000   1.0000
     1.0000   1.0000   1.0000   1.0000   1.0000   1.0000   1.0000   1.0000
     1.0000   1.0000   1.0000   1.0000   1.0000   0.0000   0.0000   0.0000
     0.0000   0.0000   0.0000   0.0000   0.0000   0.0000   0.0000   0.0000
     0.0000   0.0000   0.0000

          k =-0.5000-0.2887 0.0000 ( 11846 PWs)   bands (ev):

   -83.5999 -53.1998 -52.8627 -52.8555 -24.2398 -24.2131 -22.8612 -22.1257
   -17.1597 -16.8848 -13.5592 -13.0601 -12.1763 -11.9708 -11.9322 -10.6057
   -10.0236  -9.2228  -8.7542  -8.4432  -7.3113  -4.0108  -3.6810  -2.3877
    -1.8990  -1.3445  -1.0608   2.1456   2.7600   4.4231   5.1187   5.8258
     6.1779   6.5203   7.2569

     occupation numbers 
     1.0000   1.0000   1.0000   1.0000   1.0000   1.0000   1.0000   1.0000
     1.0000   1.0000   1.0000   1.0000   1.0000   1.0000   1.0000   1.0000
     1.0000   1.0000   1.0000   1.0000   1.0000   0.0000   0.0000   0.0000
     0.0000   0.0000   0.0000   0.0000   0.0000   0.0000   0.0000   0.0000
     0.0000   0.0000   0.0000

          k =-0.1250 0.2165 0.0000 ( 11867 PWs)   bands (ev):

   -83.6001 -53.1245 -52.8487 -52.5888 -26.2304 -26.1449 -23.6926 -22.4180
   -15.0458 -13.0818 -12.8533 -12.2956 -11.6088 -11.3087 -10.9262  -9.9738
    -9.6595  -9.5527  -9.0096  -8.3569  -6.7806  -3.3965  -3.0851  -2.7039
    -1.9048   1.0475   1.2331   2.0133   2.0273   3.4885   3.6387   4.0485
     5.0946   5.7027   6.4690

     occupation numbers 
     1.0000   1.0000   1.0000   1.0000   1.0000   1.0000   1.0000   1.0000
     1.0000   1.0000   1.0000   1.0000   1.0000   1.0000   1.0000   1.0000
     1.0000   1.0000   1.0000   1.0000   1.0000   0.0000   0.0000   0.0000
     0.0000   0.0000   0.0000   0.0000   0.0000   0.0000   0.0000   0.0000
     0.0000   0.0000   0.0000

          k = 0.2500-0.0000 0.0000 ( 11867 PWs)   bands (ev):

   -83.6001 -53.1245 -52.8487 -52.5888 -26.2304 -26.1449 -23.6925 -22.4180
   -15.0458 -13.0818 -12.8533 -12.2956 -11.6089 -11.3087 -10.9262  -9.9738
    -9.6595  -9.5527  -9.0096  -8.3569  -6.7806  -3.3965  -3.0851  -2.7039
    -1.9048   1.0475   1.2331   2.0133   2.0273   3.4885   3.6387   4.0485
     5.0945   5.7027   6.4691

     occupation numbers 
     1.0000   1.0000   1.0000   1.0000   1.0000   1.0000   1.0000   1.0000
     1.0000   1.0000   1.0000   1.0000   1.0000   1.0000   1.0000   1.0000
     1.0000   1.0000   1.0000   1.0000   1.0000   0.0000   0.0000   0.0000
     0.0000   0.0000   0.0000   0.0000   0.0000   0.0000   0.0000   0.0000
     0.0000   0.0000   0.0000

          k =-0.1250 0.3608 0.0000 ( 11871 PWs)   bands (ev):

   -83.6028 -53.2159 -52.9541 -52.6007 -25.2710 -25.2050 -23.1383 -22.1574
   -15.4510 -14.9648 -13.7879 -12.5718 -12.2951 -11.9825 -11.6111 -10.5851
    -9.6709  -9.3286  -9.0845  -8.6311  -7.1488  -3.7613  -3.4936  -2.3501
    -1.5961   0.1374   0.3700   2.6670   2.7394   3.7949   4.1853   5.1196
     5.7511   6.1935   6.6254

     occupation numbers 
     1.0000   1.0000   1.0000   1.0000   1.0000   1.0000   1.0000   1.0000
     1.0000   1.0000   1.0000   1.0000   1.0000   1.0000   1.0000   1.0000
     1.0000   1.0000   1.0000   1.0000   1.0000   0.0000   0.0000   0.0000
     0.0000   0.0000   0.0000   0.0000   0.0000   0.0000   0.0000   0.0000
     0.0000   0.0000   0.0000

          k =-0.2500 0.2887 0.0000 ( 11871 PWs)   bands (ev):

   -83.6028 -53.2159 -52.9541 -52.6007 -25.2710 -25.2050 -23.1383 -22.1574
   -15.4510 -14.9649 -13.7879 -12.5718 -12.2950 -11.9825 -11.6111 -10.5851
    -9.6708  -9.3285  -9.0844  -8.6312  -7.1489  -3.7613  -3.4936  -2.3501
    -1.5961   0.1374   0.3700   2.6670   2.7394   3.7948   4.1852   5.1196
     5.7511   6.1935   6.6253

     occupation numbers 
     1.0000   1.0000   1.0000   1.0000   1.0000   1.0000   1.0000   1.0000
     1.0000   1.0000   1.0000   1.0000   1.0000   1.0000   1.0000   1.0000
     1.0000   1.0000   1.0000   1.0000   1.0000   0.0000   0.0000   0.0000
     0.0000   0.0000   0.0000   0.0000   0.0000   0.0000   0.0000   0.0000
     0.0000   0.0000   0.0000

          k = 0.3750 0.0722 0.0000 ( 11871 PWs)   bands (ev):

   -83.6028 -53.2159 -52.9541 -52.6007 -25.2710 -25.2050 -23.1383 -22.1574
   -15.4510 -14.9648 -13.7879 -12.5718 -12.2951 -11.9825 -11.6111 -10.5851
    -9.6709  -9.3286  -9.0845  -8.6311  -7.1488  -3.7613  -3.4936  -2.3501
    -1.5961   0.1374   0.3700   2.6670   2.7394   3.7949   4.1853   5.1196
     5.7511   6.1935   6.6254

     occupation numbers 
     1.0000   1.0000   1.0000   1.0000   1.0000   1.0000   1.0000   1.0000
     1.0000   1.0000   1.0000   1.0000   1.0000   1.0000   1.0000   1.0000
     1.0000   1.0000   1.0000   1.0000   1.0000   0.0000   0.0000   0.0000
     0.0000   0.0000   0.0000   0.0000   0.0000   0.0000   0.0000   0.0000
     0.0000   0.0000   0.0000

          k =-0.2500-0.2887 0.0000 ( 11871 PWs)   bands (ev):

   -83.6028 -53.2159 -52.9541 -52.6007 -25.2710 -25.2050 -23.1383 -22.1573
   -15.4510 -14.9648 -13.7879 -12.5718 -12.2951 -11.9825 -11.6111 -10.5851
    -9.6708  -9.3286  -9.0845  -8.6311  -7.1488  -3.7613  -3.4936  -2.3501
    -1.5961   0.1374   0.3700   2.6670   2.7394   3.7948   4.1852   5.1196
     5.7511   6.1935   6.6254

     occupation numbers 
     1.0000   1.0000   1.0000   1.0000   1.0000   1.0000   1.0000   1.0000
     1.0000   1.0000   1.0000   1.0000   1.0000   1.0000   1.0000   1.0000
     1.0000   1.0000   1.0000   1.0000   1.0000   0.0000   0.0000   0.0000
     0.0000   0.0000   0.0000   0.0000   0.0000   0.0000   0.0000   0.0000
     0.0000   0.0000   0.0000

          k = 0.3750-0.0722 0.0000 ( 11871 PWs)   bands (ev):

   -83.6028 -53.2159 -52.9541 -52.6007 -25.2710 -25.2050 -23.1383 -22.1574
   -15.4510 -14.9649 -13.7879 -12.5718 -12.2950 -11.9825 -11.6111 -10.5851
    -9.6708  -9.3285  -9.0844  -8.6312  -7.1489  -3.7613  -3.4936  -2.3501
    -1.5961   0.1374   0.3700   2.6670   2.7394   3.7948   4.1853   5.1196
     5.7511   6.1935   6.6254

     occupation numbers 
     1.0000   1.0000   1.0000   1.0000   1.0000   1.0000   1.0000   1.0000
     1.0000   1.0000   1.0000   1.0000   1.0000   1.0000   1.0000   1.0000
     1.0000   1.0000   1.0000   1.0000   1.0000   0.0000   0.0000   0.0000
     0.0000   0.0000   0.0000   0.0000   0.0000   0.0000   0.0000   0.0000
     0.0000   0.0000   0.0000

          k =-0.1250 0.5052 0.0000 ( 11841 PWs)   bands (ev):

   -83.6065 -53.1972 -52.9793 -52.7608 -24.2819 -24.2462 -22.8263 -22.0748
   -16.7278 -16.4401 -13.6155 -13.1087 -12.7150 -12.3305 -12.0356 -10.8021
    -9.9129  -9.2704  -9.0755  -8.5489  -7.2519  -4.1064  -3.4709  -2.0871
    -1.7523  -0.7231  -0.3383   2.7308   3.2511   3.9501   4.3510   5.3755
     6.2338   6.3133   7.0529

     occupation numbers 
     1.0000   1.0000   1.0000   1.0000   1.0000   1.0000   1.0000   1.0000
     1.0000   1.0000   1.0000   1.0000   1.0000   1.0000   1.0000   1.0000
     1.0000   1.0000   1.0000   1.0000   1.0000   0.0000   0.0000   0.0000
     0.0000   0.0000   0.0000   0.0000   0.0000   0.0000   0.0000   0.0000
     0.0000   0.0000   0.0000

          k =-0.3750 0.3608 0.0000 ( 11841 PWs)   bands (ev):

   -83.6065 -53.1972 -52.9793 -52.7608 -24.2819 -24.2462 -22.8263 -22.0748
   -16.7279 -16.4401 -13.6155 -13.1087 -12.7149 -12.3304 -12.0356 -10.8020
    -9.9129  -9.2703  -9.0755  -8.5489  -7.2519  -4.1064  -3.4709  -2.0870
    -1.7524  -0.7231  -0.3383   2.7309   3.2511   3.9501   4.3510   5.3755
     6.2338   6.3133   7.0530

     occupation numbers 
     1.0000   1.0000   1.0000   1.0000   1.0000   1.0000   1.0000   1.0000
     1.0000   1.0000   1.0000   1.0000   1.0000   1.0000   1.0000   1.0000
     1.0000   1.0000   1.0000   1.0000   1.0000   0.0000   0.0000   0.0000
     0.0000   0.0000   0.0000   0.0000   0.0000   0.0000   0.0000   0.0000
     0.0000   0.0000   0.0000

          k = 0.5000 0.1443 0.0000 ( 11841 PWs)   bands (ev):

   -83.6065 -53.1972 -52.9793 -52.7608 -24.2819 -24.2462 -22.8263 -22.0748
   -16.7278 -16.4401 -13.6155 -13.1087 -12.7150 -12.3305 -12.0356 -10.8021
    -9.9129  -9.2704  -9.0755  -8.5489  -7.2519  -4.1064  -3.4709  -2.0871
    -1.7523  -0.7231  -0.3383   2.7308   3.2510   3.9501   4.3510   5.3756
     6.2338   6.3134   7.0529

     occupation numbers 
     1.0000   1.0000   1.0000   1.0000   1.0000   1.0000   1.0000   1.0000
     1.0000   1.0000   1.0000   1.0000   1.0000   1.0000   1.0000   1.0000
     1.0000   1.0000   1.0000   1.0000   1.0000   0.0000   0.0000   0.0000
     0.0000   0.0000   0.0000   0.0000   0.0000   0.0000   0.0000   0.0000
     0.0000   0.0000   0.0000

          k =-0.3750-0.3608 0.0000 ( 11841 PWs)   bands (ev):

   -83.6065 -53.1972 -52.9793 -52.7608 -24.2819 -24.2462 -22.8263 -22.0748
   -16.7278 -16.4401 -13.6155 -13.1087 -12.7150 -12.3305 -12.0356 -10.8021
    -9.9129  -9.2704  -9.0755  -8.5489  -7.2518  -4.1063  -3.4709  -2.0870
    -1.7524  -0.7231  -0.3383   2.7308   3.2511   3.9501   4.3510   5.3755
     6.2338   6.3134   7.0530

     occupation numbers 
     1.0000   1.0000   1.0000   1.0000   1.0000   1.0000   1.0000   1.0000
     1.0000   1.0000   1.0000   1.0000   1.0000   1.0000   1.0000   1.0000
     1.0000   1.0000   1.0000   1.0000   1.0000   0.0000   0.0000   0.0000
     0.0000   0.0000   0.0000   0.0000   0.0000   0.0000   0.0000   0.0000
     0.0000   0.0000   0.0000

          k = 0.5000-0.1443 0.0000 ( 11841 PWs)   bands (ev):

   -83.6065 -53.1972 -52.9793 -52.7608 -24.2819 -24.2462 -22.8263 -22.0748
   -16.7279 -16.4401 -13.6155 -13.1087 -12.7150 -12.3304 -12.0356 -10.8020
    -9.9129  -9.2704  -9.0755  -8.5489  -7.2519  -4.1064  -3.4709  -2.0870
    -1.7524  -0.7231  -0.3383   2.7308   3.2510   3.9501   4.3510   5.3756
     6.2338   6.3134   7.0529

     occupation numbers 
     1.0000   1.0000   1.0000   1.0000   1.0000   1.0000   1.0000   1.0000
     1.0000   1.0000   1.0000   1.0000   1.0000   1.0000   1.0000   1.0000
     1.0000   1.0000   1.0000   1.0000   1.0000   0.0000   0.0000   0.0000
     0.0000   0.0000   0.0000   0.0000   0.0000   0.0000   0.0000   0.0000
     0.0000   0.0000   0.0000

          k =-0.2500 0.4330 0.0000 ( 11844 PWs)   bands (ev):

   -83.6139 -53.1799 -53.1207 -52.6586 -24.3245 -24.2813 -22.7975 -22.0299
   -16.1280 -15.7820 -14.0053 -13.7998 -13.2887 -11.9822 -11.8359 -11.1878
   -10.0790  -9.5778  -9.0424  -8.5243  -7.3326  -4.0062  -3.4125  -2.1498
    -1.6657   0.5054   0.7404   2.6205   3.0285   4.4548   4.7121   5.0806
     5.4753   6.1225   6.8620

     occupation numbers 
     1.0000   1.0000   1.0000   1.0000   1.0000   1.0000   1.0000   1.0000
     1.0000   1.0000   1.0000   1.0000   1.0000   1.0000   1.0000   1.0000
     1.0000   1.0000   1.0000   1.0000   1.0000   0.0000   0.0000   0.0000
     0.0000   0.0000   0.0000   0.0000   0.0000   0.0000   0.0000   0.0000
     0.0000   0.0000   0.0000

          k = 0.5000-0.0000 0.0000 ( 11844 PWs)   bands (ev):

   -83.6139 -53.1799 -53.1207 -52.6586 -24.3245 -24.2813 -22.7975 -22.0299
   -16.1280 -15.7820 -14.0054 -13.7998 -13.2887 -11.9822 -11.8359 -11.1879
   -10.0790  -9.5778  -9.0424  -8.5243  -7.3326  -4.0062  -3.4125  -2.1498
    -1.6657   0.5054   0.7403   2.6205   3.0285   4.4548   4.7120   5.0806
     5.4754   6.1225   6.8620

     occupation numbers 
     1.0000   1.0000   1.0000   1.0000   1.0000   1.0000   1.0000   1.0000
     1.0000   1.0000   1.0000   1.0000   1.0000   1.0000   1.0000   1.0000
     1.0000   1.0000   1.0000   1.0000   1.0000   0.0000   0.0000   0.0000
     0.0000   0.0000   0.0000   0.0000   0.0000   0.0000   0.0000   0.0000
     0.0000   0.0000   0.0000

          k =-0.3750 0.5052 0.0000 ( 11800 PWs)   bands (ev):

   -83.6032 -53.2076 -53.1350 -52.6271 -23.7835 -23.7559 -22.7484 -22.0513
   -16.3800 -16.0483 -14.6478 -14.5199 -12.8142 -12.3613 -12.1085 -10.8398
   -10.5805  -9.9952  -8.9873  -8.3418  -6.9629  -4.4060  -3.2515  -2.0457
    -1.7594   0.2875   0.6863   2.8439   3.2815   4.3314   4.7380   5.2490
     5.8545   6.3478   6.4452

     occupation numbers 
     1.0000   1.0000   1.0000   1.0000   1.0000   1.0000   1.0000   1.0000
     1.0000   1.0000   1.0000   1.0000   1.0000   1.0000   1.0000   1.0000
     1.0000   1.0000   1.0000   1.0000   1.0000   0.0000   0.0000   0.0000
     0.0000   0.0000   0.0000   0.0000   0.0000   0.0000   0.0000   0.0000
     0.0000   0.0000   0.0000

          k = 0.6250 0.0722 0.0000 ( 11800 PWs)   bands (ev):

   -83.6032 -53.2076 -53.1350 -52.6271 -23.7835 -23.7559 -22.7484 -22.0513
   -16.3800 -16.0483 -14.6479 -14.5199 -12.8142 -12.3613 -12.1085 -10.8398
   -10.5805  -9.9952  -8.9872  -8.3418  -6.9629  -4.4059  -3.2515  -2.0457
    -1.7595   0.2874   0.6863   2.8439   3.2816   4.3314   4.7380   5.2490
     5.8546   6.3479   6.4452

     occupation numbers 
     1.0000   1.0000   1.0000   1.0000   1.0000   1.0000   1.0000   1.0000
     1.0000   1.0000   1.0000   1.0000   1.0000   1.0000   1.0000   1.0000
     1.0000   1.0000   1.0000   1.0000   1.0000   0.0000   0.0000   0.0000
     0.0000   0.0000   0.0000   0.0000   0.0000   0.0000   0.0000   0.0000
     0.0000   0.0000   0.0000

     highest occupied, lowest unoccupied level (ev):    -6.5713   -4.4060

!    total energy              =    -263.21054267 Ry
     estimated scf accuracy    <          3.1E-12 Ry

     convergence has been achieved in   5 iterations

     Using ACE for calculation of exact exchange
     ACE projected onto    35 (nbndproj) and applied to    35 (nbnd) bands

     total energy              =    -263.21054270 Ry
     Harris-Foulkes estimate   =    -263.21054270 Ry
     est. exchange err (dexx)  =       0.00000003 Ry
     - averaged Fock potential =      17.84078406 Ry
     + Fock energy (ACE)       =      -8.92040161 Ry

     EXX: now go back to refine exchange calculation

     total cpu time spent up to now is     5686.6 secs

     Self-consistent Calculation

     iteration #  1     ecut=    80.00 Ry     beta= 0.50
     Davidson diagonalization with overlap

---- Real-time Memory Report at c_bands before calling an iterative solver
          2135 MiB given to the printing process from OS
             0 MiB allocation reported by mallinfo(arena+hblkhd)
         12900 MiB available memory on the node where the printing process lives
------------------
     ethr =  5.71E-13,  avg # of iterations =  4.3

     total cpu time spent up to now is     5696.1 secs

     total energy              =    -263.21054272 Ry
     estimated scf accuracy    <          6.1E-10 Ry

     iteration #  2     ecut=    80.00 Ry     beta= 0.50
     Davidson diagonalization with overlap

---- Real-time Memory Report at c_bands before calling an iterative solver
          2135 MiB given to the printing process from OS
             0 MiB allocation reported by mallinfo(arena+hblkhd)
         12887 MiB available memory on the node where the printing process lives
------------------
     ethr =  1.46E-12,  avg # of iterations =  2.0

     total cpu time spent up to now is     5703.1 secs

     total energy              =    -263.21054272 Ry
     estimated scf accuracy    <          5.3E-10 Ry

     iteration #  3     ecut=    80.00 Ry     beta= 0.50
     Davidson diagonalization with overlap

---- Real-time Memory Report at c_bands before calling an iterative solver
          2135 MiB given to the printing process from OS
             0 MiB allocation reported by mallinfo(arena+hblkhd)
         12881 MiB available memory on the node where the printing process lives
------------------
     ethr =  1.26E-12,  avg # of iterations =  2.0

     total cpu time spent up to now is     5710.1 secs

     total energy              =    -263.21054272 Ry
     estimated scf accuracy    <          2.8E-10 Ry

     iteration #  4     ecut=    80.00 Ry     beta= 0.50
     Davidson diagonalization with overlap

---- Real-time Memory Report at c_bands before calling an iterative solver
          2135 MiB given to the printing process from OS
             0 MiB allocation reported by mallinfo(arena+hblkhd)
         12881 MiB available memory on the node where the printing process lives
------------------
     ethr =  6.65E-13,  avg # of iterations =  1.3

     total cpu time spent up to now is     5716.5 secs

     End of self-consistent calculation

          k = 0.0000 0.0000 0.0000 ( 11937 PWs)   bands (ev):

   -83.5879 -52.8395 -52.7332 -52.7332 -27.0867 -26.9889 -24.3179 -22.7306
   -15.6434 -12.7266 -10.6451 -10.4743 -10.4743 -10.4277 -10.4276  -9.9056
    -9.9056  -8.4931  -8.4928  -8.4910  -6.5713  -2.6780  -2.6778  -2.4420
    -2.4418  -0.2224   0.1109   2.3491   2.3826   2.5027   4.0139   4.0139
     4.0684   4.0685   4.2611

     occupation numbers 
     1.0000   1.0000   1.0000   1.0000   1.0000   1.0000   1.0000   1.0000
     1.0000   1.0000   1.0000   1.0000   1.0000   1.0000   1.0000   1.0000
     1.0000   1.0000   1.0000   1.0000   1.0000   0.0000   0.0000   0.0000
     0.0000   0.0000   0.0000   0.0000   0.0000   0.0000   0.0000   0.0000
     0.0000   0.0000   0.0000

          k = 0.0000 0.1443 0.0000 ( 11905 PWs)   bands (ev):

   -83.5987 -52.9342 -52.7625 -52.7322 -26.7833 -26.6893 -24.0835 -22.6117
   -15.3914 -12.6005 -11.5948 -11.5320 -10.6934 -10.6654 -10.5396 -10.2727
    -9.7550  -8.8983  -8.7578  -8.3031  -6.5868  -2.9431  -2.7406  -2.7145
    -2.3879   0.5042   0.7307   2.4394   2.4917   3.0542   3.2426   3.5281
     4.6775   4.7397   5.1339

     occupation numbers 
     1.0000   1.0000   1.0000   1.0000   1.0000   1.0000   1.0000   1.0000
     1.0000   1.0000   1.0000   1.0000   1.0000   1.0000   1.0000   1.0000
     1.0000   1.0000   1.0000   1.0000   1.0000   0.0000   0.0000   0.0000
     0.0000   0.0000   0.0000   0.0000   0.0000   0.0000   0.0000   0.0000
     0.0000   0.0000   0.0000

          k = 0.0000 0.2887 0.0000 ( 11885 PWs)   bands (ev):

   -83.6093 -53.1959 -52.8330 -52.6316 -25.9782 -25.8985 -23.5235 -22.3318
   -15.0328 -13.8368 -13.4730 -12.2914 -11.5645 -11.2207 -11.2110  -9.9331
    -9.6383  -9.3534  -9.2550  -8.4990  -6.9038  -3.5592  -3.2464  -2.4600
    -1.8625   0.1116   0.3010   2.4285   2.5718   3.4916   3.9965   5.0900
     5.9021   6.1092   6.2879

     occupation numbers 
     1.0000   1.0000   1.0000   1.0000   1.0000   1.0000   1.0000   1.0000
     1.0000   1.0000   1.0000   1.0000   1.0000   1.0000   1.0000   1.0000
     1.0000   1.0000   1.0000   1.0000   1.0000   0.0000   0.0000   0.0000
     0.0000   0.0000   0.0000   0.0000   0.0000   0.0000   0.0000   0.0000
     0.0000   0.0000   0.0000

          k = 0.0000 0.4330 0.0000 ( 11860 PWs)   bands (ev):

   -83.6039 -53.2497 -52.8427 -52.7456 -24.9041 -24.8504 -22.9908 -22.1111
   -16.2450 -15.9316 -13.8301 -12.6005 -12.0658 -11.7473 -11.7153 -10.4095
    -9.8224  -9.4658  -8.6995  -8.6885  -7.1312  -4.0130  -3.6256  -2.2420
    -1.4762  -1.2819  -0.7758   2.4296   2.9896   4.0198   4.2989   5.7887
     6.4123   6.6150   7.1622

     occupation numbers 
     1.0000   1.0000   1.0000   1.0000   1.0000   1.0000   1.0000   1.0000
     1.0000   1.0000   1.0000   1.0000   1.0000   1.0000   1.0000   1.0000
     1.0000   1.0000   1.0000   1.0000   1.0000   0.0000   0.0000   0.0000
     0.0000   0.0000   0.0000   0.0000   0.0000   0.0000   0.0000   0.0000
     0.0000   0.0000   0.0000

          k = 0.0000-0.5774 0.0000 ( 11846 PWs)   bands (ev):

   -83.5998 -53.1997 -52.8627 -52.8555 -24.2398 -24.2131 -22.8612 -22.1257
   -17.1597 -16.8848 -13.5592 -13.0601 -12.1763 -11.9708 -11.9322 -10.6057
   -10.0236  -9.2228  -8.7541  -8.4432  -7.3113  -4.0108  -3.6810  -2.3877
    -1.8990  -1.3445  -1.0608   2.1456   2.7601   4.4231   5.1187   5.8258
     6.1779   6.5203   7.2569

     occupation numbers 
     1.0000   1.0000   1.0000   1.0000   1.0000   1.0000   1.0000   1.0000
     1.0000   1.0000   1.0000   1.0000   1.0000   1.0000   1.0000   1.0000
     1.0000   1.0000   1.0000   1.0000   1.0000   0.0000   0.0000   0.0000
     0.0000   0.0000   0.0000   0.0000   0.0000   0.0000   0.0000   0.0000
     0.0000   0.0000   0.0000

          k = 0.1250 0.2165 0.0000 ( 11867 PWs)   bands (ev):

   -83.6001 -53.1245 -52.8486 -52.5887 -26.2304 -26.1449 -23.6926 -22.4180
   -15.0458 -13.0818 -12.8533 -12.2956 -11.6089 -11.3088 -10.9262  -9.9738
    -9.6596  -9.5528  -9.0095  -8.3569  -6.7805  -3.3967  -3.0849  -2.7039
    -1.9047   1.0475   1.2331   2.0133   2.0273   3.4885   3.6387   4.0485
     5.0946   5.7027   6.4690

     occupation numbers 
     1.0000   1.0000   1.0000   1.0000   1.0000   1.0000   1.0000   1.0000
     1.0000   1.0000   1.0000   1.0000   1.0000   1.0000   1.0000   1.0000
     1.0000   1.0000   1.0000   1.0000   1.0000   0.0000   0.0000   0.0000
     0.0000   0.0000   0.0000   0.0000   0.0000   0.0000   0.0000   0.0000
     0.0000   0.0000   0.0000

          k = 0.1250 0.3608 0.0000 ( 11871 PWs)   bands (ev):

   -83.6027 -53.2159 -52.9541 -52.6006 -25.2710 -25.2050 -23.1383 -22.1573
   -15.4510 -14.9648 -13.7879 -12.5718 -12.2951 -11.9825 -11.6111 -10.5851
    -9.6709  -9.3286  -9.0845  -8.6311  -7.1489  -3.7612  -3.4935  -2.3500
    -1.5961   0.1374   0.3700   2.6670   2.7394   3.7949   4.1853   5.1195
     5.7511   6.1935   6.6254

     occupation numbers 
     1.0000   1.0000   1.0000   1.0000   1.0000   1.0000   1.0000   1.0000
     1.0000   1.0000   1.0000   1.0000   1.0000   1.0000   1.0000   1.0000
     1.0000   1.0000   1.0000   1.0000   1.0000   0.0000   0.0000   0.0000
     0.0000   0.0000   0.0000   0.0000   0.0000   0.0000   0.0000   0.0000
     0.0000   0.0000   0.0000

          k = 0.1250 0.5052 0.0000 ( 11841 PWs)   bands (ev):

   -83.6065 -53.1971 -52.9793 -52.7609 -24.2819 -24.2462 -22.8263 -22.0748
   -16.7278 -16.4400 -13.6155 -13.1087 -12.7150 -12.3305 -12.0356 -10.8020
    -9.9129  -9.2704  -9.0755  -8.5489  -7.2522  -4.1064  -3.4706  -2.0870
    -1.7524  -0.7231  -0.3383   2.7308   3.2511   3.9501   4.3510   5.3755
     6.2338   6.3134   7.0529

     occupation numbers 
     1.0000   1.0000   1.0000   1.0000   1.0000   1.0000   1.0000   1.0000
     1.0000   1.0000   1.0000   1.0000   1.0000   1.0000   1.0000   1.0000
     1.0000   1.0000   1.0000   1.0000   1.0000   0.0000   0.0000   0.0000
     0.0000   0.0000   0.0000   0.0000   0.0000   0.0000   0.0000   0.0000
     0.0000   0.0000   0.0000

          k = 0.2500 0.4330 0.0000 ( 11844 PWs)   bands (ev):

   -83.6138 -53.1800 -53.1208 -52.6583 -24.3245 -24.2813 -22.7975 -22.0299
   -16.1279 -15.7819 -14.0054 -13.7999 -13.2887 -11.9822 -11.8359 -11.1878
   -10.0790  -9.5779  -9.0424  -8.5243  -7.3327  -4.0056  -3.4128  -2.1497
    -1.6658   0.5053   0.7404   2.6205   3.0285   4.4548   4.7121   5.0805
     5.4754   6.1224   6.8620

     occupation numbers 
     1.0000   1.0000   1.0000   1.0000   1.0000   1.0000   1.0000   1.0000
     1.0000   1.0000   1.0000   1.0000   1.0000   1.0000   1.0000   1.0000
     1.0000   1.0000   1.0000   1.0000   1.0000   0.0000   0.0000   0.0000
     0.0000   0.0000   0.0000   0.0000   0.0000   0.0000   0.0000   0.0000
     0.0000   0.0000   0.0000

          k = 0.2500 0.5774 0.0000 ( 11800 PWs)   bands (ev):

   -83.6031 -53.2076 -53.1350 -52.6270 -23.7835 -23.7559 -22.7484 -22.0513
   -16.3800 -16.0483 -14.6479 -14.5199 -12.8142 -12.3613 -12.1085 -10.8398
   -10.5805  -9.9952  -8.9873  -8.3418  -6.9630  -4.4058  -3.2515  -2.0456
    -1.7595   0.2874   0.6863   2.8439   3.2815   4.3314   4.7380   5.2490
     5.8546   6.3478   6.4451

     occupation numbers 
     1.0000   1.0000   1.0000   1.0000   1.0000   1.0000   1.0000   1.0000
     1.0000   1.0000   1.0000   1.0000   1.0000   1.0000   1.0000   1.0000
     1.0000   1.0000   1.0000   1.0000   1.0000   0.0000   0.0000   0.0000
     0.0000   0.0000   0.0000   0.0000   0.0000   0.0000   0.0000   0.0000
     0.0000   0.0000   0.0000

          k =-0.1250 0.0722 0.0000 ( 11905 PWs)   bands (ev):

   -83.5987 -52.9342 -52.7625 -52.7322 -26.7833 -26.6893 -24.0835 -22.6117
   -15.3914 -12.6005 -11.5949 -11.5321 -10.6933 -10.6653 -10.5396 -10.2727
    -9.7549  -8.8984  -8.7576  -8.3031  -6.5868  -2.9432  -2.7405  -2.7144
    -2.3880   0.5042   0.7307   2.4394   2.4917   3.0542   3.2426   3.5281
     4.6775   4.7397   5.1339

     occupation numbers 
     1.0000   1.0000   1.0000   1.0000   1.0000   1.0000   1.0000   1.0000
     1.0000   1.0000   1.0000   1.0000   1.0000   1.0000   1.0000   1.0000
     1.0000   1.0000   1.0000   1.0000   1.0000   0.0000   0.0000   0.0000
     0.0000   0.0000   0.0000   0.0000   0.0000   0.0000   0.0000   0.0000
     0.0000   0.0000   0.0000

          k = 0.1250 0.0722 0.0000 ( 11905 PWs)   bands (ev):

   -83.5987 -52.9342 -52.7625 -52.7322 -26.7833 -26.6893 -24.0835 -22.6117
   -15.3914 -12.6005 -11.5948 -11.5320 -10.6934 -10.6654 -10.5396 -10.2727
    -9.7550  -8.8983  -8.7578  -8.3031  -6.5868  -2.9431  -2.7406  -2.7145
    -2.3878   0.5043   0.7307   2.4394   2.4917   3.0542   3.2426   3.5281
     4.6775   4.7397   5.1339

     occupation numbers 
     1.0000   1.0000   1.0000   1.0000   1.0000   1.0000   1.0000   1.0000
     1.0000   1.0000   1.0000   1.0000   1.0000   1.0000   1.0000   1.0000
     1.0000   1.0000   1.0000   1.0000   1.0000   0.0000   0.0000   0.0000
     0.0000   0.0000   0.0000   0.0000   0.0000   0.0000   0.0000   0.0000
     0.0000   0.0000   0.0000

          k =-0.2500 0.1443 0.0000 ( 11885 PWs)   bands (ev):

   -83.6093 -53.1959 -52.8330 -52.6316 -25.9782 -25.8985 -23.5235 -22.3319
   -15.0328 -13.8368 -13.4731 -12.2914 -11.5645 -11.2207 -11.2109  -9.9332
    -9.6383  -9.3533  -9.2549  -8.4991  -6.9038  -3.5592  -3.2464  -2.4600
    -1.8626   0.1116   0.3010   2.4285   2.5718   3.4915   3.9964   5.0900
     5.9021   6.1092   6.2879

     occupation numbers 
     1.0000   1.0000   1.0000   1.0000   1.0000   1.0000   1.0000   1.0000
     1.0000   1.0000   1.0000   1.0000   1.0000   1.0000   1.0000   1.0000
     1.0000   1.0000   1.0000   1.0000   1.0000   0.0000   0.0000   0.0000
     0.0000   0.0000   0.0000   0.0000   0.0000   0.0000   0.0000   0.0000
     0.0000   0.0000   0.0000

          k = 0.2500 0.1443 0.0000 ( 11885 PWs)   bands (ev):

   -83.6093 -53.1959 -52.8330 -52.6316 -25.9782 -25.8985 -23.5235 -22.3318
   -15.0328 -13.8368 -13.4730 -12.2913 -11.5645 -11.2207 -11.2110  -9.9332
    -9.6383  -9.3534  -9.2550  -8.4990  -6.9038  -3.5592  -3.2464  -2.4600
    -1.8625   0.1116   0.3010   2.4285   2.5718   3.4915   3.9964   5.0900
     5.9021   6.1092   6.2879

     occupation numbers 
     1.0000   1.0000   1.0000   1.0000   1.0000   1.0000   1.0000   1.0000
     1.0000   1.0000   1.0000   1.0000   1.0000   1.0000   1.0000   1.0000
     1.0000   1.0000   1.0000   1.0000   1.0000   0.0000   0.0000   0.0000
     0.0000   0.0000   0.0000   0.0000   0.0000   0.0000   0.0000   0.0000
     0.0000   0.0000   0.0000

          k =-0.3750 0.2165 0.0000 ( 11860 PWs)   bands (ev):

   -83.6039 -53.2497 -52.8427 -52.7456 -24.9041 -24.8504 -22.9908 -22.1111
   -16.2450 -15.9316 -13.8301 -12.6005 -12.0658 -11.7472 -11.7152 -10.4095
    -9.8223  -9.4658  -8.6994  -8.6886  -7.1313  -4.0130  -3.6256  -2.2419
    -1.4763  -1.2819  -0.7758   2.4296   2.9895   4.0198   4.2989   5.7888
     6.4122   6.6150   7.1622

     occupation numbers 
     1.0000   1.0000   1.0000   1.0000   1.0000   1.0000   1.0000   1.0000
     1.0000   1.0000   1.0000   1.0000   1.0000   1.0000   1.0000   1.0000
     1.0000   1.0000   1.0000   1.0000   1.0000   0.0000   0.0000   0.0000
     0.0000   0.0000   0.0000   0.0000   0.0000   0.0000   0.0000   0.0000
     0.0000   0.0000   0.0000

          k = 0.3750 0.2165 0.0000 ( 11860 PWs)   bands (ev):

   -83.6039 -53.2497 -52.8427 -52.7456 -24.9041 -24.8504 -22.9908 -22.1111
   -16.2449 -15.9316 -13.8301 -12.6005 -12.0658 -11.7473 -11.7153 -10.4095
    -9.8224  -9.4658  -8.6995  -8.6885  -7.1313  -4.0130  -3.6256  -2.2420
    -1.4762  -1.2819  -0.7758   2.4296   2.9895   4.0198   4.2989   5.7888
     6.4123   6.6150   7.1622

     occupation numbers 
     1.0000   1.0000   1.0000   1.0000   1.0000   1.0000   1.0000   1.0000
     1.0000   1.0000   1.0000   1.0000   1.0000   1.0000   1.0000   1.0000
     1.0000   1.0000   1.0000   1.0000   1.0000   0.0000   0.0000   0.0000
     0.0000   0.0000   0.0000   0.0000   0.0000   0.0000   0.0000   0.0000
     0.0000   0.0000   0.0000

          k = 0.5000-0.2887 0.0000 ( 11846 PWs)   bands (ev):

   -83.5998 -53.1998 -52.8627 -52.8555 -24.2398 -24.2131 -22.8611 -22.1257
   -17.1597 -16.8848 -13.5592 -13.0601 -12.1763 -11.9707 -11.9321 -10.6057
   -10.0235  -9.2228  -8.7542  -8.4431  -7.3114  -4.0108  -3.6810  -2.3876
    -1.8990  -1.3445  -1.0608   2.1456   2.7600   4.4231   5.1187   5.8258
     6.1779   6.5203   7.2570

     occupation numbers 
     1.0000   1.0000   1.0000   1.0000   1.0000   1.0000   1.0000   1.0000
     1.0000   1.0000   1.0000   1.0000   1.0000   1.0000   1.0000   1.0000
     1.0000   1.0000   1.0000   1.0000   1.0000   0.0000   0.0000   0.0000
     0.0000   0.0000   0.0000   0.0000   0.0000   0.0000   0.0000   0.0000
     0.0000   0.0000   0.0000

          k =-0.5000-0.2887 0.0000 ( 11846 PWs)   bands (ev):

   -83.5998 -53.1997 -52.8627 -52.8555 -24.2398 -24.2131 -22.8612 -22.1257
   -17.1597 -16.8848 -13.5592 -13.0601 -12.1763 -11.9708 -11.9322 -10.6057
   -10.0236  -9.2228  -8.7542  -8.4432  -7.3113  -4.0108  -3.6810  -2.3877
    -1.8990  -1.3445  -1.0608   2.1456   2.7600   4.4231   5.1187   5.8258
     6.1779   6.5203   7.2569

     occupation numbers 
     1.0000   1.0000   1.0000   1.0000   1.0000   1.0000   1.0000   1.0000
     1.0000   1.0000   1.0000   1.0000   1.0000   1.0000   1.0000   1.0000
     1.0000   1.0000   1.0000   1.0000   1.0000   0.0000   0.0000   0.0000
     0.0000   0.0000   0.0000   0.0000   0.0000   0.0000   0.0000   0.0000
     0.0000   0.0000   0.0000

          k =-0.1250 0.2165 0.0000 ( 11867 PWs)   bands (ev):

   -83.6001 -53.1245 -52.8486 -52.5887 -26.2304 -26.1449 -23.6926 -22.4180
   -15.0458 -13.0818 -12.8533 -12.2956 -11.6088 -11.3087 -10.9262  -9.9738
    -9.6596  -9.5527  -9.0096  -8.3568  -6.7805  -3.3967  -3.0849  -2.7038
    -1.9047   1.0475   1.2331   2.0133   2.0273   3.4885   3.6387   4.0485
     5.0946   5.7027   6.4690

     occupation numbers 
     1.0000   1.0000   1.0000   1.0000   1.0000   1.0000   1.0000   1.0000
     1.0000   1.0000   1.0000   1.0000   1.0000   1.0000   1.0000   1.0000
     1.0000   1.0000   1.0000   1.0000   1.0000   0.0000   0.0000   0.0000
     0.0000   0.0000   0.0000   0.0000   0.0000   0.0000   0.0000   0.0000
     0.0000   0.0000   0.0000

          k = 0.2500-0.0000 0.0000 ( 11867 PWs)   bands (ev):

   -83.6001 -53.1245 -52.8486 -52.5887 -26.2304 -26.1449 -23.6926 -22.4180
   -15.0458 -13.0818 -12.8533 -12.2956 -11.6088 -11.3087 -10.9262  -9.9738
    -9.6596  -9.5527  -9.0096  -8.3569  -6.7805  -3.3967  -3.0849  -2.7038
    -1.9047   1.0475   1.2331   2.0133   2.0273   3.4885   3.6387   4.0485
     5.0945   5.7027   6.4691

     occupation numbers 
     1.0000   1.0000   1.0000   1.0000   1.0000   1.0000   1.0000   1.0000
     1.0000   1.0000   1.0000   1.0000   1.0000   1.0000   1.0000   1.0000
     1.0000   1.0000   1.0000   1.0000   1.0000   0.0000   0.0000   0.0000
     0.0000   0.0000   0.0000   0.0000   0.0000   0.0000   0.0000   0.0000
     0.0000   0.0000   0.0000

          k =-0.1250 0.3608 0.0000 ( 11871 PWs)   bands (ev):

   -83.6027 -53.2159 -52.9541 -52.6006 -25.2710 -25.2050 -23.1383 -22.1574
   -15.4510 -14.9648 -13.7879 -12.5718 -12.2951 -11.9825 -11.6111 -10.5851
    -9.6709  -9.3286  -9.0845  -8.6311  -7.1489  -3.7612  -3.4936  -2.3501
    -1.5960   0.1374   0.3700   2.6670   2.7394   3.7949   4.1853   5.1196
     5.7511   6.1935   6.6254

     occupation numbers 
     1.0000   1.0000   1.0000   1.0000   1.0000   1.0000   1.0000   1.0000
     1.0000   1.0000   1.0000   1.0000   1.0000   1.0000   1.0000   1.0000
     1.0000   1.0000   1.0000   1.0000   1.0000   0.0000   0.0000   0.0000
     0.0000   0.0000   0.0000   0.0000   0.0000   0.0000   0.0000   0.0000
     0.0000   0.0000   0.0000

          k =-0.2500 0.2887 0.0000 ( 11871 PWs)   bands (ev):

   -83.6027 -53.2159 -52.9541 -52.6006 -25.2710 -25.2050 -23.1383 -22.1574
   -15.4510 -14.9649 -13.7879 -12.5718 -12.2950 -11.9825 -11.6111 -10.5851
    -9.6709  -9.3285  -9.0844  -8.6312  -7.1489  -3.7613  -3.4936  -2.3500
    -1.5961   0.1374   0.3700   2.6670   2.7394   3.7948   4.1852   5.1196
     5.7511   6.1935   6.6253

     occupation numbers 
     1.0000   1.0000   1.0000   1.0000   1.0000   1.0000   1.0000   1.0000
     1.0000   1.0000   1.0000   1.0000   1.0000   1.0000   1.0000   1.0000
     1.0000   1.0000   1.0000   1.0000   1.0000   0.0000   0.0000   0.0000
     0.0000   0.0000   0.0000   0.0000   0.0000   0.0000   0.0000   0.0000
     0.0000   0.0000   0.0000

          k = 0.3750 0.0722 0.0000 ( 11871 PWs)   bands (ev):

   -83.6027 -53.2159 -52.9541 -52.6006 -25.2710 -25.2050 -23.1383 -22.1574
   -15.4510 -14.9648 -13.7879 -12.5718 -12.2951 -11.9825 -11.6111 -10.5851
    -9.6709  -9.3286  -9.0845  -8.6311  -7.1489  -3.7612  -3.4936  -2.3501
    -1.5960   0.1374   0.3700   2.6670   2.7394   3.7949   4.1853   5.1196
     5.7511   6.1935   6.6254

     occupation numbers 
     1.0000   1.0000   1.0000   1.0000   1.0000   1.0000   1.0000   1.0000
     1.0000   1.0000   1.0000   1.0000   1.0000   1.0000   1.0000   1.0000
     1.0000   1.0000   1.0000   1.0000   1.0000   0.0000   0.0000   0.0000
     0.0000   0.0000   0.0000   0.0000   0.0000   0.0000   0.0000   0.0000
     0.0000   0.0000   0.0000

          k =-0.2500-0.2887 0.0000 ( 11871 PWs)   bands (ev):

   -83.6027 -53.2159 -52.9541 -52.6006 -25.2710 -25.2050 -23.1383 -22.1573
   -15.4510 -14.9648 -13.7879 -12.5718 -12.2951 -11.9825 -11.6111 -10.5851
    -9.6709  -9.3286  -9.0845  -8.6311  -7.1489  -3.7612  -3.4935  -2.3500
    -1.5961   0.1374   0.3700   2.6670   2.7394   3.7948   4.1852   5.1196
     5.7511   6.1935   6.6254

     occupation numbers 
     1.0000   1.0000   1.0000   1.0000   1.0000   1.0000   1.0000   1.0000
     1.0000   1.0000   1.0000   1.0000   1.0000   1.0000   1.0000   1.0000
     1.0000   1.0000   1.0000   1.0000   1.0000   0.0000   0.0000   0.0000
     0.0000   0.0000   0.0000   0.0000   0.0000   0.0000   0.0000   0.0000
     0.0000   0.0000   0.0000

          k = 0.3750-0.0722 0.0000 ( 11871 PWs)   bands (ev):

   -83.6027 -53.2159 -52.9541 -52.6006 -25.2710 -25.2050 -23.1383 -22.1574
   -15.4510 -14.9649 -13.7879 -12.5718 -12.2950 -11.9825 -11.6111 -10.5850
    -9.6709  -9.3285  -9.0844  -8.6311  -7.1489  -3.7612  -3.4936  -2.3500
    -1.5961   0.1374   0.3700   2.6670   2.7394   3.7948   4.1853   5.1196
     5.7511   6.1935   6.6254

     occupation numbers 
     1.0000   1.0000   1.0000   1.0000   1.0000   1.0000   1.0000   1.0000
     1.0000   1.0000   1.0000   1.0000   1.0000   1.0000   1.0000   1.0000
     1.0000   1.0000   1.0000   1.0000   1.0000   0.0000   0.0000   0.0000
     0.0000   0.0000   0.0000   0.0000   0.0000   0.0000   0.0000   0.0000
     0.0000   0.0000   0.0000

          k =-0.1250 0.5052 0.0000 ( 11841 PWs)   bands (ev):

   -83.6065 -53.1971 -52.9793 -52.7609 -24.2819 -24.2462 -22.8263 -22.0748
   -16.7278 -16.4401 -13.6155 -13.1087 -12.7150 -12.3305 -12.0355 -10.8021
    -9.9129  -9.2704  -9.0755  -8.5489  -7.2522  -4.1065  -3.4706  -2.0870
    -1.7523  -0.7231  -0.3383   2.7308   3.2511   3.9501   4.3510   5.3755
     6.2338   6.3133   7.0529

     occupation numbers 
     1.0000   1.0000   1.0000   1.0000   1.0000   1.0000   1.0000   1.0000
     1.0000   1.0000   1.0000   1.0000   1.0000   1.0000   1.0000   1.0000
     1.0000   1.0000   1.0000   1.0000   1.0000   0.0000   0.0000   0.0000
     0.0000   0.0000   0.0000   0.0000   0.0000   0.0000   0.0000   0.0000
     0.0000   0.0000   0.0000

          k =-0.3750 0.3608 0.0000 ( 11841 PWs)   bands (ev):

   -83.6065 -53.1971 -52.9793 -52.7609 -24.2819 -24.2462 -22.8263 -22.0748
   -16.7279 -16.4401 -13.6155 -13.1087 -12.7149 -12.3304 -12.0356 -10.8020
    -9.9129  -9.2704  -9.0755  -8.5489  -7.2522  -4.1065  -3.4706  -2.0870
    -1.7523  -0.7231  -0.3383   2.7309   3.2511   3.9501   4.3510   5.3755
     6.2338   6.3133   7.0530

     occupation numbers 
     1.0000   1.0000   1.0000   1.0000   1.0000   1.0000   1.0000   1.0000
     1.0000   1.0000   1.0000   1.0000   1.0000   1.0000   1.0000   1.0000
     1.0000   1.0000   1.0000   1.0000   1.0000   0.0000   0.0000   0.0000
     0.0000   0.0000   0.0000   0.0000   0.0000   0.0000   0.0000   0.0000
     0.0000   0.0000   0.0000

          k = 0.5000 0.1443 0.0000 ( 11841 PWs)   bands (ev):

   -83.6065 -53.1971 -52.9793 -52.7609 -24.2819 -24.2462 -22.8263 -22.0748
   -16.7278 -16.4401 -13.6155 -13.1087 -12.7150 -12.3305 -12.0355 -10.8021
    -9.9129  -9.2704  -9.0755  -8.5489  -7.2522  -4.1065  -3.4706  -2.0870
    -1.7523  -0.7231  -0.3383   2.7308   3.2510   3.9501   4.3510   5.3756
     6.2338   6.3134   7.0529

     occupation numbers 
     1.0000   1.0000   1.0000   1.0000   1.0000   1.0000   1.0000   1.0000
     1.0000   1.0000   1.0000   1.0000   1.0000   1.0000   1.0000   1.0000
     1.0000   1.0000   1.0000   1.0000   1.0000   0.0000   0.0000   0.0000
     0.0000   0.0000   0.0000   0.0000   0.0000   0.0000   0.0000   0.0000
     0.0000   0.0000   0.0000

          k =-0.3750-0.3608 0.0000 ( 11841 PWs)   bands (ev):

   -83.6065 -53.1971 -52.9793 -52.7609 -24.2819 -24.2462 -22.8263 -22.0748
   -16.7278 -16.4401 -13.6155 -13.1087 -12.7150 -12.3305 -12.0356 -10.8021
    -9.9129  -9.2704  -9.0755  -8.5489  -7.2522  -4.1064  -3.4706  -2.0870
    -1.7524  -0.7231  -0.3383   2.7308   3.2511   3.9501   4.3510   5.3755
     6.2338   6.3134   7.0530

     occupation numbers 
     1.0000   1.0000   1.0000   1.0000   1.0000   1.0000   1.0000   1.0000
     1.0000   1.0000   1.0000   1.0000   1.0000   1.0000   1.0000   1.0000
     1.0000   1.0000   1.0000   1.0000   1.0000   0.0000   0.0000   0.0000
     0.0000   0.0000   0.0000   0.0000   0.0000   0.0000   0.0000   0.0000
     0.0000   0.0000   0.0000

          k = 0.5000-0.1443 0.0000 ( 11841 PWs)   bands (ev):

   -83.6065 -53.1971 -52.9793 -52.7609 -24.2819 -24.2462 -22.8262 -22.0748
   -16.7279 -16.4401 -13.6155 -13.1087 -12.7149 -12.3304 -12.0356 -10.8020
    -9.9129  -9.2704  -9.0754  -8.5489  -7.2522  -4.1065  -3.4706  -2.0870
    -1.7523  -0.7231  -0.3383   2.7308   3.2510   3.9501   4.3510   5.3756
     6.2338   6.3134   7.0529

     occupation numbers 
     1.0000   1.0000   1.0000   1.0000   1.0000   1.0000   1.0000   1.0000
     1.0000   1.0000   1.0000   1.0000   1.0000   1.0000   1.0000   1.0000
     1.0000   1.0000   1.0000   1.0000   1.0000   0.0000   0.0000   0.0000
     0.0000   0.0000   0.0000   0.0000   0.0000   0.0000   0.0000   0.0000
     0.0000   0.0000   0.0000

          k =-0.2500 0.4330 0.0000 ( 11844 PWs)   bands (ev):

   -83.6138 -53.1800 -53.1208 -52.6583 -24.3245 -24.2813 -22.7975 -22.0299
   -16.1280 -15.7820 -14.0054 -13.7998 -13.2887 -11.9822 -11.8359 -11.1878
   -10.0790  -9.5778  -9.0424  -8.5243  -7.3327  -4.0057  -3.4128  -2.1497
    -1.6657   0.5054   0.7404   2.6205   3.0285   4.4548   4.7121   5.0806
     5.4753   6.1225   6.8620

     occupation numbers 
     1.0000   1.0000   1.0000   1.0000   1.0000   1.0000   1.0000   1.0000
     1.0000   1.0000   1.0000   1.0000   1.0000   1.0000   1.0000   1.0000
     1.0000   1.0000   1.0000   1.0000   1.0000   0.0000   0.0000   0.0000
     0.0000   0.0000   0.0000   0.0000   0.0000   0.0000   0.0000   0.0000
     0.0000   0.0000   0.0000

          k = 0.5000-0.0000 0.0000 ( 11844 PWs)   bands (ev):

   -83.6138 -53.1800 -53.1208 -52.6583 -24.3245 -24.2813 -22.7975 -22.0299
   -16.1280 -15.7820 -14.0054 -13.7998 -13.2887 -11.9822 -11.8359 -11.1878
   -10.0790  -9.5778  -9.0424  -8.5243  -7.3327  -4.0057  -3.4128  -2.1497
    -1.6657   0.5054   0.7403   2.6205   3.0285   4.4548   4.7120   5.0806
     5.4754   6.1225   6.8619

     occupation numbers 
     1.0000   1.0000   1.0000   1.0000   1.0000   1.0000   1.0000   1.0000
     1.0000   1.0000   1.0000   1.0000   1.0000   1.0000   1.0000   1.0000
     1.0000   1.0000   1.0000   1.0000   1.0000   0.0000   0.0000   0.0000
     0.0000   0.0000   0.0000   0.0000   0.0000   0.0000   0.0000   0.0000
     0.0000   0.0000   0.0000

          k =-0.3750 0.5052 0.0000 ( 11800 PWs)   bands (ev):

   -83.6031 -53.2076 -53.1350 -52.6270 -23.7835 -23.7559 -22.7484 -22.0513
   -16.3800 -16.0483 -14.6478 -14.5199 -12.8142 -12.3613 -12.1085 -10.8398
   -10.5804  -9.9952  -8.9873  -8.3418  -6.9630  -4.4058  -3.2515  -2.0457
    -1.7594   0.2875   0.6863   2.8439   3.2815   4.3314   4.7380   5.2490
     5.8545   6.3478   6.4452

     occupation numbers 
     1.0000   1.0000   1.0000   1.0000   1.0000   1.0000   1.0000   1.0000
     1.0000   1.0000   1.0000   1.0000   1.0000   1.0000   1.0000   1.0000
     1.0000   1.0000   1.0000   1.0000   1.0000   0.0000   0.0000   0.0000
     0.0000   0.0000   0.0000   0.0000   0.0000   0.0000   0.0000   0.0000
     0.0000   0.0000   0.0000

          k = 0.6250 0.0722 0.0000 ( 11800 PWs)   bands (ev):

   -83.6031 -53.2076 -53.1350 -52.6270 -23.7835 -23.7559 -22.7484 -22.0513
   -16.3800 -16.0483 -14.6479 -14.5199 -12.8142 -12.3613 -12.1085 -10.8398
   -10.5805  -9.9952  -8.9872  -8.3418  -6.9630  -4.4058  -3.2515  -2.0456
    -1.7595   0.2874   0.6863   2.8439   3.2815   4.3314   4.7380   5.2490
     5.8545   6.3479   6.4452

     occupation numbers 
     1.0000   1.0000   1.0000   1.0000   1.0000   1.0000   1.0000   1.0000
     1.0000   1.0000   1.0000   1.0000   1.0000   1.0000   1.0000   1.0000
     1.0000   1.0000   1.0000   1.0000   1.0000   0.0000   0.0000   0.0000
     0.0000   0.0000   0.0000   0.0000   0.0000   0.0000   0.0000   0.0000
     0.0000   0.0000   0.0000

     highest occupied, lowest unoccupied level (ev):    -6.5713   -4.4058

!    total energy              =    -263.21054272 Ry
     estimated scf accuracy    <          1.9E-11 Ry

     convergence has been achieved in   4 iterations

     Using ACE for calculation of exact exchange
     ACE projected onto    35 (nbndproj) and applied to    35 (nbnd) bands

     total energy              =    -263.21054274 Ry
     Harris-Foulkes estimate   =    -263.21054274 Ry
     est. exchange err (dexx)  =       0.00000002 Ry
     - averaged Fock potential =      17.84081601 Ry
     + Fock energy (ACE)       =      -8.92041442 Ry

     EXX: now go back to refine exchange calculation

     total cpu time spent up to now is     6056.5 secs

     Self-consistent Calculation

     iteration #  1     ecut=    80.00 Ry     beta= 0.50
     Davidson diagonalization with overlap

---- Real-time Memory Report at c_bands before calling an iterative solver
          2135 MiB given to the printing process from OS
             0 MiB allocation reported by mallinfo(arena+hblkhd)
         12882 MiB available memory on the node where the printing process lives
------------------
     ethr =  6.65E-13,  avg # of iterations =  3.8

     total cpu time spent up to now is     6065.8 secs

     total energy              =    -263.21054275 Ry
     estimated scf accuracy    <          9.5E-10 Ry

     iteration #  2     ecut=    80.00 Ry     beta= 0.50
     Davidson diagonalization with overlap

---- Real-time Memory Report at c_bands before calling an iterative solver
          2135 MiB given to the printing process from OS
             0 MiB allocation reported by mallinfo(arena+hblkhd)
         12878 MiB available memory on the node where the printing process lives
------------------
     ethr =  2.25E-12,  avg # of iterations =  2.0

     total cpu time spent up to now is     6073.2 secs

     total energy              =    -263.21054275 Ry
     estimated scf accuracy    <          7.3E-09 Ry

     iteration #  3     ecut=    80.00 Ry     beta= 0.50
     Davidson diagonalization with overlap

---- Real-time Memory Report at c_bands before calling an iterative solver
          2135 MiB given to the printing process from OS
             0 MiB allocation reported by mallinfo(arena+hblkhd)
         12879 MiB available memory on the node where the printing process lives
------------------
     ethr =  2.25E-12,  avg # of iterations =  2.0

     total cpu time spent up to now is     6080.6 secs

     End of self-consistent calculation

          k = 0.0000 0.0000 0.0000 ( 11937 PWs)   bands (ev):

   -83.5879 -52.8395 -52.7331 -52.7331 -27.0867 -26.9889 -24.3179 -22.7306
   -15.6434 -12.7266 -10.6451 -10.4743 -10.4743 -10.4277 -10.4276  -9.9056
    -9.9055  -8.4931  -8.4928  -8.4910  -6.5713  -2.6780  -2.6777  -2.4419
    -2.4418  -0.2224   0.1109   2.3491   2.3826   2.5027   4.0139   4.0140
     4.0684   4.0684   4.2611

     occupation numbers 
     1.0000   1.0000   1.0000   1.0000   1.0000   1.0000   1.0000   1.0000
     1.0000   1.0000   1.0000   1.0000   1.0000   1.0000   1.0000   1.0000
     1.0000   1.0000   1.0000   1.0000   1.0000   0.0000   0.0000   0.0000
     0.0000   0.0000   0.0000   0.0000   0.0000   0.0000   0.0000   0.0000
     0.0000   0.0000   0.0000

          k = 0.0000 0.1443 0.0000 ( 11905 PWs)   bands (ev):

   -83.5986 -52.9343 -52.7624 -52.7322 -26.7833 -26.6893 -24.0835 -22.6117
   -15.3914 -12.6005 -11.5948 -11.5320 -10.6934 -10.6654 -10.5396 -10.2728
    -9.7549  -8.8982  -8.7578  -8.3031  -6.5868  -2.9432  -2.7406  -2.7144
    -2.3878   0.5042   0.7307   2.4394   2.4917   3.0542   3.2426   3.5281
     4.6776   4.7396   5.1339

     occupation numbers 
     1.0000   1.0000   1.0000   1.0000   1.0000   1.0000   1.0000   1.0000
     1.0000   1.0000   1.0000   1.0000   1.0000   1.0000   1.0000   1.0000
     1.0000   1.0000   1.0000   1.0000   1.0000   0.0000   0.0000   0.0000
     0.0000   0.0000   0.0000   0.0000   0.0000   0.0000   0.0000   0.0000
     0.0000   0.0000   0.0000

          k = 0.0000 0.2887 0.0000 ( 11885 PWs)   bands (ev):

   -83.6092 -53.1960 -52.8330 -52.6314 -25.9782 -25.8985 -23.5235 -22.3318
   -15.0328 -13.8368 -13.4730 -12.2913 -11.5646 -11.2207 -11.2110  -9.9332
    -9.6383  -9.3534  -9.2549  -8.4990  -6.9035  -3.5593  -3.2463  -2.4600
    -1.8625   0.1116   0.3010   2.4285   2.5718   3.4916   3.9965   5.0900
     5.9021   6.1092   6.2879

     occupation numbers 
     1.0000   1.0000   1.0000   1.0000   1.0000   1.0000   1.0000   1.0000
     1.0000   1.0000   1.0000   1.0000   1.0000   1.0000   1.0000   1.0000
     1.0000   1.0000   1.0000   1.0000   1.0000   0.0000   0.0000   0.0000
     0.0000   0.0000   0.0000   0.0000   0.0000   0.0000   0.0000   0.0000
     0.0000   0.0000   0.0000

          k = 0.0000 0.4330 0.0000 ( 11860 PWs)   bands (ev):

   -83.6039 -53.2497 -52.8425 -52.7457 -24.9041 -24.8504 -22.9908 -22.1110
   -16.2449 -15.9316 -13.8300 -12.6005 -12.0658 -11.7473 -11.7153 -10.4095
    -9.8224  -9.4658  -8.6995  -8.6885  -7.1314  -4.0131  -3.6255  -2.2419
    -1.4762  -1.2819  -0.7758   2.4297   2.9896   4.0198   4.2989   5.7887
     6.4123   6.6150   7.1622

     occupation numbers 
     1.0000   1.0000   1.0000   1.0000   1.0000   1.0000   1.0000   1.0000
     1.0000   1.0000   1.0000   1.0000   1.0000   1.0000   1.0000   1.0000
     1.0000   1.0000   1.0000   1.0000   1.0000   0.0000   0.0000   0.0000
     0.0000   0.0000   0.0000   0.0000   0.0000   0.0000   0.0000   0.0000
     0.0000   0.0000   0.0000

          k = 0.0000-0.5774 0.0000 ( 11846 PWs)   bands (ev):

   -83.5998 -53.1997 -52.8626 -52.8554 -24.2398 -24.2131 -22.8612 -22.1257
   -17.1597 -16.8848 -13.5592 -13.0601 -12.1763 -11.9708 -11.9322 -10.6057
   -10.0236  -9.2228  -8.7542  -8.4432  -7.3113  -4.0107  -3.6810  -2.3877
    -1.8990  -1.3444  -1.0608   2.1456   2.7601   4.4231   5.1187   5.8258
     6.1779   6.5203   7.2569

     occupation numbers 
     1.0000   1.0000   1.0000   1.0000   1.0000   1.0000   1.0000   1.0000
     1.0000   1.0000   1.0000   1.0000   1.0000   1.0000   1.0000   1.0000
     1.0000   1.0000   1.0000   1.0000   1.0000   0.0000   0.0000   0.0000
     0.0000   0.0000   0.0000   0.0000   0.0000   0.0000   0.0000   0.0000
     0.0000   0.0000   0.0000

          k = 0.1250 0.2165 0.0000 ( 11867 PWs)   bands (ev):

   -83.6000 -53.1245 -52.8485 -52.5887 -26.2304 -26.1449 -23.6925 -22.4180
   -15.0458 -13.0818 -12.8533 -12.2956 -11.6088 -11.3088 -10.9262  -9.9738
    -9.6596  -9.5528  -9.0095  -8.3569  -6.7805  -3.3968  -3.0848  -2.7038
    -1.9046   1.0475   1.2331   2.0132   2.0273   3.4885   3.6387   4.0485
     5.0946   5.7027   6.4690

     occupation numbers 
     1.0000   1.0000   1.0000   1.0000   1.0000   1.0000   1.0000   1.0000
     1.0000   1.0000   1.0000   1.0000   1.0000   1.0000   1.0000   1.0000
     1.0000   1.0000   1.0000   1.0000   1.0000   0.0000   0.0000   0.0000
     0.0000   0.0000   0.0000   0.0000   0.0000   0.0000   0.0000   0.0000
     0.0000   0.0000   0.0000

          k = 0.1250 0.3608 0.0000 ( 11871 PWs)   bands (ev):

   -83.6027 -53.2159 -52.9540 -52.6006 -25.2710 -25.2050 -23.1383 -22.1573
   -15.4510 -14.9648 -13.7879 -12.5718 -12.2951 -11.9825 -11.6111 -10.5851
    -9.6709  -9.3285  -9.0845  -8.6311  -7.1489  -3.7612  -3.4935  -2.3500
    -1.5961   0.1374   0.3700   2.6670   2.7394   3.7949   4.1853   5.1195
     5.7511   6.1935   6.6254

     occupation numbers 
     1.0000   1.0000   1.0000   1.0000   1.0000   1.0000   1.0000   1.0000
     1.0000   1.0000   1.0000   1.0000   1.0000   1.0000   1.0000   1.0000
     1.0000   1.0000   1.0000   1.0000   1.0000   0.0000   0.0000   0.0000
     0.0000   0.0000   0.0000   0.0000   0.0000   0.0000   0.0000   0.0000
     0.0000   0.0000   0.0000

          k = 0.1250 0.5052 0.0000 ( 11841 PWs)   bands (ev):

   -83.6064 -53.1970 -52.9793 -52.7610 -24.2819 -24.2462 -22.8263 -22.0748
   -16.7278 -16.4400 -13.6155 -13.1087 -12.7150 -12.3305 -12.0355 -10.8020
    -9.9129  -9.2704  -9.0755  -8.5489  -7.2524  -4.1065  -3.4703  -2.0870
    -1.7523  -0.7231  -0.3383   2.7308   3.2511   3.9501   4.3510   5.3755
     6.2338   6.3134   7.0529

     occupation numbers 
     1.0000   1.0000   1.0000   1.0000   1.0000   1.0000   1.0000   1.0000
     1.0000   1.0000   1.0000   1.0000   1.0000   1.0000   1.0000   1.0000
     1.0000   1.0000   1.0000   1.0000   1.0000   0.0000   0.0000   0.0000
     0.0000   0.0000   0.0000   0.0000   0.0000   0.0000   0.0000   0.0000
     0.0000   0.0000   0.0000

          k = 0.2500 0.4330 0.0000 ( 11844 PWs)   bands (ev):

   -83.6138 -53.1801 -53.1208 -52.6580 -24.3245 -24.2814 -22.7975 -22.0299
   -16.1279 -15.7819 -14.0054 -13.7999 -13.2887 -11.9823 -11.8359 -11.1878
   -10.0790  -9.5779  -9.0424  -8.5243  -7.3327  -4.0052  -3.4130  -2.1497
    -1.6658   0.5053   0.7404   2.6205   3.0285   4.4548   4.7121   5.0805
     5.4754   6.1224   6.8620

     occupation numbers 
     1.0000   1.0000   1.0000   1.0000   1.0000   1.0000   1.0000   1.0000
     1.0000   1.0000   1.0000   1.0000   1.0000   1.0000   1.0000   1.0000
     1.0000   1.0000   1.0000   1.0000   1.0000   0.0000   0.0000   0.0000
     0.0000   0.0000   0.0000   0.0000   0.0000   0.0000   0.0000   0.0000
     0.0000   0.0000   0.0000

          k = 0.2500 0.5774 0.0000 ( 11800 PWs)   bands (ev):

   -83.6031 -53.2076 -53.1349 -52.6269 -23.7835 -23.7559 -22.7484 -22.0513
   -16.3800 -16.0483 -14.6479 -14.5199 -12.8142 -12.3613 -12.1085 -10.8398
   -10.5805  -9.9952  -8.9873  -8.3418  -6.9630  -4.4057  -3.2515  -2.0456
    -1.7594   0.2874   0.6864   2.8439   3.2815   4.3314   4.7380   5.2490
     5.8546   6.3478   6.4451

     occupation numbers 
     1.0000   1.0000   1.0000   1.0000   1.0000   1.0000   1.0000   1.0000
     1.0000   1.0000   1.0000   1.0000   1.0000   1.0000   1.0000   1.0000
     1.0000   1.0000   1.0000   1.0000   1.0000   0.0000   0.0000   0.0000
     0.0000   0.0000   0.0000   0.0000   0.0000   0.0000   0.0000   0.0000
     0.0000   0.0000   0.0000

          k =-0.1250 0.0722 0.0000 ( 11905 PWs)   bands (ev):

   -83.5986 -52.9343 -52.7624 -52.7322 -26.7833 -26.6893 -24.0835 -22.6117
   -15.3914 -12.6005 -11.5949 -11.5321 -10.6933 -10.6653 -10.5396 -10.2728
    -9.7549  -8.8984  -8.7576  -8.3031  -6.5868  -2.9433  -2.7405  -2.7143
    -2.3880   0.5042   0.7307   2.4394   2.4917   3.0542   3.2426   3.5281
     4.6776   4.7397   5.1339

     occupation numbers 
     1.0000   1.0000   1.0000   1.0000   1.0000   1.0000   1.0000   1.0000
     1.0000   1.0000   1.0000   1.0000   1.0000   1.0000   1.0000   1.0000
     1.0000   1.0000   1.0000   1.0000   1.0000   0.0000   0.0000   0.0000
     0.0000   0.0000   0.0000   0.0000   0.0000   0.0000   0.0000   0.0000
     0.0000   0.0000   0.0000

          k = 0.1250 0.0722 0.0000 ( 11905 PWs)   bands (ev):

   -83.5986 -52.9343 -52.7624 -52.7322 -26.7833 -26.6893 -24.0835 -22.6117
   -15.3914 -12.6005 -11.5948 -11.5320 -10.6934 -10.6654 -10.5396 -10.2728
    -9.7549  -8.8982  -8.7578  -8.3031  -6.5868  -2.9432  -2.7406  -2.7144
    -2.3878   0.5043   0.7307   2.4394   2.4917   3.0542   3.2426   3.5281
     4.6776   4.7396   5.1339

     occupation numbers 
     1.0000   1.0000   1.0000   1.0000   1.0000   1.0000   1.0000   1.0000
     1.0000   1.0000   1.0000   1.0000   1.0000   1.0000   1.0000   1.0000
     1.0000   1.0000   1.0000   1.0000   1.0000   0.0000   0.0000   0.0000
     0.0000   0.0000   0.0000   0.0000   0.0000   0.0000   0.0000   0.0000
     0.0000   0.0000   0.0000

          k =-0.2500 0.1443 0.0000 ( 11885 PWs)   bands (ev):

   -83.6092 -53.1960 -52.8330 -52.6313 -25.9782 -25.8985 -23.5235 -22.3319
   -15.0328 -13.8368 -13.4731 -12.2914 -11.5646 -11.2206 -11.2110  -9.9332
    -9.6383  -9.3533  -9.2548  -8.4991  -6.9036  -3.5593  -3.2463  -2.4599
    -1.8626   0.1116   0.3010   2.4285   2.5718   3.4915   3.9964   5.0899
     5.9021   6.1092   6.2879

     occupation numbers 
     1.0000   1.0000   1.0000   1.0000   1.0000   1.0000   1.0000   1.0000
     1.0000   1.0000   1.0000   1.0000   1.0000   1.0000   1.0000   1.0000
     1.0000   1.0000   1.0000   1.0000   1.0000   0.0000   0.0000   0.0000
     0.0000   0.0000   0.0000   0.0000   0.0000   0.0000   0.0000   0.0000
     0.0000   0.0000   0.0000

          k = 0.2500 0.1443 0.0000 ( 11885 PWs)   bands (ev):

   -83.6092 -53.1960 -52.8330 -52.6314 -25.9782 -25.8985 -23.5235 -22.3318
   -15.0328 -13.8368 -13.4730 -12.2913 -11.5646 -11.2207 -11.2110  -9.9332
    -9.6383  -9.3534  -9.2549  -8.4990  -6.9035  -3.5593  -3.2463  -2.4600
    -1.8625   0.1116   0.3010   2.4285   2.5718   3.4915   3.9964   5.0899
     5.9021   6.1092   6.2878

     occupation numbers 
     1.0000   1.0000   1.0000   1.0000   1.0000   1.0000   1.0000   1.0000
     1.0000   1.0000   1.0000   1.0000   1.0000   1.0000   1.0000   1.0000
     1.0000   1.0000   1.0000   1.0000   1.0000   0.0000   0.0000   0.0000
     0.0000   0.0000   0.0000   0.0000   0.0000   0.0000   0.0000   0.0000
     0.0000   0.0000   0.0000

          k =-0.3750 0.2165 0.0000 ( 11860 PWs)   bands (ev):

   -83.6039 -53.2497 -52.8425 -52.7457 -24.9041 -24.8504 -22.9908 -22.1111
   -16.2450 -15.9316 -13.8300 -12.6005 -12.0658 -11.7472 -11.7152 -10.4095
    -9.8223  -9.4658  -8.6994  -8.6885  -7.1315  -4.0131  -3.6255  -2.2419
    -1.4763  -1.2819  -0.7758   2.4297   2.9895   4.0198   4.2989   5.7888
     6.4122   6.6150   7.1622

     occupation numbers 
     1.0000   1.0000   1.0000   1.0000   1.0000   1.0000   1.0000   1.0000
     1.0000   1.0000   1.0000   1.0000   1.0000   1.0000   1.0000   1.0000
     1.0000   1.0000   1.0000   1.0000   1.0000   0.0000   0.0000   0.0000
     0.0000   0.0000   0.0000   0.0000   0.0000   0.0000   0.0000   0.0000
     0.0000   0.0000   0.0000

          k = 0.3750 0.2165 0.0000 ( 11860 PWs)   bands (ev):

   -83.6039 -53.2497 -52.8425 -52.7457 -24.9041 -24.8504 -22.9908 -22.1110
   -16.2449 -15.9316 -13.8300 -12.6005 -12.0658 -11.7473 -11.7153 -10.4095
    -9.8224  -9.4658  -8.6994  -8.6885  -7.1314  -4.0131  -3.6255  -2.2419
    -1.4762  -1.2819  -0.7758   2.4296   2.9895   4.0198   4.2989   5.7888
     6.4123   6.6150   7.1622

     occupation numbers 
     1.0000   1.0000   1.0000   1.0000   1.0000   1.0000   1.0000   1.0000
     1.0000   1.0000   1.0000   1.0000   1.0000   1.0000   1.0000   1.0000
     1.0000   1.0000   1.0000   1.0000   1.0000   0.0000   0.0000   0.0000
     0.0000   0.0000   0.0000   0.0000   0.0000   0.0000   0.0000   0.0000
     0.0000   0.0000   0.0000

          k = 0.5000-0.2887 0.0000 ( 11846 PWs)   bands (ev):

   -83.5998 -53.1997 -52.8626 -52.8554 -24.2398 -24.2131 -22.8611 -22.1257
   -17.1597 -16.8848 -13.5592 -13.0600 -12.1763 -11.9707 -11.9321 -10.6057
   -10.0235  -9.2227  -8.7542  -8.4431  -7.3114  -4.0108  -3.6810  -2.3876
    -1.8990  -1.3445  -1.0608   2.1456   2.7600   4.4231   5.1187   5.8258
     6.1778   6.5203   7.2570

     occupation numbers 
     1.0000   1.0000   1.0000   1.0000   1.0000   1.0000   1.0000   1.0000
     1.0000   1.0000   1.0000   1.0000   1.0000   1.0000   1.0000   1.0000
     1.0000   1.0000   1.0000   1.0000   1.0000   0.0000   0.0000   0.0000
     0.0000   0.0000   0.0000   0.0000   0.0000   0.0000   0.0000   0.0000
     0.0000   0.0000   0.0000

          k =-0.5000-0.2887 0.0000 ( 11846 PWs)   bands (ev):

   -83.5998 -53.1997 -52.8626 -52.8554 -24.2398 -24.2131 -22.8612 -22.1257
   -17.1597 -16.8848 -13.5592 -13.0601 -12.1763 -11.9708 -11.9322 -10.6057
   -10.0236  -9.2228  -8.7542  -8.4432  -7.3113  -4.0108  -3.6810  -2.3877
    -1.8990  -1.3444  -1.0608   2.1456   2.7600   4.4231   5.1187   5.8258
     6.1779   6.5203   7.2569

     occupation numbers 
     1.0000   1.0000   1.0000   1.0000   1.0000   1.0000   1.0000   1.0000
     1.0000   1.0000   1.0000   1.0000   1.0000   1.0000   1.0000   1.0000
     1.0000   1.0000   1.0000   1.0000   1.0000   0.0000   0.0000   0.0000
     0.0000   0.0000   0.0000   0.0000   0.0000   0.0000   0.0000   0.0000
     0.0000   0.0000   0.0000

          k =-0.1250 0.2165 0.0000 ( 11867 PWs)   bands (ev):

   -83.6000 -53.1245 -52.8485 -52.5887 -26.2304 -26.1449 -23.6925 -22.4180
   -15.0458 -13.0818 -12.8533 -12.2956 -11.6088 -11.3087 -10.9262  -9.9738
    -9.6596  -9.5527  -9.0096  -8.3568  -6.7805  -3.3968  -3.0848  -2.7038
    -1.9047   1.0475   1.2331   2.0133   2.0273   3.4885   3.6387   4.0485
     5.0946   5.7027   6.4690

     occupation numbers 
     1.0000   1.0000   1.0000   1.0000   1.0000   1.0000   1.0000   1.0000
     1.0000   1.0000   1.0000   1.0000   1.0000   1.0000   1.0000   1.0000
     1.0000   1.0000   1.0000   1.0000   1.0000   0.0000   0.0000   0.0000
     0.0000   0.0000   0.0000   0.0000   0.0000   0.0000   0.0000   0.0000
     0.0000   0.0000   0.0000

          k = 0.2500-0.0000 0.0000 ( 11867 PWs)   bands (ev):

   -83.6000 -53.1245 -52.8485 -52.5887 -26.2304 -26.1449 -23.6925 -22.4180
   -15.0458 -13.0818 -12.8533 -12.2956 -11.6088 -11.3087 -10.9262  -9.9738
    -9.6596  -9.5527  -9.0096  -8.3568  -6.7805  -3.3968  -3.0848  -2.7038
    -1.9047   1.0475   1.2332   2.0133   2.0273   3.4885   3.6387   4.0485
     5.0945   5.7027   6.4691

     occupation numbers 
     1.0000   1.0000   1.0000   1.0000   1.0000   1.0000   1.0000   1.0000
     1.0000   1.0000   1.0000   1.0000   1.0000   1.0000   1.0000   1.0000
     1.0000   1.0000   1.0000   1.0000   1.0000   0.0000   0.0000   0.0000
     0.0000   0.0000   0.0000   0.0000   0.0000   0.0000   0.0000   0.0000
     0.0000   0.0000   0.0000

          k =-0.1250 0.3608 0.0000 ( 11871 PWs)   bands (ev):

   -83.6027 -53.2159 -52.9540 -52.6006 -25.2710 -25.2050 -23.1383 -22.1573
   -15.4510 -14.9648 -13.7879 -12.5718 -12.2951 -11.9825 -11.6111 -10.5851
    -9.6709  -9.3285  -9.0844  -8.6311  -7.1490  -3.7612  -3.4935  -2.3500
    -1.5960   0.1374   0.3700   2.6670   2.7394   3.7949   4.1853   5.1196
     5.7511   6.1935   6.6254

     occupation numbers 
     1.0000   1.0000   1.0000   1.0000   1.0000   1.0000   1.0000   1.0000
     1.0000   1.0000   1.0000   1.0000   1.0000   1.0000   1.0000   1.0000
     1.0000   1.0000   1.0000   1.0000   1.0000   0.0000   0.0000   0.0000
     0.0000   0.0000   0.0000   0.0000   0.0000   0.0000   0.0000   0.0000
     0.0000   0.0000   0.0000

          k =-0.2500 0.2887 0.0000 ( 11871 PWs)   bands (ev):

   -83.6027 -53.2159 -52.9540 -52.6006 -25.2710 -25.2050 -23.1383 -22.1574
   -15.4510 -14.9649 -13.7879 -12.5718 -12.2950 -11.9825 -11.6111 -10.5850
    -9.6709  -9.3285  -9.0844  -8.6311  -7.1490  -3.7612  -3.4935  -2.3500
    -1.5961   0.1374   0.3700   2.6670   2.7394   3.7948   4.1852   5.1196
     5.7511   6.1935   6.6253

     occupation numbers 
     1.0000   1.0000   1.0000   1.0000   1.0000   1.0000   1.0000   1.0000
     1.0000   1.0000   1.0000   1.0000   1.0000   1.0000   1.0000   1.0000
     1.0000   1.0000   1.0000   1.0000   1.0000   0.0000   0.0000   0.0000
     0.0000   0.0000   0.0000   0.0000   0.0000   0.0000   0.0000   0.0000
     0.0000   0.0000   0.0000

          k = 0.3750 0.0722 0.0000 ( 11871 PWs)   bands (ev):

   -83.6027 -53.2159 -52.9540 -52.6006 -25.2710 -25.2050 -23.1383 -22.1573
   -15.4510 -14.9648 -13.7879 -12.5718 -12.2951 -11.9825 -11.6111 -10.5851
    -9.6709  -9.3285  -9.0844  -8.6311  -7.1490  -3.7612  -3.4935  -2.3500
    -1.5960   0.1374   0.3700   2.6670   2.7394   3.7949   4.1853   5.1196
     5.7511   6.1936   6.6254

     occupation numbers 
     1.0000   1.0000   1.0000   1.0000   1.0000   1.0000   1.0000   1.0000
     1.0000   1.0000   1.0000   1.0000   1.0000   1.0000   1.0000   1.0000
     1.0000   1.0000   1.0000   1.0000   1.0000   0.0000   0.0000   0.0000
     0.0000   0.0000   0.0000   0.0000   0.0000   0.0000   0.0000   0.0000
     0.0000   0.0000   0.0000

          k =-0.2500-0.2887 0.0000 ( 11871 PWs)   bands (ev):

   -83.6027 -53.2159 -52.9540 -52.6006 -25.2710 -25.2050 -23.1383 -22.1573
   -15.4510 -14.9648 -13.7879 -12.5718 -12.2951 -11.9825 -11.6111 -10.5851
    -9.6709  -9.3285  -9.0845  -8.6311  -7.1489  -3.7612  -3.4935  -2.3500
    -1.5961   0.1374   0.3700   2.6670   2.7394   3.7948   4.1852   5.1196
     5.7511   6.1935   6.6254

     occupation numbers 
     1.0000   1.0000   1.0000   1.0000   1.0000   1.0000   1.0000   1.0000
     1.0000   1.0000   1.0000   1.0000   1.0000   1.0000   1.0000   1.0000
     1.0000   1.0000   1.0000   1.0000   1.0000   0.0000   0.0000   0.0000
     0.0000   0.0000   0.0000   0.0000   0.0000   0.0000   0.0000   0.0000
     0.0000   0.0000   0.0000

          k = 0.3750-0.0722 0.0000 ( 11871 PWs)   bands (ev):

   -83.6027 -53.2159 -52.9540 -52.6006 -25.2710 -25.2050 -23.1383 -22.1574
   -15.4510 -14.9649 -13.7879 -12.5718 -12.2950 -11.9825 -11.6111 -10.5850
    -9.6709  -9.3285  -9.0844  -8.6311  -7.1490  -3.7612  -3.4935  -2.3500
    -1.5960   0.1374   0.3700   2.6670   2.7394   3.7948   4.1853   5.1196
     5.7511   6.1935   6.6253

     occupation numbers 
     1.0000   1.0000   1.0000   1.0000   1.0000   1.0000   1.0000   1.0000
     1.0000   1.0000   1.0000   1.0000   1.0000   1.0000   1.0000   1.0000
     1.0000   1.0000   1.0000   1.0000   1.0000   0.0000   0.0000   0.0000
     0.0000   0.0000   0.0000   0.0000   0.0000   0.0000   0.0000   0.0000
     0.0000   0.0000   0.0000

          k =-0.1250 0.5052 0.0000 ( 11841 PWs)   bands (ev):

   -83.6064 -53.1970 -52.9793 -52.7610 -24.2819 -24.2462 -22.8263 -22.0748
   -16.7278 -16.4401 -13.6155 -13.1087 -12.7150 -12.3305 -12.0355 -10.8021
    -9.9129  -9.2704  -9.0755  -8.5489  -7.2524  -4.1065  -3.4703  -2.0870
    -1.7523  -0.7231  -0.3383   2.7308   3.2511   3.9501   4.3510   5.3755
     6.2339   6.3133   7.0529

     occupation numbers 
     1.0000   1.0000   1.0000   1.0000   1.0000   1.0000   1.0000   1.0000
     1.0000   1.0000   1.0000   1.0000   1.0000   1.0000   1.0000   1.0000
     1.0000   1.0000   1.0000   1.0000   1.0000   0.0000   0.0000   0.0000
     0.0000   0.0000   0.0000   0.0000   0.0000   0.0000   0.0000   0.0000
     0.0000   0.0000   0.0000

          k =-0.3750 0.3608 0.0000 ( 11841 PWs)   bands (ev):

   -83.6064 -53.1970 -52.9793 -52.7610 -24.2819 -24.2462 -22.8262 -22.0748
   -16.7279 -16.4401 -13.6155 -13.1086 -12.7150 -12.3304 -12.0355 -10.8020
    -9.9128  -9.2703  -9.0754  -8.5489  -7.2524  -4.1066  -3.4704  -2.0869
    -1.7523  -0.7231  -0.3383   2.7309   3.2511   3.9501   4.3510   5.3755
     6.2338   6.3133   7.0530

     occupation numbers 
     1.0000   1.0000   1.0000   1.0000   1.0000   1.0000   1.0000   1.0000
     1.0000   1.0000   1.0000   1.0000   1.0000   1.0000   1.0000   1.0000
     1.0000   1.0000   1.0000   1.0000   1.0000   0.0000   0.0000   0.0000
     0.0000   0.0000   0.0000   0.0000   0.0000   0.0000   0.0000   0.0000
     0.0000   0.0000   0.0000

          k = 0.5000 0.1443 0.0000 ( 11841 PWs)   bands (ev):

   -83.6064 -53.1970 -52.9793 -52.7610 -24.2819 -24.2462 -22.8262 -22.0748
   -16.7278 -16.4401 -13.6155 -13.1087 -12.7150 -12.3305 -12.0355 -10.8021
    -9.9129  -9.2704  -9.0754  -8.5489  -7.2524  -4.1065  -3.4703  -2.0870
    -1.7523  -0.7231  -0.3383   2.7308   3.2510   3.9501   4.3510   5.3756
     6.2338   6.3134   7.0529

     occupation numbers 
     1.0000   1.0000   1.0000   1.0000   1.0000   1.0000   1.0000   1.0000
     1.0000   1.0000   1.0000   1.0000   1.0000   1.0000   1.0000   1.0000
     1.0000   1.0000   1.0000   1.0000   1.0000   0.0000   0.0000   0.0000
     0.0000   0.0000   0.0000   0.0000   0.0000   0.0000   0.0000   0.0000
     0.0000   0.0000   0.0000

          k =-0.3750-0.3608 0.0000 ( 11841 PWs)   bands (ev):

   -83.6064 -53.1970 -52.9793 -52.7610 -24.2819 -24.2462 -22.8262 -22.0747
   -16.7278 -16.4401 -13.6155 -13.1086 -12.7150 -12.3305 -12.0355 -10.8020
    -9.9129  -9.2704  -9.0755  -8.5489  -7.2524  -4.1065  -3.4703  -2.0870
    -1.7523  -0.7231  -0.3382   2.7308   3.2511   3.9501   4.3510   5.3755
     6.2338   6.3134   7.0530

     occupation numbers 
     1.0000   1.0000   1.0000   1.0000   1.0000   1.0000   1.0000   1.0000
     1.0000   1.0000   1.0000   1.0000   1.0000   1.0000   1.0000   1.0000
     1.0000   1.0000   1.0000   1.0000   1.0000   0.0000   0.0000   0.0000
     0.0000   0.0000   0.0000   0.0000   0.0000   0.0000   0.0000   0.0000
     0.0000   0.0000   0.0000

          k = 0.5000-0.1443 0.0000 ( 11841 PWs)   bands (ev):

   -83.6064 -53.1970 -52.9793 -52.7610 -24.2819 -24.2462 -22.8262 -22.0748
   -16.7279 -16.4401 -13.6155 -13.1086 -12.7150 -12.3304 -12.0355 -10.8020
    -9.9128  -9.2704  -9.0754  -8.5489  -7.2524  -4.1066  -3.4704  -2.0870
    -1.7523  -0.7231  -0.3383   2.7308   3.2510   3.9501   4.3510   5.3756
     6.2338   6.3133   7.0529

     occupation numbers 
     1.0000   1.0000   1.0000   1.0000   1.0000   1.0000   1.0000   1.0000
     1.0000   1.0000   1.0000   1.0000   1.0000   1.0000   1.0000   1.0000
     1.0000   1.0000   1.0000   1.0000   1.0000   0.0000   0.0000   0.0000
     0.0000   0.0000   0.0000   0.0000   0.0000   0.0000   0.0000   0.0000
     0.0000   0.0000   0.0000

          k =-0.2500 0.4330 0.0000 ( 11844 PWs)   bands (ev):

   -83.6138 -53.1801 -53.1208 -52.6580 -24.3245 -24.2814 -22.7975 -22.0299
   -16.1280 -15.7820 -14.0053 -13.7998 -13.2887 -11.9823 -11.8359 -11.1878
   -10.0790  -9.5778  -9.0424  -8.5243  -7.3328  -4.0053  -3.4130  -2.1497
    -1.6657   0.5054   0.7404   2.6205   3.0285   4.4548   4.7121   5.0806
     5.4753   6.1225   6.8619

     occupation numbers 
     1.0000   1.0000   1.0000   1.0000   1.0000   1.0000   1.0000   1.0000
     1.0000   1.0000   1.0000   1.0000   1.0000   1.0000   1.0000   1.0000
     1.0000   1.0000   1.0000   1.0000   1.0000   0.0000   0.0000   0.0000
     0.0000   0.0000   0.0000   0.0000   0.0000   0.0000   0.0000   0.0000
     0.0000   0.0000   0.0000

          k = 0.5000-0.0000 0.0000 ( 11844 PWs)   bands (ev):

   -83.6138 -53.1801 -53.1208 -52.6580 -24.3245 -24.2814 -22.7975 -22.0299
   -16.1280 -15.7820 -14.0054 -13.7998 -13.2887 -11.9823 -11.8359 -11.1878
   -10.0790  -9.5778  -9.0424  -8.5243  -7.3328  -4.0053  -3.4130  -2.1497
    -1.6657   0.5054   0.7404   2.6205   3.0285   4.4548   4.7121   5.0806
     5.4753   6.1225   6.8619

     occupation numbers 
     1.0000   1.0000   1.0000   1.0000   1.0000   1.0000   1.0000   1.0000
     1.0000   1.0000   1.0000   1.0000   1.0000   1.0000   1.0000   1.0000
     1.0000   1.0000   1.0000   1.0000   1.0000   0.0000   0.0000   0.0000
     0.0000   0.0000   0.0000   0.0000   0.0000   0.0000   0.0000   0.0000
     0.0000   0.0000   0.0000

          k =-0.3750 0.5052 0.0000 ( 11800 PWs)   bands (ev):

   -83.6031 -53.2076 -53.1349 -52.6269 -23.7835 -23.7559 -22.7484 -22.0513
   -16.3800 -16.0483 -14.6478 -14.5199 -12.8142 -12.3613 -12.1085 -10.8398
   -10.5804  -9.9952  -8.9873  -8.3418  -6.9630  -4.4057  -3.2515  -2.0456
    -1.7594   0.2874   0.6863   2.8439   3.2815   4.3314   4.7380   5.2490
     5.8545   6.3478   6.4452

     occupation numbers 
     1.0000   1.0000   1.0000   1.0000   1.0000   1.0000   1.0000   1.0000
     1.0000   1.0000   1.0000   1.0000   1.0000   1.0000   1.0000   1.0000
     1.0000   1.0000   1.0000   1.0000   1.0000   0.0000   0.0000   0.0000
     0.0000   0.0000   0.0000   0.0000   0.0000   0.0000   0.0000   0.0000
     0.0000   0.0000   0.0000

          k = 0.6250 0.0722 0.0000 ( 11800 PWs)   bands (ev):

   -83.6031 -53.2076 -53.1349 -52.6269 -23.7835 -23.7559 -22.7484 -22.0513
   -16.3800 -16.0483 -14.6479 -14.5199 -12.8142 -12.3613 -12.1085 -10.8398
   -10.5805  -9.9952  -8.9873  -8.3418  -6.9630  -4.4057  -3.2515  -2.0456
    -1.7594   0.2874   0.6864   2.8439   3.2815   4.3314   4.7380   5.2490
     5.8546   6.3479   6.4452

     occupation numbers 
     1.0000   1.0000   1.0000   1.0000   1.0000   1.0000   1.0000   1.0000
     1.0000   1.0000   1.0000   1.0000   1.0000   1.0000   1.0000   1.0000
     1.0000   1.0000   1.0000   1.0000   1.0000   0.0000   0.0000   0.0000
     0.0000   0.0000   0.0000   0.0000   0.0000   0.0000   0.0000   0.0000
     0.0000   0.0000   0.0000

     highest occupied, lowest unoccupied level (ev):    -6.5713   -4.4057

!    total energy              =    -263.21054275 Ry
     estimated scf accuracy    <          1.8E-11 Ry

     convergence has been achieved in   3 iterations

     Using ACE for calculation of exact exchange
     ACE projected onto    35 (nbndproj) and applied to    35 (nbnd) bands

     total energy              =    -263.21054276 Ry
     Harris-Foulkes estimate   =    -263.21054276 Ry
     est. exchange err (dexx)  =          8.7E-09 Ry
     - averaged Fock potential =      17.84083746 Ry
     + Fock energy (ACE)       =      -8.92042305 Ry

     EXX: now go back to refine exchange calculation

     total cpu time spent up to now is     6419.7 secs

     Self-consistent Calculation

     iteration #  1     ecut=    80.00 Ry     beta= 0.50
     Davidson diagonalization with overlap

---- Real-time Memory Report at c_bands before calling an iterative solver
          2135 MiB given to the printing process from OS
             0 MiB allocation reported by mallinfo(arena+hblkhd)
         12880 MiB available memory on the node where the printing process lives
------------------
     ethr =  2.25E-12,  avg # of iterations =  3.2

     total cpu time spent up to now is     6428.5 secs

     total energy              =    -263.21054276 Ry
     estimated scf accuracy    <          6.8E-10 Ry

     iteration #  2     ecut=    80.00 Ry     beta= 0.50
     Davidson diagonalization with overlap

---- Real-time Memory Report at c_bands before calling an iterative solver
          2135 MiB given to the printing process from OS
             0 MiB allocation reported by mallinfo(arena+hblkhd)
         12861 MiB available memory on the node where the printing process lives
------------------
     ethr =  1.62E-12,  avg # of iterations =  2.0

     total cpu time spent up to now is     6436.0 secs

     total energy              =    -263.21054276 Ry
     estimated scf accuracy    <          5.9E-09 Ry

     iteration #  3     ecut=    80.00 Ry     beta= 0.50
     Davidson diagonalization with overlap

---- Real-time Memory Report at c_bands before calling an iterative solver
          2135 MiB given to the printing process from OS
             0 MiB allocation reported by mallinfo(arena+hblkhd)
         12860 MiB available memory on the node where the printing process lives
------------------
     ethr =  1.62E-12,  avg # of iterations =  2.0

     total cpu time spent up to now is     6443.3 secs

     End of self-consistent calculation

          k = 0.0000 0.0000 0.0000 ( 11937 PWs)   bands (ev):

   -83.5879 -52.8394 -52.7331 -52.7331 -27.0867 -26.9889 -24.3179 -22.7306
   -15.6434 -12.7266 -10.6451 -10.4743 -10.4743 -10.4277 -10.4276  -9.9056
    -9.9055  -8.4931  -8.4928  -8.4910  -6.5713  -2.6779  -2.6777  -2.4419
    -2.4418  -0.2224   0.1109   2.3491   2.3826   2.5027   4.0139   4.0140
     4.0684   4.0685   4.2611

     occupation numbers 
     1.0000   1.0000   1.0000   1.0000   1.0000   1.0000   1.0000   1.0000
     1.0000   1.0000   1.0000   1.0000   1.0000   1.0000   1.0000   1.0000
     1.0000   1.0000   1.0000   1.0000   1.0000   0.0000   0.0000   0.0000
     0.0000   0.0000   0.0000   0.0000   0.0000   0.0000   0.0000   0.0000
     0.0000   0.0000   0.0000

          k = 0.0000 0.1443 0.0000 ( 11905 PWs)   bands (ev):

   -83.5986 -52.9343 -52.7623 -52.7323 -26.7833 -26.6893 -24.0835 -22.6117
   -15.3914 -12.6005 -11.5948 -11.5320 -10.6934 -10.6654 -10.5395 -10.2728
    -9.7548  -8.8982  -8.7578  -8.3030  -6.5869  -2.9433  -2.7405  -2.7143
    -2.3878   0.5042   0.7307   2.4394   2.4917   3.0542   3.2426   3.5281
     4.6776   4.7397   5.1339

     occupation numbers 
     1.0000   1.0000   1.0000   1.0000   1.0000   1.0000   1.0000   1.0000
     1.0000   1.0000   1.0000   1.0000   1.0000   1.0000   1.0000   1.0000
     1.0000   1.0000   1.0000   1.0000   1.0000   0.0000   0.0000   0.0000
     0.0000   0.0000   0.0000   0.0000   0.0000   0.0000   0.0000   0.0000
     0.0000   0.0000   0.0000

          k = 0.0000 0.2887 0.0000 ( 11885 PWs)   bands (ev):

   -83.6092 -53.1960 -52.8331 -52.6311 -25.9782 -25.8985 -23.5235 -22.3318
   -15.0328 -13.8368 -13.4730 -12.2913 -11.5647 -11.2207 -11.2110  -9.9332
    -9.6383  -9.3533  -9.2549  -8.4990  -6.9033  -3.5594  -3.2462  -2.4600
    -1.8625   0.1116   0.3010   2.4285   2.5718   3.4916   3.9965   5.0899
     5.9021   6.1092   6.2879

     occupation numbers 
     1.0000   1.0000   1.0000   1.0000   1.0000   1.0000   1.0000   1.0000
     1.0000   1.0000   1.0000   1.0000   1.0000   1.0000   1.0000   1.0000
     1.0000   1.0000   1.0000   1.0000   1.0000   0.0000   0.0000   0.0000
     0.0000   0.0000   0.0000   0.0000   0.0000   0.0000   0.0000   0.0000
     0.0000   0.0000   0.0000

          k = 0.0000 0.4330 0.0000 ( 11860 PWs)   bands (ev):

   -83.6038 -53.2498 -52.8424 -52.7457 -24.9041 -24.8504 -22.9908 -22.1110
   -16.2449 -15.9316 -13.8300 -12.6005 -12.0658 -11.7473 -11.7153 -10.4095
    -9.8224  -9.4658  -8.6994  -8.6884  -7.1316  -4.0132  -3.6254  -2.2419
    -1.4762  -1.2819  -0.7758   2.4297   2.9896   4.0198   4.2989   5.7887
     6.4123   6.6150   7.1622

     occupation numbers 
     1.0000   1.0000   1.0000   1.0000   1.0000   1.0000   1.0000   1.0000
     1.0000   1.0000   1.0000   1.0000   1.0000   1.0000   1.0000   1.0000
     1.0000   1.0000   1.0000   1.0000   1.0000   0.0000   0.0000   0.0000
     0.0000   0.0000   0.0000   0.0000   0.0000   0.0000   0.0000   0.0000
     0.0000   0.0000   0.0000

          k = 0.0000-0.5774 0.0000 ( 11846 PWs)   bands (ev):

   -83.5998 -53.1997 -52.8625 -52.8554 -24.2398 -24.2131 -22.8612 -22.1257
   -17.1597 -16.8848 -13.5592 -13.0601 -12.1762 -11.9708 -11.9322 -10.6057
   -10.0236  -9.2228  -8.7541  -8.4432  -7.3113  -4.0107  -3.6809  -2.3876
    -1.8990  -1.3444  -1.0608   2.1456   2.7601   4.4231   5.1187   5.8258
     6.1779   6.5203   7.2569

     occupation numbers 
     1.0000   1.0000   1.0000   1.0000   1.0000   1.0000   1.0000   1.0000
     1.0000   1.0000   1.0000   1.0000   1.0000   1.0000   1.0000   1.0000
     1.0000   1.0000   1.0000   1.0000   1.0000   0.0000   0.0000   0.0000
     0.0000   0.0000   0.0000   0.0000   0.0000   0.0000   0.0000   0.0000
     0.0000   0.0000   0.0000

          k = 0.1250 0.2165 0.0000 ( 11867 PWs)   bands (ev):

   -83.6000 -53.1245 -52.8484 -52.5886 -26.2304 -26.1449 -23.6925 -22.4180
   -15.0458 -13.0818 -12.8533 -12.2956 -11.6088 -11.3088 -10.9262  -9.9738
    -9.6596  -9.5528  -9.0095  -8.3568  -6.7804  -3.3969  -3.0847  -2.7038
    -1.9046   1.0475   1.2331   2.0133   2.0273   3.4885   3.6387   4.0485
     5.0946   5.7027   6.4690

     occupation numbers 
     1.0000   1.0000   1.0000   1.0000   1.0000   1.0000   1.0000   1.0000
     1.0000   1.0000   1.0000   1.0000   1.0000   1.0000   1.0000   1.0000
     1.0000   1.0000   1.0000   1.0000   1.0000   0.0000   0.0000   0.0000
     0.0000   0.0000   0.0000   0.0000   0.0000   0.0000   0.0000   0.0000
     0.0000   0.0000   0.0000

          k = 0.1250 0.3608 0.0000 ( 11871 PWs)   bands (ev):

   -83.6026 -53.2159 -52.9540 -52.6006 -25.2710 -25.2050 -23.1383 -22.1573
   -15.4510 -14.9648 -13.7879 -12.5718 -12.2951 -11.9825 -11.6111 -10.5851
    -9.6709  -9.3285  -9.0845  -8.6311  -7.1489  -3.7611  -3.4935  -2.3500
    -1.5960   0.1374   0.3700   2.6670   2.7394   3.7949   4.1853   5.1195
     5.7511   6.1935   6.6254

     occupation numbers 
     1.0000   1.0000   1.0000   1.0000   1.0000   1.0000   1.0000   1.0000
     1.0000   1.0000   1.0000   1.0000   1.0000   1.0000   1.0000   1.0000
     1.0000   1.0000   1.0000   1.0000   1.0000   0.0000   0.0000   0.0000
     0.0000   0.0000   0.0000   0.0000   0.0000   0.0000   0.0000   0.0000
     0.0000   0.0000   0.0000

          k = 0.1250 0.5052 0.0000 ( 11841 PWs)   bands (ev):

   -83.6064 -53.1970 -52.9793 -52.7610 -24.2819 -24.2462 -22.8262 -22.0748
   -16.7278 -16.4400 -13.6155 -13.1087 -12.7150 -12.3305 -12.0355 -10.8020
    -9.9129  -9.2704  -9.0755  -8.5489  -7.2525  -4.1065  -3.4702  -2.0870
    -1.7523  -0.7231  -0.3382   2.7308   3.2511   3.9501   4.3510   5.3755
     6.2338   6.3134   7.0529

     occupation numbers 
     1.0000   1.0000   1.0000   1.0000   1.0000   1.0000   1.0000   1.0000
     1.0000   1.0000   1.0000   1.0000   1.0000   1.0000   1.0000   1.0000
     1.0000   1.0000   1.0000   1.0000   1.0000   0.0000   0.0000   0.0000
     0.0000   0.0000   0.0000   0.0000   0.0000   0.0000   0.0000   0.0000
     0.0000   0.0000   0.0000

          k = 0.2500 0.4330 0.0000 ( 11844 PWs)   bands (ev):

   -83.6138 -53.1801 -53.1209 -52.6578 -24.3245 -24.2814 -22.7975 -22.0299
   -16.1279 -15.7819 -14.0054 -13.7999 -13.2887 -11.9823 -11.8359 -11.1878
   -10.0790  -9.5778  -9.0424  -8.5243  -7.3328  -4.0049  -3.4132  -2.1496
    -1.6658   0.5053   0.7404   2.6205   3.0285   4.4548   4.7121   5.0805
     5.4754   6.1224   6.8619

     occupation numbers 
     1.0000   1.0000   1.0000   1.0000   1.0000   1.0000   1.0000   1.0000
     1.0000   1.0000   1.0000   1.0000   1.0000   1.0000   1.0000   1.0000
     1.0000   1.0000   1.0000   1.0000   1.0000   0.0000   0.0000   0.0000
     0.0000   0.0000   0.0000   0.0000   0.0000   0.0000   0.0000   0.0000
     0.0000   0.0000   0.0000

          k = 0.2500 0.5774 0.0000 ( 11800 PWs)   bands (ev):

   -83.6030 -53.2076 -53.1349 -52.6269 -23.7835 -23.7559 -22.7484 -22.0513
   -16.3800 -16.0483 -14.6479 -14.5199 -12.8142 -12.3612 -12.1085 -10.8398
   -10.5805  -9.9952  -8.9873  -8.3418  -6.9630  -4.4056  -3.2515  -2.0456
    -1.7594   0.2874   0.6864   2.8439   3.2815   4.3314   4.7380   5.2490
     5.8546   6.3478   6.4451

     occupation numbers 
     1.0000   1.0000   1.0000   1.0000   1.0000   1.0000   1.0000   1.0000
     1.0000   1.0000   1.0000   1.0000   1.0000   1.0000   1.0000   1.0000
     1.0000   1.0000   1.0000   1.0000   1.0000   0.0000   0.0000   0.0000
     0.0000   0.0000   0.0000   0.0000   0.0000   0.0000   0.0000   0.0000
     0.0000   0.0000   0.0000

          k =-0.1250 0.0722 0.0000 ( 11905 PWs)   bands (ev):

   -83.5986 -52.9343 -52.7623 -52.7323 -26.7833 -26.6893 -24.0835 -22.6117
   -15.3914 -12.6005 -11.5949 -11.5321 -10.6933 -10.6653 -10.5395 -10.2728
    -9.7548  -8.8984  -8.7576  -8.3031  -6.5869  -2.9433  -2.7404  -2.7142
    -2.3879   0.5042   0.7307   2.4394   2.4917   3.0542   3.2426   3.5282
     4.6775   4.7397   5.1339

     occupation numbers 
     1.0000   1.0000   1.0000   1.0000   1.0000   1.0000   1.0000   1.0000
     1.0000   1.0000   1.0000   1.0000   1.0000   1.0000   1.0000   1.0000
     1.0000   1.0000   1.0000   1.0000   1.0000   0.0000   0.0000   0.0000
     0.0000   0.0000   0.0000   0.0000   0.0000   0.0000   0.0000   0.0000
     0.0000   0.0000   0.0000

          k = 0.1250 0.0722 0.0000 ( 11905 PWs)   bands (ev):

   -83.5986 -52.9343 -52.7623 -52.7323 -26.7833 -26.6893 -24.0835 -22.6117
   -15.3914 -12.6005 -11.5948 -11.5320 -10.6934 -10.6654 -10.5395 -10.2728
    -9.7548  -8.8982  -8.7578  -8.3031  -6.5869  -2.9433  -2.7405  -2.7143
    -2.3878   0.5042   0.7308   2.4394   2.4917   3.0542   3.2426   3.5282
     4.6776   4.7397   5.1339

     occupation numbers 
     1.0000   1.0000   1.0000   1.0000   1.0000   1.0000   1.0000   1.0000
     1.0000   1.0000   1.0000   1.0000   1.0000   1.0000   1.0000   1.0000
     1.0000   1.0000   1.0000   1.0000   1.0000   0.0000   0.0000   0.0000
     0.0000   0.0000   0.0000   0.0000   0.0000   0.0000   0.0000   0.0000
     0.0000   0.0000   0.0000

          k =-0.2500 0.1443 0.0000 ( 11885 PWs)   bands (ev):

   -83.6092 -53.1960 -52.8331 -52.6311 -25.9782 -25.8985 -23.5235 -22.3319
   -15.0328 -13.8368 -13.4731 -12.2914 -11.5647 -11.2207 -11.2110  -9.9332
    -9.6383  -9.3532  -9.2548  -8.4990  -6.9034  -3.5594  -3.2462  -2.4599
    -1.8626   0.1116   0.3010   2.4285   2.5718   3.4915   3.9964   5.0899
     5.9021   6.1092   6.2879

     occupation numbers 
     1.0000   1.0000   1.0000   1.0000   1.0000   1.0000   1.0000   1.0000
     1.0000   1.0000   1.0000   1.0000   1.0000   1.0000   1.0000   1.0000
     1.0000   1.0000   1.0000   1.0000   1.0000   0.0000   0.0000   0.0000
     0.0000   0.0000   0.0000   0.0000   0.0000   0.0000   0.0000   0.0000
     0.0000   0.0000   0.0000

          k = 0.2500 0.1443 0.0000 ( 11885 PWs)   bands (ev):

   -83.6092 -53.1960 -52.8331 -52.6311 -25.9782 -25.8985 -23.5235 -22.3318
   -15.0328 -13.8368 -13.4730 -12.2913 -11.5647 -11.2207 -11.2110  -9.9332
    -9.6383  -9.3534  -9.2549  -8.4990  -6.9033  -3.5594  -3.2462  -2.4600
    -1.8625   0.1116   0.3010   2.4285   2.5718   3.4915   3.9964   5.0899
     5.9021   6.1092   6.2878

     occupation numbers 
     1.0000   1.0000   1.0000   1.0000   1.0000   1.0000   1.0000   1.0000
     1.0000   1.0000   1.0000   1.0000   1.0000   1.0000   1.0000   1.0000
     1.0000   1.0000   1.0000   1.0000   1.0000   0.0000   0.0000   0.0000
     0.0000   0.0000   0.0000   0.0000   0.0000   0.0000   0.0000   0.0000
     0.0000   0.0000   0.0000

          k =-0.3750 0.2165 0.0000 ( 11860 PWs)   bands (ev):

   -83.6038 -53.2498 -52.8424 -52.7457 -24.9041 -24.8504 -22.9908 -22.1110
   -16.2450 -15.9316 -13.8300 -12.6005 -12.0658 -11.7472 -11.7152 -10.4095
    -9.8223  -9.4658  -8.6993  -8.6885  -7.1316  -4.0132  -3.6254  -2.2419
    -1.4762  -1.2819  -0.7757   2.4297   2.9895   4.0198   4.2989   5.7889
     6.4122   6.6150   7.1622

     occupation numbers 
     1.0000   1.0000   1.0000   1.0000   1.0000   1.0000   1.0000   1.0000
     1.0000   1.0000   1.0000   1.0000   1.0000   1.0000   1.0000   1.0000
     1.0000   1.0000   1.0000   1.0000   1.0000   0.0000   0.0000   0.0000
     0.0000   0.0000   0.0000   0.0000   0.0000   0.0000   0.0000   0.0000
     0.0000   0.0000   0.0000

          k = 0.3750 0.2165 0.0000 ( 11860 PWs)   bands (ev):

   -83.6038 -53.2498 -52.8424 -52.7457 -24.9041 -24.8504 -22.9908 -22.1110
   -16.2449 -15.9316 -13.8300 -12.6005 -12.0658 -11.7473 -11.7153 -10.4095
    -9.8224  -9.4658  -8.6994  -8.6884  -7.1316  -4.0132  -3.6254  -2.2419
    -1.4762  -1.2819  -0.7757   2.4296   2.9895   4.0198   4.2989   5.7888
     6.4123   6.6150   7.1622

     occupation numbers 
     1.0000   1.0000   1.0000   1.0000   1.0000   1.0000   1.0000   1.0000
     1.0000   1.0000   1.0000   1.0000   1.0000   1.0000   1.0000   1.0000
     1.0000   1.0000   1.0000   1.0000   1.0000   0.0000   0.0000   0.0000
     0.0000   0.0000   0.0000   0.0000   0.0000   0.0000   0.0000   0.0000
     0.0000   0.0000   0.0000

          k = 0.5000-0.2887 0.0000 ( 11846 PWs)   bands (ev):

   -83.5998 -53.1997 -52.8625 -52.8554 -24.2398 -24.2131 -22.8611 -22.1257
   -17.1597 -16.8848 -13.5592 -13.0600 -12.1762 -11.9707 -11.9321 -10.6057
   -10.0235  -9.2228  -8.7542  -8.4431  -7.3114  -4.0108  -3.6810  -2.3876
    -1.8990  -1.3445  -1.0608   2.1456   2.7600   4.4231   5.1187   5.8258
     6.1779   6.5203   7.2570

     occupation numbers 
     1.0000   1.0000   1.0000   1.0000   1.0000   1.0000   1.0000   1.0000
     1.0000   1.0000   1.0000   1.0000   1.0000   1.0000   1.0000   1.0000
     1.0000   1.0000   1.0000   1.0000   1.0000   0.0000   0.0000   0.0000
     0.0000   0.0000   0.0000   0.0000   0.0000   0.0000   0.0000   0.0000
     0.0000   0.0000   0.0000

          k =-0.5000-0.2887 0.0000 ( 11846 PWs)   bands (ev):

   -83.5998 -53.1997 -52.8625 -52.8554 -24.2398 -24.2131 -22.8611 -22.1257
   -17.1597 -16.8848 -13.5592 -13.0601 -12.1762 -11.9708 -11.9322 -10.6057
   -10.0236  -9.2228  -8.7542  -8.4432  -7.3113  -4.0107  -3.6809  -2.3877
    -1.8990  -1.3444  -1.0608   2.1456   2.7600   4.4231   5.1187   5.8258
     6.1779   6.5203   7.2569

     occupation numbers 
     1.0000   1.0000   1.0000   1.0000   1.0000   1.0000   1.0000   1.0000
     1.0000   1.0000   1.0000   1.0000   1.0000   1.0000   1.0000   1.0000
     1.0000   1.0000   1.0000   1.0000   1.0000   0.0000   0.0000   0.0000
     0.0000   0.0000   0.0000   0.0000   0.0000   0.0000   0.0000   0.0000
     0.0000   0.0000   0.0000

          k =-0.1250 0.2165 0.0000 ( 11867 PWs)   bands (ev):

   -83.6000 -53.1246 -52.8485 -52.5886 -26.2304 -26.1449 -23.6925 -22.4180
   -15.0458 -13.0818 -12.8533 -12.2956 -11.6088 -11.3087 -10.9261  -9.9738
    -9.6596  -9.5527  -9.0095  -8.3568  -6.7805  -3.3969  -3.0847  -2.7038
    -1.9046   1.0475   1.2331   2.0133   2.0273   3.4885   3.6387   4.0485
     5.0946   5.7027   6.4690

     occupation numbers 
     1.0000   1.0000   1.0000   1.0000   1.0000   1.0000   1.0000   1.0000
     1.0000   1.0000   1.0000   1.0000   1.0000   1.0000   1.0000   1.0000
     1.0000   1.0000   1.0000   1.0000   1.0000   0.0000   0.0000   0.0000
     0.0000   0.0000   0.0000   0.0000   0.0000   0.0000   0.0000   0.0000
     0.0000   0.0000   0.0000

          k = 0.2500-0.0000 0.0000 ( 11867 PWs)   bands (ev):

   -83.6000 -53.1246 -52.8485 -52.5886 -26.2304 -26.1449 -23.6925 -22.4180
   -15.0457 -13.0818 -12.8533 -12.2956 -11.6088 -11.3087 -10.9261  -9.9738
    -9.6596  -9.5527  -9.0096  -8.3568  -6.7805  -3.3969  -3.0847  -2.7038
    -1.9046   1.0475   1.2332   2.0133   2.0273   3.4885   3.6387   4.0485
     5.0945   5.7027   6.4691

     occupation numbers 
     1.0000   1.0000   1.0000   1.0000   1.0000   1.0000   1.0000   1.0000
     1.0000   1.0000   1.0000   1.0000   1.0000   1.0000   1.0000   1.0000
     1.0000   1.0000   1.0000   1.0000   1.0000   0.0000   0.0000   0.0000
     0.0000   0.0000   0.0000   0.0000   0.0000   0.0000   0.0000   0.0000
     0.0000   0.0000   0.0000

          k =-0.1250 0.3608 0.0000 ( 11871 PWs)   bands (ev):

   -83.6026 -53.2159 -52.9539 -52.6006 -25.2710 -25.2050 -23.1383 -22.1573
   -15.4510 -14.9648 -13.7879 -12.5718 -12.2951 -11.9825 -11.6111 -10.5851
    -9.6709  -9.3285  -9.0844  -8.6311  -7.1490  -3.7611  -3.4935  -2.3500
    -1.5960   0.1374   0.3700   2.6670   2.7394   3.7949   4.1853   5.1196
     5.7511   6.1935   6.6254

     occupation numbers 
     1.0000   1.0000   1.0000   1.0000   1.0000   1.0000   1.0000   1.0000
     1.0000   1.0000   1.0000   1.0000   1.0000   1.0000   1.0000   1.0000
     1.0000   1.0000   1.0000   1.0000   1.0000   0.0000   0.0000   0.0000
     0.0000   0.0000   0.0000   0.0000   0.0000   0.0000   0.0000   0.0000
     0.0000   0.0000   0.0000

          k =-0.2500 0.2887 0.0000 ( 11871 PWs)   bands (ev):

   -83.6026 -53.2159 -52.9540 -52.6006 -25.2710 -25.2050 -23.1383 -22.1573
   -15.4510 -14.9649 -13.7879 -12.5718 -12.2950 -11.9825 -11.6111 -10.5850
    -9.6708  -9.3285  -9.0844  -8.6311  -7.1490  -3.7612  -3.4935  -2.3500
    -1.5960   0.1374   0.3700   2.6670   2.7394   3.7948   4.1852   5.1196
     5.7511   6.1935   6.6253

     occupation numbers 
     1.0000   1.0000   1.0000   1.0000   1.0000   1.0000   1.0000   1.0000
     1.0000   1.0000   1.0000   1.0000   1.0000   1.0000   1.0000   1.0000
     1.0000   1.0000   1.0000   1.0000   1.0000   0.0000   0.0000   0.0000
     0.0000   0.0000   0.0000   0.0000   0.0000   0.0000   0.0000   0.0000
     0.0000   0.0000   0.0000

          k = 0.3750 0.0722 0.0000 ( 11871 PWs)   bands (ev):

   -83.6026 -53.2159 -52.9539 -52.6006 -25.2710 -25.2050 -23.1383 -22.1573
   -15.4510 -14.9648 -13.7879 -12.5718 -12.2951 -11.9825 -11.6111 -10.5851
    -9.6709  -9.3285  -9.0844  -8.6311  -7.1490  -3.7611  -3.4935  -2.3500
    -1.5960   0.1374   0.3700   2.6670   2.7394   3.7949   4.1853   5.1196
     5.7511   6.1936   6.6254

     occupation numbers 
     1.0000   1.0000   1.0000   1.0000   1.0000   1.0000   1.0000   1.0000
     1.0000   1.0000   1.0000   1.0000   1.0000   1.0000   1.0000   1.0000
     1.0000   1.0000   1.0000   1.0000   1.0000   0.0000   0.0000   0.0000
     0.0000   0.0000   0.0000   0.0000   0.0000   0.0000   0.0000   0.0000
     0.0000   0.0000   0.0000

          k =-0.2500-0.2887 0.0000 ( 11871 PWs)   bands (ev):

   -83.6026 -53.2159 -52.9540 -52.6006 -25.2710 -25.2050 -23.1383 -22.1573
   -15.4510 -14.9648 -13.7879 -12.5718 -12.2951 -11.9825 -11.6111 -10.5851
    -9.6708  -9.3285  -9.0844  -8.6311  -7.1489  -3.7611  -3.4935  -2.3500
    -1.5961   0.1374   0.3700   2.6670   2.7394   3.7948   4.1852   5.1196
     5.7511   6.1935   6.6254

     occupation numbers 
     1.0000   1.0000   1.0000   1.0000   1.0000   1.0000   1.0000   1.0000
     1.0000   1.0000   1.0000   1.0000   1.0000   1.0000   1.0000   1.0000
     1.0000   1.0000   1.0000   1.0000   1.0000   0.0000   0.0000   0.0000
     0.0000   0.0000   0.0000   0.0000   0.0000   0.0000   0.0000   0.0000
     0.0000   0.0000   0.0000

          k = 0.3750-0.0722 0.0000 ( 11871 PWs)   bands (ev):

   -83.6026 -53.2159 -52.9539 -52.6006 -25.2710 -25.2050 -23.1383 -22.1573
   -15.4510 -14.9649 -13.7879 -12.5718 -12.2950 -11.9825 -11.6111 -10.5850
    -9.6708  -9.3285  -9.0844  -8.6311  -7.1490  -3.7612  -3.4935  -2.3500
    -1.5960   0.1374   0.3700   2.6670   2.7394   3.7948   4.1853   5.1196
     5.7511   6.1936   6.6254

     occupation numbers 
     1.0000   1.0000   1.0000   1.0000   1.0000   1.0000   1.0000   1.0000
     1.0000   1.0000   1.0000   1.0000   1.0000   1.0000   1.0000   1.0000
     1.0000   1.0000   1.0000   1.0000   1.0000   0.0000   0.0000   0.0000
     0.0000   0.0000   0.0000   0.0000   0.0000   0.0000   0.0000   0.0000
     0.0000   0.0000   0.0000

          k =-0.1250 0.5052 0.0000 ( 11841 PWs)   bands (ev):

   -83.6064 -53.1970 -52.9793 -52.7610 -24.2819 -24.2462 -22.8262 -22.0748
   -16.7278 -16.4400 -13.6155 -13.1087 -12.7150 -12.3305 -12.0355 -10.8021
    -9.9129  -9.2704  -9.0755  -8.5489  -7.2526  -4.1066  -3.4702  -2.0870
    -1.7523  -0.7231  -0.3383   2.7308   3.2511   3.9501   4.3510   5.3755
     6.2338   6.3133   7.0529

     occupation numbers 
     1.0000   1.0000   1.0000   1.0000   1.0000   1.0000   1.0000   1.0000
     1.0000   1.0000   1.0000   1.0000   1.0000   1.0000   1.0000   1.0000
     1.0000   1.0000   1.0000   1.0000   1.0000   0.0000   0.0000   0.0000
     0.0000   0.0000   0.0000   0.0000   0.0000   0.0000   0.0000   0.0000
     0.0000   0.0000   0.0000

          k =-0.3750 0.3608 0.0000 ( 11841 PWs)   bands (ev):

   -83.6064 -53.1970 -52.9793 -52.7610 -24.2819 -24.2462 -22.8262 -22.0748
   -16.7279 -16.4401 -13.6155 -13.1086 -12.7149 -12.3304 -12.0355 -10.8020
    -9.9128  -9.2703  -9.0754  -8.5489  -7.2526  -4.1066  -3.4702  -2.0869
    -1.7523  -0.7231  -0.3382   2.7309   3.2511   3.9501   4.3510   5.3755
     6.2338   6.3133   7.0530

     occupation numbers 
     1.0000   1.0000   1.0000   1.0000   1.0000   1.0000   1.0000   1.0000
     1.0000   1.0000   1.0000   1.0000   1.0000   1.0000   1.0000   1.0000
     1.0000   1.0000   1.0000   1.0000   1.0000   0.0000   0.0000   0.0000
     0.0000   0.0000   0.0000   0.0000   0.0000   0.0000   0.0000   0.0000
     0.0000   0.0000   0.0000

          k = 0.5000 0.1443 0.0000 ( 11841 PWs)   bands (ev):

   -83.6064 -53.1970 -52.9793 -52.7610 -24.2819 -24.2462 -22.8262 -22.0747
   -16.7278 -16.4401 -13.6155 -13.1087 -12.7150 -12.3305 -12.0355 -10.8021
    -9.9129  -9.2704  -9.0754  -8.5489  -7.2526  -4.1066  -3.4702  -2.0870
    -1.7522  -0.7231  -0.3382   2.7308   3.2510   3.9501   4.3510   5.3756
     6.2338   6.3134   7.0529

     occupation numbers 
     1.0000   1.0000   1.0000   1.0000   1.0000   1.0000   1.0000   1.0000
     1.0000   1.0000   1.0000   1.0000   1.0000   1.0000   1.0000   1.0000
     1.0000   1.0000   1.0000   1.0000   1.0000   0.0000   0.0000   0.0000
     0.0000   0.0000   0.0000   0.0000   0.0000   0.0000   0.0000   0.0000
     0.0000   0.0000   0.0000

          k =-0.3750-0.3608 0.0000 ( 11841 PWs)   bands (ev):

   -83.6064 -53.1970 -52.9793 -52.7610 -24.2819 -24.2462 -22.8262 -22.0747
   -16.7278 -16.4401 -13.6155 -13.1086 -12.7150 -12.3305 -12.0355 -10.8020
    -9.9129  -9.2704  -9.0755  -8.5489  -7.2526  -4.1065  -3.4702  -2.0869
    -1.7523  -0.7231  -0.3382   2.7308   3.2511   3.9501   4.3510   5.3755
     6.2338   6.3134   7.0530

     occupation numbers 
     1.0000   1.0000   1.0000   1.0000   1.0000   1.0000   1.0000   1.0000
     1.0000   1.0000   1.0000   1.0000   1.0000   1.0000   1.0000   1.0000
     1.0000   1.0000   1.0000   1.0000   1.0000   0.0000   0.0000   0.0000
     0.0000   0.0000   0.0000   0.0000   0.0000   0.0000   0.0000   0.0000
     0.0000   0.0000   0.0000

          k = 0.5000-0.1443 0.0000 ( 11841 PWs)   bands (ev):

   -83.6064 -53.1970 -52.9793 -52.7610 -24.2819 -24.2462 -22.8262 -22.0748
   -16.7279 -16.4401 -13.6155 -13.1086 -12.7149 -12.3304 -12.0355 -10.8020
    -9.9128  -9.2704  -9.0754  -8.5489  -7.2526  -4.1066  -3.4702  -2.0869
    -1.7523  -0.7231  -0.3383   2.7308   3.2511   3.9501   4.3510   5.3756
     6.2338   6.3134   7.0529

     occupation numbers 
     1.0000   1.0000   1.0000   1.0000   1.0000   1.0000   1.0000   1.0000
     1.0000   1.0000   1.0000   1.0000   1.0000   1.0000   1.0000   1.0000
     1.0000   1.0000   1.0000   1.0000   1.0000   0.0000   0.0000   0.0000
     0.0000   0.0000   0.0000   0.0000   0.0000   0.0000   0.0000   0.0000
     0.0000   0.0000   0.0000

          k =-0.2500 0.4330 0.0000 ( 11844 PWs)   bands (ev):

   -83.6137 -53.1801 -53.1209 -52.6578 -24.3245 -24.2813 -22.7975 -22.0299
   -16.1280 -15.7820 -14.0054 -13.7998 -13.2887 -11.9822 -11.8359 -11.1878
   -10.0790  -9.5778  -9.0424  -8.5243  -7.3328  -4.0050  -3.4132  -2.1497
    -1.6657   0.5054   0.7404   2.6205   3.0285   4.4548   4.7121   5.0806
     5.4753   6.1225   6.8619

     occupation numbers 
     1.0000   1.0000   1.0000   1.0000   1.0000   1.0000   1.0000   1.0000
     1.0000   1.0000   1.0000   1.0000   1.0000   1.0000   1.0000   1.0000
     1.0000   1.0000   1.0000   1.0000   1.0000   0.0000   0.0000   0.0000
     0.0000   0.0000   0.0000   0.0000   0.0000   0.0000   0.0000   0.0000
     0.0000   0.0000   0.0000

          k = 0.5000-0.0000 0.0000 ( 11844 PWs)   bands (ev):

   -83.6137 -53.1801 -53.1209 -52.6578 -24.3245 -24.2814 -22.7975 -22.0299
   -16.1280 -15.7820 -14.0054 -13.7998 -13.2887 -11.9822 -11.8359 -11.1878
   -10.0790  -9.5778  -9.0424  -8.5243  -7.3328  -4.0050  -3.4132  -2.1497
    -1.6657   0.5054   0.7404   2.6205   3.0285   4.4548   4.7120   5.0806
     5.4754   6.1225   6.8619

     occupation numbers 
     1.0000   1.0000   1.0000   1.0000   1.0000   1.0000   1.0000   1.0000
     1.0000   1.0000   1.0000   1.0000   1.0000   1.0000   1.0000   1.0000
     1.0000   1.0000   1.0000   1.0000   1.0000   0.0000   0.0000   0.0000
     0.0000   0.0000   0.0000   0.0000   0.0000   0.0000   0.0000   0.0000
     0.0000   0.0000   0.0000

          k =-0.3750 0.5052 0.0000 ( 11800 PWs)   bands (ev):

   -83.6030 -53.2076 -53.1349 -52.6269 -23.7835 -23.7559 -22.7484 -22.0513
   -16.3800 -16.0483 -14.6478 -14.5199 -12.8142 -12.3613 -12.1085 -10.8398
   -10.5804  -9.9952  -8.9873  -8.3418  -6.9631  -4.4057  -3.2515  -2.0456
    -1.7593   0.2875   0.6863   2.8439   3.2815   4.3314   4.7380   5.2490
     5.8545   6.3478   6.4452

     occupation numbers 
     1.0000   1.0000   1.0000   1.0000   1.0000   1.0000   1.0000   1.0000
     1.0000   1.0000   1.0000   1.0000   1.0000   1.0000   1.0000   1.0000
     1.0000   1.0000   1.0000   1.0000   1.0000   0.0000   0.0000   0.0000
     0.0000   0.0000   0.0000   0.0000   0.0000   0.0000   0.0000   0.0000
     0.0000   0.0000   0.0000

          k = 0.6250 0.0722 0.0000 ( 11800 PWs)   bands (ev):

   -83.6030 -53.2076 -53.1349 -52.6269 -23.7835 -23.7559 -22.7484 -22.0513
   -16.3800 -16.0483 -14.6479 -14.5199 -12.8142 -12.3612 -12.1085 -10.8398
   -10.5805  -9.9952  -8.9873  -8.3418  -6.9631  -4.4056  -3.2515  -2.0456
    -1.7594   0.2874   0.6863   2.8439   3.2816   4.3314   4.7380   5.2490
     5.8546   6.3479   6.4452

     occupation numbers 
     1.0000   1.0000   1.0000   1.0000   1.0000   1.0000   1.0000   1.0000
     1.0000   1.0000   1.0000   1.0000   1.0000   1.0000   1.0000   1.0000
     1.0000   1.0000   1.0000   1.0000   1.0000   0.0000   0.0000   0.0000
     0.0000   0.0000   0.0000   0.0000   0.0000   0.0000   0.0000   0.0000
     0.0000   0.0000   0.0000

     highest occupied, lowest unoccupied level (ev):    -6.5713   -4.4057

!    total energy              =    -263.21054276 Ry
     estimated scf accuracy    <          8.2E-12 Ry

     convergence has been achieved in   3 iterations

     Using ACE for calculation of exact exchange
     ACE projected onto    35 (nbndproj) and applied to    35 (nbnd) bands

     total energy              =    -263.21054277 Ry
     Harris-Foulkes estimate   =    -263.21054277 Ry
     est. exchange err (dexx)  =          4.8E-09 Ry
     - averaged Fock potential =      17.84085182 Ry
     + Fock energy (ACE)       =      -8.92042878 Ry

     EXX: now go back to refine exchange calculation

     total cpu time spent up to now is     6783.1 secs

     Self-consistent Calculation

     iteration #  1     ecut=    80.00 Ry     beta= 0.50
     Davidson diagonalization with overlap

---- Real-time Memory Report at c_bands before calling an iterative solver
          2135 MiB given to the printing process from OS
             0 MiB allocation reported by mallinfo(arena+hblkhd)
         12875 MiB available memory on the node where the printing process lives
------------------
     ethr =  1.62E-12,  avg # of iterations =  3.0

     total cpu time spent up to now is     6791.8 secs

     total energy              =    -263.21054277 Ry
     estimated scf accuracy    <          2.5E-10 Ry

     iteration #  2     ecut=    80.00 Ry     beta= 0.50
     Davidson diagonalization with overlap

---- Real-time Memory Report at c_bands before calling an iterative solver
          2135 MiB given to the printing process from OS
             0 MiB allocation reported by mallinfo(arena+hblkhd)
         12866 MiB available memory on the node where the printing process lives
------------------
     ethr =  5.88E-13,  avg # of iterations =  2.0

     total cpu time spent up to now is     6799.3 secs

     total energy              =    -263.21054277 Ry
     estimated scf accuracy    <          1.5E-09 Ry

     iteration #  3     ecut=    80.00 Ry     beta= 0.50
     Davidson diagonalization with overlap

---- Real-time Memory Report at c_bands before calling an iterative solver
          2135 MiB given to the printing process from OS
             0 MiB allocation reported by mallinfo(arena+hblkhd)
         12865 MiB available memory on the node where the printing process lives
------------------
     ethr =  5.88E-13,  avg # of iterations =  2.0

     total cpu time spent up to now is     6806.6 secs

     End of self-consistent calculation

          k = 0.0000 0.0000 0.0000 ( 11937 PWs)   bands (ev):

   -83.5878 -52.8394 -52.7331 -52.7331 -27.0867 -26.9889 -24.3179 -22.7306
   -15.6434 -12.7266 -10.6451 -10.4743 -10.4743 -10.4277 -10.4276  -9.9056
    -9.9055  -8.4931  -8.4928  -8.4910  -6.5713  -2.6779  -2.6777  -2.4419
    -2.4418  -0.2224   0.1109   2.3491   2.3826   2.5027   4.0139   4.0140
     4.0684   4.0684   4.2611

     occupation numbers 
     1.0000   1.0000   1.0000   1.0000   1.0000   1.0000   1.0000   1.0000
     1.0000   1.0000   1.0000   1.0000   1.0000   1.0000   1.0000   1.0000
     1.0000   1.0000   1.0000   1.0000   1.0000   0.0000   0.0000   0.0000
     0.0000   0.0000   0.0000   0.0000   0.0000   0.0000   0.0000   0.0000
     0.0000   0.0000   0.0000

          k = 0.0000 0.1443 0.0000 ( 11905 PWs)   bands (ev):

   -83.5986 -52.9343 -52.7622 -52.7323 -26.7833 -26.6893 -24.0835 -22.6116
   -15.3915 -12.6005 -11.5948 -11.5320 -10.6934 -10.6654 -10.5395 -10.2728
    -9.7548  -8.8982  -8.7578  -8.3030  -6.5869  -2.9433  -2.7405  -2.7143
    -2.3878   0.5042   0.7307   2.4394   2.4917   3.0542   3.2426   3.5281
     4.6776   4.7396   5.1339

     occupation numbers 
     1.0000   1.0000   1.0000   1.0000   1.0000   1.0000   1.0000   1.0000
     1.0000   1.0000   1.0000   1.0000   1.0000   1.0000   1.0000   1.0000
     1.0000   1.0000   1.0000   1.0000   1.0000   0.0000   0.0000   0.0000
     0.0000   0.0000   0.0000   0.0000   0.0000   0.0000   0.0000   0.0000
     0.0000   0.0000   0.0000

          k = 0.0000 0.2887 0.0000 ( 11885 PWs)   bands (ev):

   -83.6092 -53.1961 -52.8331 -52.6310 -25.9782 -25.8985 -23.5235 -22.3318
   -15.0328 -13.8368 -13.4730 -12.2913 -11.5647 -11.2207 -11.2110  -9.9332
    -9.6383  -9.3534  -9.2549  -8.4990  -6.9031  -3.5594  -3.2462  -2.4600
    -1.8625   0.1115   0.3010   2.4285   2.5718   3.4916   3.9965   5.0899
     5.9021   6.1092   6.2879

     occupation numbers 
     1.0000   1.0000   1.0000   1.0000   1.0000   1.0000   1.0000   1.0000
     1.0000   1.0000   1.0000   1.0000   1.0000   1.0000   1.0000   1.0000
     1.0000   1.0000   1.0000   1.0000   1.0000   0.0000   0.0000   0.0000
     0.0000   0.0000   0.0000   0.0000   0.0000   0.0000   0.0000   0.0000
     0.0000   0.0000   0.0000

          k = 0.0000 0.4330 0.0000 ( 11860 PWs)   bands (ev):

   -83.6038 -53.2498 -52.8423 -52.7458 -24.9041 -24.8504 -22.9908 -22.1110
   -16.2449 -15.9316 -13.8300 -12.6005 -12.0658 -11.7473 -11.7153 -10.4095
    -9.8224  -9.4658  -8.6994  -8.6884  -7.1317  -4.0132  -3.6253  -2.2419
    -1.4762  -1.2819  -0.7758   2.4297   2.9896   4.0198   4.2990   5.7888
     6.4123   6.6150   7.1622

     occupation numbers 
     1.0000   1.0000   1.0000   1.0000   1.0000   1.0000   1.0000   1.0000
     1.0000   1.0000   1.0000   1.0000   1.0000   1.0000   1.0000   1.0000
     1.0000   1.0000   1.0000   1.0000   1.0000   0.0000   0.0000   0.0000
     0.0000   0.0000   0.0000   0.0000   0.0000   0.0000   0.0000   0.0000
     0.0000   0.0000   0.0000

          k = 0.0000-0.5774 0.0000 ( 11846 PWs)   bands (ev):

   -83.5997 -53.1997 -52.8625 -52.8554 -24.2398 -24.2131 -22.8612 -22.1257
   -17.1597 -16.8848 -13.5592 -13.0601 -12.1762 -11.9708 -11.9322 -10.6057
   -10.0236  -9.2228  -8.7542  -8.4432  -7.3113  -4.0107  -3.6809  -2.3876
    -1.8990  -1.3444  -1.0608   2.1456   2.7601   4.4231   5.1187   5.8258
     6.1779   6.5203   7.2569

     occupation numbers 
     1.0000   1.0000   1.0000   1.0000   1.0000   1.0000   1.0000   1.0000
     1.0000   1.0000   1.0000   1.0000   1.0000   1.0000   1.0000   1.0000
     1.0000   1.0000   1.0000   1.0000   1.0000   0.0000   0.0000   0.0000
     0.0000   0.0000   0.0000   0.0000   0.0000   0.0000   0.0000   0.0000
     0.0000   0.0000   0.0000

          k = 0.1250 0.2165 0.0000 ( 11867 PWs)   bands (ev):

   -83.6000 -53.1246 -52.8484 -52.5886 -26.2304 -26.1449 -23.6925 -22.4180
   -15.0458 -13.0818 -12.8533 -12.2956 -11.6088 -11.3088 -10.9262  -9.9738
    -9.6596  -9.5528  -9.0095  -8.3568  -6.7804  -3.3970  -3.0846  -2.7038
    -1.9046   1.0475   1.2332   2.0132   2.0273   3.4885   3.6387   4.0485
     5.0946   5.7027   6.4690

     occupation numbers 
     1.0000   1.0000   1.0000   1.0000   1.0000   1.0000   1.0000   1.0000
     1.0000   1.0000   1.0000   1.0000   1.0000   1.0000   1.0000   1.0000
     1.0000   1.0000   1.0000   1.0000   1.0000   0.0000   0.0000   0.0000
     0.0000   0.0000   0.0000   0.0000   0.0000   0.0000   0.0000   0.0000
     0.0000   0.0000   0.0000

          k = 0.1250 0.3608 0.0000 ( 11871 PWs)   bands (ev):

   -83.6026 -53.2159 -52.9539 -52.6006 -25.2710 -25.2050 -23.1383 -22.1573
   -15.4510 -14.9648 -13.7879 -12.5718 -12.2951 -11.9825 -11.6111 -10.5851
    -9.6709  -9.3285  -9.0844  -8.6311  -7.1490  -3.7611  -3.4935  -2.3500
    -1.5960   0.1374   0.3700   2.6670   2.7394   3.7949   4.1853   5.1195
     5.7511   6.1935   6.6254

     occupation numbers 
     1.0000   1.0000   1.0000   1.0000   1.0000   1.0000   1.0000   1.0000
     1.0000   1.0000   1.0000   1.0000   1.0000   1.0000   1.0000   1.0000
     1.0000   1.0000   1.0000   1.0000   1.0000   0.0000   0.0000   0.0000
     0.0000   0.0000   0.0000   0.0000   0.0000   0.0000   0.0000   0.0000
     0.0000   0.0000   0.0000

          k = 0.1250 0.5052 0.0000 ( 11841 PWs)   bands (ev):

   -83.6064 -53.1969 -52.9793 -52.7610 -24.2819 -24.2462 -22.8262 -22.0747
   -16.7278 -16.4400 -13.6155 -13.1086 -12.7150 -12.3305 -12.0355 -10.8020
    -9.9129  -9.2704  -9.0755  -8.5489  -7.2527  -4.1066  -3.4700  -2.0869
    -1.7523  -0.7231  -0.3382   2.7308   3.2511   3.9501   4.3510   5.3755
     6.2338   6.3134   7.0529

     occupation numbers 
     1.0000   1.0000   1.0000   1.0000   1.0000   1.0000   1.0000   1.0000
     1.0000   1.0000   1.0000   1.0000   1.0000   1.0000   1.0000   1.0000
     1.0000   1.0000   1.0000   1.0000   1.0000   0.0000   0.0000   0.0000
     0.0000   0.0000   0.0000   0.0000   0.0000   0.0000   0.0000   0.0000
     0.0000   0.0000   0.0000

          k = 0.2500 0.4330 0.0000 ( 11844 PWs)   bands (ev):

   -83.6137 -53.1802 -53.1209 -52.6577 -24.3245 -24.2814 -22.7975 -22.0299
   -16.1279 -15.7819 -14.0054 -13.7999 -13.2886 -11.9823 -11.8359 -11.1878
   -10.0790  -9.5778  -9.0424  -8.5243  -7.3328  -4.0047  -3.4133  -2.1496
    -1.6658   0.5053   0.7404   2.6205   3.0285   4.4548   4.7121   5.0805
     5.4754   6.1224   6.8619

     occupation numbers 
     1.0000   1.0000   1.0000   1.0000   1.0000   1.0000   1.0000   1.0000
     1.0000   1.0000   1.0000   1.0000   1.0000   1.0000   1.0000   1.0000
     1.0000   1.0000   1.0000   1.0000   1.0000   0.0000   0.0000   0.0000
     0.0000   0.0000   0.0000   0.0000   0.0000   0.0000   0.0000   0.0000
     0.0000   0.0000   0.0000

          k = 0.2500 0.5774 0.0000 ( 11800 PWs)   bands (ev):

   -83.6030 -53.2076 -53.1349 -52.6269 -23.7835 -23.7559 -22.7484 -22.0513
   -16.3800 -16.0483 -14.6478 -14.5199 -12.8143 -12.3613 -12.1085 -10.8398
   -10.5805  -9.9952  -8.9873  -8.3418  -6.9631  -4.4056  -3.2514  -2.0455
    -1.7594   0.2874   0.6864   2.8439   3.2815   4.3314   4.7380   5.2490
     5.8546   6.3478   6.4452

     occupation numbers 
     1.0000   1.0000   1.0000   1.0000   1.0000   1.0000   1.0000   1.0000
     1.0000   1.0000   1.0000   1.0000   1.0000   1.0000   1.0000   1.0000
     1.0000   1.0000   1.0000   1.0000   1.0000   0.0000   0.0000   0.0000
     0.0000   0.0000   0.0000   0.0000   0.0000   0.0000   0.0000   0.0000
     0.0000   0.0000   0.0000

          k =-0.1250 0.0722 0.0000 ( 11905 PWs)   bands (ev):

   -83.5986 -52.9343 -52.7622 -52.7323 -26.7833 -26.6893 -24.0835 -22.6116
   -15.3915 -12.6005 -11.5949 -11.5321 -10.6933 -10.6653 -10.5395 -10.2728
    -9.7548  -8.8984  -8.7575  -8.3031  -6.5869  -2.9434  -2.7404  -2.7142
    -2.3879   0.5042   0.7307   2.4394   2.4917   3.0542   3.2426   3.5282
     4.6776   4.7397   5.1339

     occupation numbers 
     1.0000   1.0000   1.0000   1.0000   1.0000   1.0000   1.0000   1.0000
     1.0000   1.0000   1.0000   1.0000   1.0000   1.0000   1.0000   1.0000
     1.0000   1.0000   1.0000   1.0000   1.0000   0.0000   0.0000   0.0000
     0.0000   0.0000   0.0000   0.0000   0.0000   0.0000   0.0000   0.0000
     0.0000   0.0000   0.0000

          k = 0.1250 0.0722 0.0000 ( 11905 PWs)   bands (ev):

   -83.5986 -52.9343 -52.7622 -52.7323 -26.7833 -26.6893 -24.0835 -22.6116
   -15.3915 -12.6005 -11.5948 -11.5320 -10.6934 -10.6654 -10.5395 -10.2728
    -9.7548  -8.8982  -8.7577  -8.3030  -6.5869  -2.9433  -2.7405  -2.7143
    -2.3878   0.5042   0.7308   2.4394   2.4917   3.0542   3.2426   3.5282
     4.6776   4.7396   5.1339

     occupation numbers 
     1.0000   1.0000   1.0000   1.0000   1.0000   1.0000   1.0000   1.0000
     1.0000   1.0000   1.0000   1.0000   1.0000   1.0000   1.0000   1.0000
     1.0000   1.0000   1.0000   1.0000   1.0000   0.0000   0.0000   0.0000
     0.0000   0.0000   0.0000   0.0000   0.0000   0.0000   0.0000   0.0000
     0.0000   0.0000   0.0000

          k =-0.2500 0.1443 0.0000 ( 11885 PWs)   bands (ev):

   -83.6092 -53.1961 -52.8331 -52.6310 -25.9782 -25.8985 -23.5235 -22.3318
   -15.0328 -13.8368 -13.4731 -12.2914 -11.5647 -11.2206 -11.2110  -9.9332
    -9.6383  -9.3533  -9.2548  -8.4990  -6.9032  -3.5595  -3.2462  -2.4599
    -1.8626   0.1115   0.3010   2.4285   2.5718   3.4915   3.9964   5.0899
     5.9021   6.1092   6.2879

     occupation numbers 
     1.0000   1.0000   1.0000   1.0000   1.0000   1.0000   1.0000   1.0000
     1.0000   1.0000   1.0000   1.0000   1.0000   1.0000   1.0000   1.0000
     1.0000   1.0000   1.0000   1.0000   1.0000   0.0000   0.0000   0.0000
     0.0000   0.0000   0.0000   0.0000   0.0000   0.0000   0.0000   0.0000
     0.0000   0.0000   0.0000

          k = 0.2500 0.1443 0.0000 ( 11885 PWs)   bands (ev):

   -83.6092 -53.1961 -52.8331 -52.6310 -25.9782 -25.8985 -23.5235 -22.3318
   -15.0328 -13.8368 -13.4730 -12.2913 -11.5647 -11.2207 -11.2110  -9.9332
    -9.6383  -9.3534  -9.2549  -8.4990  -6.9031  -3.5594  -3.2462  -2.4600
    -1.8625   0.1116   0.3010   2.4285   2.5718   3.4915   3.9964   5.0899
     5.9021   6.1092   6.2878

     occupation numbers 
     1.0000   1.0000   1.0000   1.0000   1.0000   1.0000   1.0000   1.0000
     1.0000   1.0000   1.0000   1.0000   1.0000   1.0000   1.0000   1.0000
     1.0000   1.0000   1.0000   1.0000   1.0000   0.0000   0.0000   0.0000
     0.0000   0.0000   0.0000   0.0000   0.0000   0.0000   0.0000   0.0000
     0.0000   0.0000   0.0000

          k =-0.3750 0.2165 0.0000 ( 11860 PWs)   bands (ev):

   -83.6038 -53.2498 -52.8423 -52.7458 -24.9041 -24.8504 -22.9908 -22.1110
   -16.2450 -15.9316 -13.8300 -12.6005 -12.0658 -11.7472 -11.7152 -10.4095
    -9.8223  -9.4657  -8.6993  -8.6885  -7.1317  -4.0133  -3.6253  -2.2418
    -1.4762  -1.2819  -0.7757   2.4297   2.9895   4.0198   4.2989   5.7889
     6.4122   6.6150   7.1622

     occupation numbers 
     1.0000   1.0000   1.0000   1.0000   1.0000   1.0000   1.0000   1.0000
     1.0000   1.0000   1.0000   1.0000   1.0000   1.0000   1.0000   1.0000
     1.0000   1.0000   1.0000   1.0000   1.0000   0.0000   0.0000   0.0000
     0.0000   0.0000   0.0000   0.0000   0.0000   0.0000   0.0000   0.0000
     0.0000   0.0000   0.0000

          k = 0.3750 0.2165 0.0000 ( 11860 PWs)   bands (ev):

   -83.6038 -53.2498 -52.8423 -52.7458 -24.9041 -24.8504 -22.9908 -22.1110
   -16.2449 -15.9316 -13.8300 -12.6005 -12.0658 -11.7473 -11.7153 -10.4095
    -9.8224  -9.4657  -8.6994  -8.6884  -7.1317  -4.0132  -3.6253  -2.2419
    -1.4762  -1.2819  -0.7757   2.4296   2.9895   4.0198   4.2989   5.7888
     6.4123   6.6150   7.1621

     occupation numbers 
     1.0000   1.0000   1.0000   1.0000   1.0000   1.0000   1.0000   1.0000
     1.0000   1.0000   1.0000   1.0000   1.0000   1.0000   1.0000   1.0000
     1.0000   1.0000   1.0000   1.0000   1.0000   0.0000   0.0000   0.0000
     0.0000   0.0000   0.0000   0.0000   0.0000   0.0000   0.0000   0.0000
     0.0000   0.0000   0.0000

          k = 0.5000-0.2887 0.0000 ( 11846 PWs)   bands (ev):

   -83.5997 -53.1997 -52.8625 -52.8554 -24.2398 -24.2131 -22.8611 -22.1257
   -17.1597 -16.8848 -13.5592 -13.0600 -12.1763 -11.9707 -11.9321 -10.6057
   -10.0234  -9.2227  -8.7542  -8.4431  -7.3114  -4.0108  -3.6810  -2.3876
    -1.8990  -1.3444  -1.0608   2.1456   2.7600   4.4231   5.1187   5.8258
     6.1778   6.5203   7.2570

     occupation numbers 
     1.0000   1.0000   1.0000   1.0000   1.0000   1.0000   1.0000   1.0000
     1.0000   1.0000   1.0000   1.0000   1.0000   1.0000   1.0000   1.0000
     1.0000   1.0000   1.0000   1.0000   1.0000   0.0000   0.0000   0.0000
     0.0000   0.0000   0.0000   0.0000   0.0000   0.0000   0.0000   0.0000
     0.0000   0.0000   0.0000

          k =-0.5000-0.2887 0.0000 ( 11846 PWs)   bands (ev):

   -83.5997 -53.1997 -52.8625 -52.8554 -24.2398 -24.2131 -22.8611 -22.1256
   -17.1597 -16.8848 -13.5592 -13.0600 -12.1762 -11.9708 -11.9322 -10.6057
   -10.0236  -9.2228  -8.7542  -8.4432  -7.3113  -4.0107  -3.6809  -2.3877
    -1.8990  -1.3444  -1.0608   2.1456   2.7600   4.4231   5.1187   5.8258
     6.1779   6.5203   7.2569

     occupation numbers 
     1.0000   1.0000   1.0000   1.0000   1.0000   1.0000   1.0000   1.0000
     1.0000   1.0000   1.0000   1.0000   1.0000   1.0000   1.0000   1.0000
     1.0000   1.0000   1.0000   1.0000   1.0000   0.0000   0.0000   0.0000
     0.0000   0.0000   0.0000   0.0000   0.0000   0.0000   0.0000   0.0000
     0.0000   0.0000   0.0000

          k =-0.1250 0.2165 0.0000 ( 11867 PWs)   bands (ev):

   -83.6000 -53.1246 -52.8484 -52.5886 -26.2304 -26.1449 -23.6925 -22.4180
   -15.0457 -13.0818 -12.8533 -12.2956 -11.6088 -11.3087 -10.9261  -9.9738
    -9.6596  -9.5527  -9.0095  -8.3568  -6.7805  -3.3969  -3.0846  -2.7038
    -1.9046   1.0475   1.2331   2.0133   2.0273   3.4885   3.6387   4.0485
     5.0946   5.7027   6.4690

     occupation numbers 
     1.0000   1.0000   1.0000   1.0000   1.0000   1.0000   1.0000   1.0000
     1.0000   1.0000   1.0000   1.0000   1.0000   1.0000   1.0000   1.0000
     1.0000   1.0000   1.0000   1.0000   1.0000   0.0000   0.0000   0.0000
     0.0000   0.0000   0.0000   0.0000   0.0000   0.0000   0.0000   0.0000
     0.0000   0.0000   0.0000

          k = 0.2500-0.0000 0.0000 ( 11867 PWs)   bands (ev):

   -83.6000 -53.1246 -52.8484 -52.5886 -26.2304 -26.1449 -23.6925 -22.4180
   -15.0457 -13.0818 -12.8533 -12.2956 -11.6088 -11.3087 -10.9261  -9.9738
    -9.6596  -9.5527  -9.0095  -8.3568  -6.7805  -3.3969  -3.0846  -2.7038
    -1.9046   1.0475   1.2332   2.0133   2.0273   3.4885   3.6387   4.0485
     5.0945   5.7027   6.4691

     occupation numbers 
     1.0000   1.0000   1.0000   1.0000   1.0000   1.0000   1.0000   1.0000
     1.0000   1.0000   1.0000   1.0000   1.0000   1.0000   1.0000   1.0000
     1.0000   1.0000   1.0000   1.0000   1.0000   0.0000   0.0000   0.0000
     0.0000   0.0000   0.0000   0.0000   0.0000   0.0000   0.0000   0.0000
     0.0000   0.0000   0.0000

          k =-0.1250 0.3608 0.0000 ( 11871 PWs)   bands (ev):

   -83.6026 -53.2158 -52.9539 -52.6006 -25.2710 -25.2050 -23.1383 -22.1573
   -15.4510 -14.9648 -13.7879 -12.5718 -12.2951 -11.9825 -11.6111 -10.5851
    -9.6709  -9.3285  -9.0844  -8.6310  -7.1490  -3.7611  -3.4935  -2.3500
    -1.5960   0.1374   0.3700   2.6670   2.7394   3.7949   4.1853   5.1196
     5.7511   6.1935   6.6254

     occupation numbers 
     1.0000   1.0000   1.0000   1.0000   1.0000   1.0000   1.0000   1.0000
     1.0000   1.0000   1.0000   1.0000   1.0000   1.0000   1.0000   1.0000
     1.0000   1.0000   1.0000   1.0000   1.0000   0.0000   0.0000   0.0000
     0.0000   0.0000   0.0000   0.0000   0.0000   0.0000   0.0000   0.0000
     0.0000   0.0000   0.0000

          k =-0.2500 0.2887 0.0000 ( 11871 PWs)   bands (ev):

   -83.6026 -53.2159 -52.9539 -52.6006 -25.2710 -25.2050 -23.1383 -22.1573
   -15.4510 -14.9649 -13.7879 -12.5718 -12.2950 -11.9825 -11.6111 -10.5850
    -9.6708  -9.3285  -9.0844  -8.6311  -7.1490  -3.7611  -3.4935  -2.3499
    -1.5960   0.1374   0.3700   2.6670   2.7394   3.7948   4.1853   5.1196
     5.7511   6.1935   6.6253

     occupation numbers 
     1.0000   1.0000   1.0000   1.0000   1.0000   1.0000   1.0000   1.0000
     1.0000   1.0000   1.0000   1.0000   1.0000   1.0000   1.0000   1.0000
     1.0000   1.0000   1.0000   1.0000   1.0000   0.0000   0.0000   0.0000
     0.0000   0.0000   0.0000   0.0000   0.0000   0.0000   0.0000   0.0000
     0.0000   0.0000   0.0000

          k = 0.3750 0.0722 0.0000 ( 11871 PWs)   bands (ev):

   -83.6026 -53.2158 -52.9539 -52.6006 -25.2710 -25.2050 -23.1383 -22.1573
   -15.4510 -14.9648 -13.7879 -12.5718 -12.2951 -11.9825 -11.6111 -10.5851
    -9.6709  -9.3285  -9.0844  -8.6310  -7.1490  -3.7611  -3.4935  -2.3500
    -1.5960   0.1374   0.3700   2.6670   2.7394   3.7949   4.1853   5.1196
     5.7511   6.1936   6.6254

     occupation numbers 
     1.0000   1.0000   1.0000   1.0000   1.0000   1.0000   1.0000   1.0000
     1.0000   1.0000   1.0000   1.0000   1.0000   1.0000   1.0000   1.0000
     1.0000   1.0000   1.0000   1.0000   1.0000   0.0000   0.0000   0.0000
     0.0000   0.0000   0.0000   0.0000   0.0000   0.0000   0.0000   0.0000
     0.0000   0.0000   0.0000

          k =-0.2500-0.2887 0.0000 ( 11871 PWs)   bands (ev):

   -83.6026 -53.2159 -52.9539 -52.6006 -25.2710 -25.2050 -23.1383 -22.1573
   -15.4510 -14.9648 -13.7879 -12.5718 -12.2951 -11.9825 -11.6111 -10.5851
    -9.6708  -9.3285  -9.0844  -8.6311  -7.1490  -3.7611  -3.4935  -2.3500
    -1.5960   0.1374   0.3700   2.6670   2.7394   3.7948   4.1852   5.1196
     5.7511   6.1935   6.6254

     occupation numbers 
     1.0000   1.0000   1.0000   1.0000   1.0000   1.0000   1.0000   1.0000
     1.0000   1.0000   1.0000   1.0000   1.0000   1.0000   1.0000   1.0000
     1.0000   1.0000   1.0000   1.0000   1.0000   0.0000   0.0000   0.0000
     0.0000   0.0000   0.0000   0.0000   0.0000   0.0000   0.0000   0.0000
     0.0000   0.0000   0.0000

          k = 0.3750-0.0722 0.0000 ( 11871 PWs)   bands (ev):

   -83.6026 -53.2159 -52.9539 -52.6006 -25.2710 -25.2050 -23.1383 -22.1573
   -15.4510 -14.9649 -13.7879 -12.5718 -12.2950 -11.9825 -11.6111 -10.5850
    -9.6708  -9.3285  -9.0844  -8.6311  -7.1490  -3.7611  -3.4935  -2.3500
    -1.5960   0.1374   0.3700   2.6670   2.7394   3.7948   4.1853   5.1196
     5.7511   6.1936   6.6253

     occupation numbers 
     1.0000   1.0000   1.0000   1.0000   1.0000   1.0000   1.0000   1.0000
     1.0000   1.0000   1.0000   1.0000   1.0000   1.0000   1.0000   1.0000
     1.0000   1.0000   1.0000   1.0000   1.0000   0.0000   0.0000   0.0000
     0.0000   0.0000   0.0000   0.0000   0.0000   0.0000   0.0000   0.0000
     0.0000   0.0000   0.0000

          k =-0.1250 0.5052 0.0000 ( 11841 PWs)   bands (ev):

   -83.6064 -53.1969 -52.9793 -52.7610 -24.2819 -24.2462 -22.8262 -22.0748
   -16.7278 -16.4400 -13.6155 -13.1086 -12.7150 -12.3305 -12.0355 -10.8020
    -9.9129  -9.2704  -9.0755  -8.5489  -7.2527  -4.1066  -3.4700  -2.0870
    -1.7522  -0.7231  -0.3382   2.7308   3.2511   3.9501   4.3510   5.3755
     6.2339   6.3133   7.0529

     occupation numbers 
     1.0000   1.0000   1.0000   1.0000   1.0000   1.0000   1.0000   1.0000
     1.0000   1.0000   1.0000   1.0000   1.0000   1.0000   1.0000   1.0000
     1.0000   1.0000   1.0000   1.0000   1.0000   0.0000   0.0000   0.0000
     0.0000   0.0000   0.0000   0.0000   0.0000   0.0000   0.0000   0.0000
     0.0000   0.0000   0.0000

          k =-0.3750 0.3608 0.0000 ( 11841 PWs)   bands (ev):

   -83.6064 -53.1969 -52.9793 -52.7610 -24.2819 -24.2462 -22.8262 -22.0748
   -16.7279 -16.4401 -13.6155 -13.1086 -12.7149 -12.3304 -12.0355 -10.8020
    -9.9128  -9.2703  -9.0754  -8.5489  -7.2527  -4.1066  -3.4701  -2.0869
    -1.7523  -0.7231  -0.3382   2.7309   3.2511   3.9501   4.3510   5.3755
     6.2338   6.3133   7.0530

     occupation numbers 
     1.0000   1.0000   1.0000   1.0000   1.0000   1.0000   1.0000   1.0000
     1.0000   1.0000   1.0000   1.0000   1.0000   1.0000   1.0000   1.0000
     1.0000   1.0000   1.0000   1.0000   1.0000   0.0000   0.0000   0.0000
     0.0000   0.0000   0.0000   0.0000   0.0000   0.0000   0.0000   0.0000
     0.0000   0.0000   0.0000

          k = 0.5000 0.1443 0.0000 ( 11841 PWs)   bands (ev):

   -83.6064 -53.1969 -52.9793 -52.7610 -24.2819 -24.2462 -22.8262 -22.0747
   -16.7278 -16.4401 -13.6155 -13.1086 -12.7150 -12.3305 -12.0355 -10.8021
    -9.9129  -9.2704  -9.0754  -8.5489  -7.2527  -4.1066  -3.4700  -2.0870
    -1.7522  -0.7231  -0.3382   2.7308   3.2510   3.9501   4.3510   5.3756
     6.2338   6.3134   7.0529

     occupation numbers 
     1.0000   1.0000   1.0000   1.0000   1.0000   1.0000   1.0000   1.0000
     1.0000   1.0000   1.0000   1.0000   1.0000   1.0000   1.0000   1.0000
     1.0000   1.0000   1.0000   1.0000   1.0000   0.0000   0.0000   0.0000
     0.0000   0.0000   0.0000   0.0000   0.0000   0.0000   0.0000   0.0000
     0.0000   0.0000   0.0000

          k =-0.3750-0.3608 0.0000 ( 11841 PWs)   bands (ev):

   -83.6064 -53.1969 -52.9793 -52.7610 -24.2819 -24.2462 -22.8262 -22.0747
   -16.7278 -16.4401 -13.6155 -13.1086 -12.7150 -12.3305 -12.0355 -10.8020
    -9.9129  -9.2704  -9.0755  -8.5489  -7.2527  -4.1066  -3.4700  -2.0869
    -1.7523  -0.7231  -0.3382   2.7308   3.2511   3.9501   4.3510   5.3755
     6.2338   6.3134   7.0530

     occupation numbers 
     1.0000   1.0000   1.0000   1.0000   1.0000   1.0000   1.0000   1.0000
     1.0000   1.0000   1.0000   1.0000   1.0000   1.0000   1.0000   1.0000
     1.0000   1.0000   1.0000   1.0000   1.0000   0.0000   0.0000   0.0000
     0.0000   0.0000   0.0000   0.0000   0.0000   0.0000   0.0000   0.0000
     0.0000   0.0000   0.0000

          k = 0.5000-0.1443 0.0000 ( 11841 PWs)   bands (ev):

   -83.6064 -53.1969 -52.9793 -52.7610 -24.2819 -24.2462 -22.8262 -22.0748
   -16.7279 -16.4401 -13.6155 -13.1086 -12.7150 -12.3304 -12.0355 -10.8020
    -9.9128  -9.2704  -9.0754  -8.5489  -7.2527  -4.1066  -3.4701  -2.0869
    -1.7523  -0.7231  -0.3382   2.7309   3.2511   3.9501   4.3510   5.3756
     6.2338   6.3133   7.0529

     occupation numbers 
     1.0000   1.0000   1.0000   1.0000   1.0000   1.0000   1.0000   1.0000
     1.0000   1.0000   1.0000   1.0000   1.0000   1.0000   1.0000   1.0000
     1.0000   1.0000   1.0000   1.0000   1.0000   0.0000   0.0000   0.0000
     0.0000   0.0000   0.0000   0.0000   0.0000   0.0000   0.0000   0.0000
     0.0000   0.0000   0.0000

          k =-0.2500 0.4330 0.0000 ( 11844 PWs)   bands (ev):

   -83.6137 -53.1802 -53.1209 -52.6577 -24.3245 -24.2814 -22.7975 -22.0299
   -16.1280 -15.7820 -14.0053 -13.7998 -13.2886 -11.9823 -11.8359 -11.1878
   -10.0790  -9.5778  -9.0424  -8.5243  -7.3328  -4.0047  -3.4133  -2.1497
    -1.6657   0.5054   0.7404   2.6205   3.0285   4.4548   4.7121   5.0806
     5.4753   6.1225   6.8619

     occupation numbers 
     1.0000   1.0000   1.0000   1.0000   1.0000   1.0000   1.0000   1.0000
     1.0000   1.0000   1.0000   1.0000   1.0000   1.0000   1.0000   1.0000
     1.0000   1.0000   1.0000   1.0000   1.0000   0.0000   0.0000   0.0000
     0.0000   0.0000   0.0000   0.0000   0.0000   0.0000   0.0000   0.0000
     0.0000   0.0000   0.0000

          k = 0.5000-0.0000 0.0000 ( 11844 PWs)   bands (ev):

   -83.6137 -53.1802 -53.1209 -52.6577 -24.3245 -24.2814 -22.7975 -22.0299
   -16.1280 -15.7820 -14.0054 -13.7998 -13.2886 -11.9823 -11.8359 -11.1878
   -10.0790  -9.5778  -9.0424  -8.5243  -7.3328  -4.0047  -3.4133  -2.1497
    -1.6657   0.5054   0.7404   2.6205   3.0285   4.4548   4.7121   5.0806
     5.4753   6.1225   6.8619

     occupation numbers 
     1.0000   1.0000   1.0000   1.0000   1.0000   1.0000   1.0000   1.0000
     1.0000   1.0000   1.0000   1.0000   1.0000   1.0000   1.0000   1.0000
     1.0000   1.0000   1.0000   1.0000   1.0000   0.0000   0.0000   0.0000
     0.0000   0.0000   0.0000   0.0000   0.0000   0.0000   0.0000   0.0000
     0.0000   0.0000   0.0000

          k =-0.3750 0.5052 0.0000 ( 11800 PWs)   bands (ev):

   -83.6030 -53.2076 -53.1348 -52.6269 -23.7835 -23.7559 -22.7484 -22.0513
   -16.3800 -16.0483 -14.6478 -14.5199 -12.8142 -12.3613 -12.1085 -10.8397
   -10.5804  -9.9952  -8.9873  -8.3418  -6.9631  -4.4056  -3.2515  -2.0456
    -1.7593   0.2874   0.6863   2.8439   3.2815   4.3314   4.7380   5.2490
     5.8545   6.3478   6.4452

     occupation numbers 
     1.0000   1.0000   1.0000   1.0000   1.0000   1.0000   1.0000   1.0000
     1.0000   1.0000   1.0000   1.0000   1.0000   1.0000   1.0000   1.0000
     1.0000   1.0000   1.0000   1.0000   1.0000   0.0000   0.0000   0.0000
     0.0000   0.0000   0.0000   0.0000   0.0000   0.0000   0.0000   0.0000
     0.0000   0.0000   0.0000

          k = 0.6250 0.0722 0.0000 ( 11800 PWs)   bands (ev):

   -83.6030 -53.2076 -53.1349 -52.6269 -23.7835 -23.7559 -22.7484 -22.0513
   -16.3800 -16.0483 -14.6479 -14.5199 -12.8143 -12.3613 -12.1085 -10.8398
   -10.5805  -9.9952  -8.9873  -8.3418  -6.9631  -4.4056  -3.2514  -2.0455
    -1.7594   0.2874   0.6864   2.8439   3.2815   4.3314   4.7380   5.2490
     5.8546   6.3479   6.4452

     occupation numbers 
     1.0000   1.0000   1.0000   1.0000   1.0000   1.0000   1.0000   1.0000
     1.0000   1.0000   1.0000   1.0000   1.0000   1.0000   1.0000   1.0000
     1.0000   1.0000   1.0000   1.0000   1.0000   0.0000   0.0000   0.0000
     0.0000   0.0000   0.0000   0.0000   0.0000   0.0000   0.0000   0.0000
     0.0000   0.0000   0.0000

     highest occupied, lowest unoccupied level (ev):    -6.5713   -4.4056

!    total energy              =    -263.21054277 Ry
     estimated scf accuracy    <          2.7E-11 Ry

     convergence has been achieved in   3 iterations

     Using ACE for calculation of exact exchange
     ACE projected onto    35 (nbndproj) and applied to    35 (nbnd) bands

     total energy              =    -263.21054277 Ry
     Harris-Foulkes estimate   =    -263.21054277 Ry
     est. exchange err (dexx)  =          2.7E-09 Ry
     - averaged Fock potential =      17.84086152 Ry
     + Fock energy (ACE)       =      -8.92043274 Ry

     EXX: now go back to refine exchange calculation

     total cpu time spent up to now is     7146.7 secs

     Self-consistent Calculation

     iteration #  1     ecut=    80.00 Ry     beta= 0.50
     Davidson diagonalization with overlap

---- Real-time Memory Report at c_bands before calling an iterative solver
          2135 MiB given to the printing process from OS
             0 MiB allocation reported by mallinfo(arena+hblkhd)
         12895 MiB available memory on the node where the printing process lives
------------------
     ethr =  5.88E-13,  avg # of iterations =  3.4

     total cpu time spent up to now is     7155.7 secs

     total energy              =    -263.21054278 Ry
     estimated scf accuracy    <          1.3E-09 Ry

     iteration #  2     ecut=    80.00 Ry     beta= 0.50
     Davidson diagonalization with overlap

---- Real-time Memory Report at c_bands before calling an iterative solver
          2135 MiB given to the printing process from OS
             0 MiB allocation reported by mallinfo(arena+hblkhd)
         12870 MiB available memory on the node where the printing process lives
------------------
     ethr =  3.00E-12,  avg # of iterations =  2.0

     total cpu time spent up to now is     7163.2 secs

     total energy              =    -263.21054277 Ry
     estimated scf accuracy    <       0.00000001 Ry

     iteration #  3     ecut=    80.00 Ry     beta= 0.50
     Davidson diagonalization with overlap

---- Real-time Memory Report at c_bands before calling an iterative solver
          2135 MiB given to the printing process from OS
             0 MiB allocation reported by mallinfo(arena+hblkhd)
         12862 MiB available memory on the node where the printing process lives
------------------
     ethr =  3.00E-12,  avg # of iterations =  2.0

     total cpu time spent up to now is     7170.5 secs

     End of self-consistent calculation

          k = 0.0000 0.0000 0.0000 ( 11937 PWs)   bands (ev):

   -83.5878 -52.8394 -52.7331 -52.7331 -27.0867 -26.9889 -24.3179 -22.7306
   -15.6433 -12.7266 -10.6451 -10.4743 -10.4743 -10.4277 -10.4276  -9.9056
    -9.9055  -8.4931  -8.4927  -8.4910  -6.5712  -2.6779  -2.6777  -2.4419
    -2.4418  -0.2224   0.1109   2.3491   2.3826   2.5027   4.0139   4.0140
     4.0684   4.0685   4.2611

     occupation numbers 
     1.0000   1.0000   1.0000   1.0000   1.0000   1.0000   1.0000   1.0000
     1.0000   1.0000   1.0000   1.0000   1.0000   1.0000   1.0000   1.0000
     1.0000   1.0000   1.0000   1.0000   1.0000   0.0000   0.0000   0.0000
     0.0000   0.0000   0.0000   0.0000   0.0000   0.0000   0.0000   0.0000
     0.0000   0.0000   0.0000

          k = 0.0000 0.1443 0.0000 ( 11905 PWs)   bands (ev):

   -83.5986 -52.9343 -52.7621 -52.7323 -26.7833 -26.6893 -24.0835 -22.6116
   -15.3915 -12.6005 -11.5948 -11.5320 -10.6934 -10.6654 -10.5395 -10.2728
    -9.7548  -8.8982  -8.7577  -8.3030  -6.5869  -2.9433  -2.7405  -2.7142
    -2.3878   0.5042   0.7307   2.4394   2.4917   3.0542   3.2426   3.5282
     4.6776   4.7397   5.1339

     occupation numbers 
     1.0000   1.0000   1.0000   1.0000   1.0000   1.0000   1.0000   1.0000
     1.0000   1.0000   1.0000   1.0000   1.0000   1.0000   1.0000   1.0000
     1.0000   1.0000   1.0000   1.0000   1.0000   0.0000   0.0000   0.0000
     0.0000   0.0000   0.0000   0.0000   0.0000   0.0000   0.0000   0.0000
     0.0000   0.0000   0.0000

          k = 0.0000 0.2887 0.0000 ( 11885 PWs)   bands (ev):

   -83.6091 -53.1961 -52.8331 -52.6309 -25.9782 -25.8985 -23.5235 -22.3318
   -15.0328 -13.8368 -13.4730 -12.2913 -11.5648 -11.2207 -11.2110  -9.9332
    -9.6383  -9.3533  -9.2549  -8.4990  -6.9030  -3.5594  -3.2462  -2.4599
    -1.8625   0.1115   0.3010   2.4285   2.5718   3.4916   3.9965   5.0899
     5.9021   6.1092   6.2879

     occupation numbers 
     1.0000   1.0000   1.0000   1.0000   1.0000   1.0000   1.0000   1.0000
     1.0000   1.0000   1.0000   1.0000   1.0000   1.0000   1.0000   1.0000
     1.0000   1.0000   1.0000   1.0000   1.0000   0.0000   0.0000   0.0000
     0.0000   0.0000   0.0000   0.0000   0.0000   0.0000   0.0000   0.0000
     0.0000   0.0000   0.0000

          k = 0.0000 0.4330 0.0000 ( 11860 PWs)   bands (ev):

   -83.6038 -53.2498 -52.8422 -52.7458 -24.9041 -24.8504 -22.9908 -22.1110
   -16.2449 -15.9316 -13.8299 -12.6005 -12.0658 -11.7473 -11.7153 -10.4095
    -9.8224  -9.4658  -8.6994  -8.6884  -7.1317  -4.0133  -3.6252  -2.2419
    -1.4762  -1.2819  -0.7757   2.4297   2.9896   4.0198   4.2989   5.7888
     6.4123   6.6150   7.1622

     occupation numbers 
     1.0000   1.0000   1.0000   1.0000   1.0000   1.0000   1.0000   1.0000
     1.0000   1.0000   1.0000   1.0000   1.0000   1.0000   1.0000   1.0000
     1.0000   1.0000   1.0000   1.0000   1.0000   0.0000   0.0000   0.0000
     0.0000   0.0000   0.0000   0.0000   0.0000   0.0000   0.0000   0.0000
     0.0000   0.0000   0.0000

          k = 0.0000-0.5774 0.0000 ( 11846 PWs)   bands (ev):

   -83.5997 -53.1997 -52.8625 -52.8554 -24.2398 -24.2131 -22.8611 -22.1257
   -17.1597 -16.8848 -13.5591 -13.0601 -12.1762 -11.9708 -11.9322 -10.6057
   -10.0236  -9.2228  -8.7541  -8.4432  -7.3113  -4.0107  -3.6809  -2.3876
    -1.8990  -1.3444  -1.0608   2.1456   2.7601   4.4231   5.1187   5.8258
     6.1779   6.5203   7.2569

     occupation numbers 
     1.0000   1.0000   1.0000   1.0000   1.0000   1.0000   1.0000   1.0000
     1.0000   1.0000   1.0000   1.0000   1.0000   1.0000   1.0000   1.0000
     1.0000   1.0000   1.0000   1.0000   1.0000   0.0000   0.0000   0.0000
     0.0000   0.0000   0.0000   0.0000   0.0000   0.0000   0.0000   0.0000
     0.0000   0.0000   0.0000

          k = 0.1250 0.2165 0.0000 ( 11867 PWs)   bands (ev):

   -83.6000 -53.1245 -52.8484 -52.5886 -26.2304 -26.1449 -23.6925 -22.4180
   -15.0457 -13.0818 -12.8533 -12.2956 -11.6088 -11.3088 -10.9262  -9.9738
    -9.6596  -9.5528  -9.0095  -8.3568  -6.7804  -3.3970  -3.0846  -2.7038
    -1.9046   1.0475   1.2332   2.0133   2.0273   3.4885   3.6387   4.0485
     5.0946   5.7027   6.4690

     occupation numbers 
     1.0000   1.0000   1.0000   1.0000   1.0000   1.0000   1.0000   1.0000
     1.0000   1.0000   1.0000   1.0000   1.0000   1.0000   1.0000   1.0000
     1.0000   1.0000   1.0000   1.0000   1.0000   0.0000   0.0000   0.0000
     0.0000   0.0000   0.0000   0.0000   0.0000   0.0000   0.0000   0.0000
     0.0000   0.0000   0.0000

          k = 0.1250 0.3608 0.0000 ( 11871 PWs)   bands (ev):

   -83.6026 -53.2158 -52.9539 -52.6005 -25.2710 -25.2050 -23.1383 -22.1573
   -15.4510 -14.9648 -13.7879 -12.5718 -12.2951 -11.9825 -11.6111 -10.5851
    -9.6708  -9.3285  -9.0844  -8.6311  -7.1490  -3.7611  -3.4935  -2.3499
    -1.5960   0.1374   0.3700   2.6670   2.7394   3.7949   4.1853   5.1195
     5.7511   6.1935   6.6254

     occupation numbers 
     1.0000   1.0000   1.0000   1.0000   1.0000   1.0000   1.0000   1.0000
     1.0000   1.0000   1.0000   1.0000   1.0000   1.0000   1.0000   1.0000
     1.0000   1.0000   1.0000   1.0000   1.0000   0.0000   0.0000   0.0000
     0.0000   0.0000   0.0000   0.0000   0.0000   0.0000   0.0000   0.0000
     0.0000   0.0000   0.0000

          k = 0.1250 0.5052 0.0000 ( 11841 PWs)   bands (ev):

   -83.6064 -53.1969 -52.9793 -52.7610 -24.2819 -24.2462 -22.8262 -22.0747
   -16.7278 -16.4400 -13.6155 -13.1086 -12.7150 -12.3305 -12.0355 -10.8020
    -9.9129  -9.2704  -9.0755  -8.5489  -7.2527  -4.1066  -3.4699  -2.0869
    -1.7523  -0.7231  -0.3382   2.7308   3.2511   3.9501   4.3510   5.3755
     6.2338   6.3134   7.0529

     occupation numbers 
     1.0000   1.0000   1.0000   1.0000   1.0000   1.0000   1.0000   1.0000
     1.0000   1.0000   1.0000   1.0000   1.0000   1.0000   1.0000   1.0000
     1.0000   1.0000   1.0000   1.0000   1.0000   0.0000   0.0000   0.0000
     0.0000   0.0000   0.0000   0.0000   0.0000   0.0000   0.0000   0.0000
     0.0000   0.0000   0.0000

          k = 0.2500 0.4330 0.0000 ( 11844 PWs)   bands (ev):

   -83.6137 -53.1802 -53.1209 -52.6575 -24.3245 -24.2814 -22.7975 -22.0299
   -16.1279 -15.7819 -14.0054 -13.7999 -13.2886 -11.9823 -11.8360 -11.1878
   -10.0790  -9.5778  -9.0423  -8.5243  -7.3327  -4.0045  -3.4134  -2.1496
    -1.6657   0.5053   0.7404   2.6205   3.0285   4.4548   4.7121   5.0805
     5.4754   6.1224   6.8619

     occupation numbers 
     1.0000   1.0000   1.0000   1.0000   1.0000   1.0000   1.0000   1.0000
     1.0000   1.0000   1.0000   1.0000   1.0000   1.0000   1.0000   1.0000
     1.0000   1.0000   1.0000   1.0000   1.0000   0.0000   0.0000   0.0000
     0.0000   0.0000   0.0000   0.0000   0.0000   0.0000   0.0000   0.0000
     0.0000   0.0000   0.0000

          k = 0.2500 0.5774 0.0000 ( 11800 PWs)   bands (ev):

   -83.6030 -53.2076 -53.1348 -52.6269 -23.7835 -23.7559 -22.7484 -22.0513
   -16.3800 -16.0483 -14.6479 -14.5199 -12.8142 -12.3612 -12.1085 -10.8398
   -10.5804  -9.9952  -8.9873  -8.3418  -6.9631  -4.4056  -3.2514  -2.0455
    -1.7594   0.2874   0.6864   2.8439   3.2815   4.3314   4.7380   5.2490
     5.8546   6.3478   6.4451

     occupation numbers 
     1.0000   1.0000   1.0000   1.0000   1.0000   1.0000   1.0000   1.0000
     1.0000   1.0000   1.0000   1.0000   1.0000   1.0000   1.0000   1.0000
     1.0000   1.0000   1.0000   1.0000   1.0000   0.0000   0.0000   0.0000
     0.0000   0.0000   0.0000   0.0000   0.0000   0.0000   0.0000   0.0000
     0.0000   0.0000   0.0000

          k =-0.1250 0.0722 0.0000 ( 11905 PWs)   bands (ev):

   -83.5986 -52.9343 -52.7621 -52.7323 -26.7833 -26.6893 -24.0835 -22.6116
   -15.3915 -12.6005 -11.5949 -11.5321 -10.6933 -10.6653 -10.5395 -10.2729
    -9.7548  -8.8984  -8.7575  -8.3031  -6.5870  -2.9434  -2.7404  -2.7141
    -2.3879   0.5042   0.7307   2.4394   2.4917   3.0542   3.2426   3.5282
     4.6775   4.7397   5.1339

     occupation numbers 
     1.0000   1.0000   1.0000   1.0000   1.0000   1.0000   1.0000   1.0000
     1.0000   1.0000   1.0000   1.0000   1.0000   1.0000   1.0000   1.0000
     1.0000   1.0000   1.0000   1.0000   1.0000   0.0000   0.0000   0.0000
     0.0000   0.0000   0.0000   0.0000   0.0000   0.0000   0.0000   0.0000
     0.0000   0.0000   0.0000

          k = 0.1250 0.0722 0.0000 ( 11905 PWs)   bands (ev):

   -83.5986 -52.9343 -52.7621 -52.7323 -26.7833 -26.6893 -24.0835 -22.6116
   -15.3915 -12.6005 -11.5948 -11.5320 -10.6934 -10.6654 -10.5395 -10.2728
    -9.7548  -8.8982  -8.7577  -8.3030  -6.5869  -2.9433  -2.7405  -2.7142
    -2.3878   0.5042   0.7308   2.4394   2.4917   3.0542   3.2426   3.5282
     4.6776   4.7397   5.1339

     occupation numbers 
     1.0000   1.0000   1.0000   1.0000   1.0000   1.0000   1.0000   1.0000
     1.0000   1.0000   1.0000   1.0000   1.0000   1.0000   1.0000   1.0000
     1.0000   1.0000   1.0000   1.0000   1.0000   0.0000   0.0000   0.0000
     0.0000   0.0000   0.0000   0.0000   0.0000   0.0000   0.0000   0.0000
     0.0000   0.0000   0.0000

          k =-0.2500 0.1443 0.0000 ( 11885 PWs)   bands (ev):

   -83.6091 -53.1961 -52.8331 -52.6308 -25.9782 -25.8985 -23.5235 -22.3318
   -15.0328 -13.8368 -13.4731 -12.2914 -11.5648 -11.2207 -11.2110  -9.9332
    -9.6383  -9.3532  -9.2548  -8.4990  -6.9030  -3.5595  -3.2461  -2.4599
    -1.8626   0.1115   0.3010   2.4285   2.5718   3.4915   3.9964   5.0899
     5.9021   6.1092   6.2879

     occupation numbers 
     1.0000   1.0000   1.0000   1.0000   1.0000   1.0000   1.0000   1.0000
     1.0000   1.0000   1.0000   1.0000   1.0000   1.0000   1.0000   1.0000
     1.0000   1.0000   1.0000   1.0000   1.0000   0.0000   0.0000   0.0000
     0.0000   0.0000   0.0000   0.0000   0.0000   0.0000   0.0000   0.0000
     0.0000   0.0000   0.0000

          k = 0.2500 0.1443 0.0000 ( 11885 PWs)   bands (ev):

   -83.6091 -53.1961 -52.8331 -52.6309 -25.9782 -25.8985 -23.5235 -22.3318
   -15.0328 -13.8368 -13.4730 -12.2913 -11.5648 -11.2207 -11.2110  -9.9332
    -9.6383  -9.3533  -9.2549  -8.4990  -6.9030  -3.5595  -3.2462  -2.4599
    -1.8625   0.1116   0.3010   2.4285   2.5718   3.4915   3.9964   5.0899
     5.9021   6.1092   6.2878

     occupation numbers 
     1.0000   1.0000   1.0000   1.0000   1.0000   1.0000   1.0000   1.0000
     1.0000   1.0000   1.0000   1.0000   1.0000   1.0000   1.0000   1.0000
     1.0000   1.0000   1.0000   1.0000   1.0000   0.0000   0.0000   0.0000
     0.0000   0.0000   0.0000   0.0000   0.0000   0.0000   0.0000   0.0000
     0.0000   0.0000   0.0000

          k =-0.3750 0.2165 0.0000 ( 11860 PWs)   bands (ev):

   -83.6038 -53.2498 -52.8422 -52.7458 -24.9041 -24.8504 -22.9908 -22.1110
   -16.2450 -15.9316 -13.8299 -12.6005 -12.0658 -11.7472 -11.7152 -10.4095
    -9.8222  -9.4657  -8.6993  -8.6885  -7.1318  -4.0133  -3.6252  -2.2418
    -1.4762  -1.2819  -0.7757   2.4297   2.9895   4.0198   4.2989   5.7889
     6.4122   6.6150   7.1622

     occupation numbers 
     1.0000   1.0000   1.0000   1.0000   1.0000   1.0000   1.0000   1.0000
     1.0000   1.0000   1.0000   1.0000   1.0000   1.0000   1.0000   1.0000
     1.0000   1.0000   1.0000   1.0000   1.0000   0.0000   0.0000   0.0000
     0.0000   0.0000   0.0000   0.0000   0.0000   0.0000   0.0000   0.0000
     0.0000   0.0000   0.0000

          k = 0.3750 0.2165 0.0000 ( 11860 PWs)   bands (ev):

   -83.6038 -53.2498 -52.8422 -52.7458 -24.9041 -24.8504 -22.9908 -22.1110
   -16.2449 -15.9316 -13.8299 -12.6005 -12.0658 -11.7473 -11.7153 -10.4095
    -9.8224  -9.4658  -8.6994  -8.6884  -7.1317  -4.0133  -3.6252  -2.2419
    -1.4762  -1.2819  -0.7757   2.4296   2.9895   4.0198   4.2989   5.7888
     6.4123   6.6150   7.1621

     occupation numbers 
     1.0000   1.0000   1.0000   1.0000   1.0000   1.0000   1.0000   1.0000
     1.0000   1.0000   1.0000   1.0000   1.0000   1.0000   1.0000   1.0000
     1.0000   1.0000   1.0000   1.0000   1.0000   0.0000   0.0000   0.0000
     0.0000   0.0000   0.0000   0.0000   0.0000   0.0000   0.0000   0.0000
     0.0000   0.0000   0.0000

          k = 0.5000-0.2887 0.0000 ( 11846 PWs)   bands (ev):

   -83.5997 -53.1997 -52.8625 -52.8554 -24.2398 -24.2131 -22.8611 -22.1257
   -17.1597 -16.8848 -13.5592 -13.0600 -12.1762 -11.9707 -11.9321 -10.6057
   -10.0234  -9.2228  -8.7542  -8.4431  -7.3113  -4.0108  -3.6810  -2.3876
    -1.8990  -1.3444  -1.0608   2.1456   2.7600   4.4231   5.1187   5.8258
     6.1779   6.5203   7.2570

     occupation numbers 
     1.0000   1.0000   1.0000   1.0000   1.0000   1.0000   1.0000   1.0000
     1.0000   1.0000   1.0000   1.0000   1.0000   1.0000   1.0000   1.0000
     1.0000   1.0000   1.0000   1.0000   1.0000   0.0000   0.0000   0.0000
     0.0000   0.0000   0.0000   0.0000   0.0000   0.0000   0.0000   0.0000
     0.0000   0.0000   0.0000

          k =-0.5000-0.2887 0.0000 ( 11846 PWs)   bands (ev):

   -83.5997 -53.1997 -52.8625 -52.8554 -24.2398 -24.2131 -22.8611 -22.1256
   -17.1597 -16.8848 -13.5592 -13.0601 -12.1762 -11.9708 -11.9322 -10.6057
   -10.0236  -9.2228  -8.7541  -8.4432  -7.3113  -4.0107  -3.6809  -2.3876
    -1.8990  -1.3444  -1.0608   2.1456   2.7600   4.4231   5.1187   5.8258
     6.1779   6.5203   7.2569

     occupation numbers 
     1.0000   1.0000   1.0000   1.0000   1.0000   1.0000   1.0000   1.0000
     1.0000   1.0000   1.0000   1.0000   1.0000   1.0000   1.0000   1.0000
     1.0000   1.0000   1.0000   1.0000   1.0000   0.0000   0.0000   0.0000
     0.0000   0.0000   0.0000   0.0000   0.0000   0.0000   0.0000   0.0000
     0.0000   0.0000   0.0000

          k =-0.1250 0.2165 0.0000 ( 11867 PWs)   bands (ev):

   -83.6000 -53.1245 -52.8484 -52.5886 -26.2304 -26.1449 -23.6925 -22.4180
   -15.0457 -13.0818 -12.8533 -12.2956 -11.6088 -11.3087 -10.9261  -9.9738
    -9.6596  -9.5527  -9.0095  -8.3568  -6.7805  -3.3970  -3.0846  -2.7037
    -1.9046   1.0475   1.2331   2.0133   2.0273   3.4885   3.6387   4.0485
     5.0946   5.7027   6.4690

     occupation numbers 
     1.0000   1.0000   1.0000   1.0000   1.0000   1.0000   1.0000   1.0000
     1.0000   1.0000   1.0000   1.0000   1.0000   1.0000   1.0000   1.0000
     1.0000   1.0000   1.0000   1.0000   1.0000   0.0000   0.0000   0.0000
     0.0000   0.0000   0.0000   0.0000   0.0000   0.0000   0.0000   0.0000
     0.0000   0.0000   0.0000

          k = 0.2500-0.0000 0.0000 ( 11867 PWs)   bands (ev):

   -83.6000 -53.1245 -52.8484 -52.5886 -26.2304 -26.1449 -23.6925 -22.4180
   -15.0457 -13.0818 -12.8533 -12.2956 -11.6088 -11.3087 -10.9261  -9.9738
    -9.6596  -9.5527  -9.0095  -8.3568  -6.7805  -3.3970  -3.0846  -2.7037
    -1.9046   1.0475   1.2332   2.0133   2.0273   3.4885   3.6387   4.0485
     5.0945   5.7027   6.4691

     occupation numbers 
     1.0000   1.0000   1.0000   1.0000   1.0000   1.0000   1.0000   1.0000
     1.0000   1.0000   1.0000   1.0000   1.0000   1.0000   1.0000   1.0000
     1.0000   1.0000   1.0000   1.0000   1.0000   0.0000   0.0000   0.0000
     0.0000   0.0000   0.0000   0.0000   0.0000   0.0000   0.0000   0.0000
     0.0000   0.0000   0.0000

          k =-0.1250 0.3608 0.0000 ( 11871 PWs)   bands (ev):

   -83.6026 -53.2158 -52.9539 -52.6005 -25.2710 -25.2050 -23.1383 -22.1573
   -15.4510 -14.9648 -13.7879 -12.5718 -12.2950 -11.9825 -11.6111 -10.5850
    -9.6709  -9.3285  -9.0844  -8.6310  -7.1490  -3.7611  -3.4935  -2.3500
    -1.5960   0.1374   0.3700   2.6670   2.7394   3.7949   4.1853   5.1196
     5.7511   6.1935   6.6254

     occupation numbers 
     1.0000   1.0000   1.0000   1.0000   1.0000   1.0000   1.0000   1.0000
     1.0000   1.0000   1.0000   1.0000   1.0000   1.0000   1.0000   1.0000
     1.0000   1.0000   1.0000   1.0000   1.0000   0.0000   0.0000   0.0000
     0.0000   0.0000   0.0000   0.0000   0.0000   0.0000   0.0000   0.0000
     0.0000   0.0000   0.0000

          k =-0.2500 0.2887 0.0000 ( 11871 PWs)   bands (ev):

   -83.6026 -53.2158 -52.9539 -52.6005 -25.2710 -25.2050 -23.1383 -22.1573
   -15.4510 -14.9649 -13.7879 -12.5718 -12.2950 -11.9825 -11.6111 -10.5850
    -9.6708  -9.3284  -9.0843  -8.6311  -7.1491  -3.7611  -3.4935  -2.3499
    -1.5960   0.1374   0.3700   2.6670   2.7394   3.7948   4.1853   5.1196
     5.7511   6.1935   6.6253

     occupation numbers 
     1.0000   1.0000   1.0000   1.0000   1.0000   1.0000   1.0000   1.0000
     1.0000   1.0000   1.0000   1.0000   1.0000   1.0000   1.0000   1.0000
     1.0000   1.0000   1.0000   1.0000   1.0000   0.0000   0.0000   0.0000
     0.0000   0.0000   0.0000   0.0000   0.0000   0.0000   0.0000   0.0000
     0.0000   0.0000   0.0000

          k = 0.3750 0.0722 0.0000 ( 11871 PWs)   bands (ev):

   -83.6026 -53.2158 -52.9539 -52.6005 -25.2710 -25.2050 -23.1383 -22.1573
   -15.4510 -14.9648 -13.7879 -12.5718 -12.2951 -11.9825 -11.6111 -10.5850
    -9.6709  -9.3285  -9.0844  -8.6310  -7.1490  -3.7611  -3.4935  -2.3500
    -1.5960   0.1374   0.3700   2.6670   2.7394   3.7949   4.1853   5.1196
     5.7511   6.1936   6.6254

     occupation numbers 
     1.0000   1.0000   1.0000   1.0000   1.0000   1.0000   1.0000   1.0000
     1.0000   1.0000   1.0000   1.0000   1.0000   1.0000   1.0000   1.0000
     1.0000   1.0000   1.0000   1.0000   1.0000   0.0000   0.0000   0.0000
     0.0000   0.0000   0.0000   0.0000   0.0000   0.0000   0.0000   0.0000
     0.0000   0.0000   0.0000

          k =-0.2500-0.2887 0.0000 ( 11871 PWs)   bands (ev):

   -83.6026 -53.2158 -52.9539 -52.6005 -25.2710 -25.2050 -23.1383 -22.1573
   -15.4510 -14.9648 -13.7879 -12.5718 -12.2951 -11.9825 -11.6111 -10.5851
    -9.6708  -9.3285  -9.0844  -8.6311  -7.1490  -3.7611  -3.4935  -2.3499
    -1.5960   0.1374   0.3700   2.6670   2.7394   3.7948   4.1852   5.1196
     5.7511   6.1935   6.6254

     occupation numbers 
     1.0000   1.0000   1.0000   1.0000   1.0000   1.0000   1.0000   1.0000
     1.0000   1.0000   1.0000   1.0000   1.0000   1.0000   1.0000   1.0000
     1.0000   1.0000   1.0000   1.0000   1.0000   0.0000   0.0000   0.0000
     0.0000   0.0000   0.0000   0.0000   0.0000   0.0000   0.0000   0.0000
     0.0000   0.0000   0.0000

          k = 0.3750-0.0722 0.0000 ( 11871 PWs)   bands (ev):

   -83.6026 -53.2158 -52.9539 -52.6005 -25.2710 -25.2050 -23.1383 -22.1573
   -15.4510 -14.9649 -13.7879 -12.5718 -12.2950 -11.9825 -11.6111 -10.5850
    -9.6708  -9.3284  -9.0844  -8.6311  -7.1491  -3.7611  -3.4935  -2.3499
    -1.5960   0.1374   0.3700   2.6670   2.7394   3.7948   4.1853   5.1196
     5.7511   6.1936   6.6254

     occupation numbers 
     1.0000   1.0000   1.0000   1.0000   1.0000   1.0000   1.0000   1.0000
     1.0000   1.0000   1.0000   1.0000   1.0000   1.0000   1.0000   1.0000
     1.0000   1.0000   1.0000   1.0000   1.0000   0.0000   0.0000   0.0000
     0.0000   0.0000   0.0000   0.0000   0.0000   0.0000   0.0000   0.0000
     0.0000   0.0000   0.0000

          k =-0.1250 0.5052 0.0000 ( 11841 PWs)   bands (ev):

   -83.6064 -53.1969 -52.9792 -52.7611 -24.2819 -24.2462 -22.8262 -22.0747
   -16.7278 -16.4400 -13.6155 -13.1086 -12.7150 -12.3305 -12.0355 -10.8020
    -9.9128  -9.2704  -9.0755  -8.5489  -7.2528  -4.1066  -3.4699  -2.0870
    -1.7522  -0.7230  -0.3382   2.7308   3.2511   3.9501   4.3510   5.3755
     6.2339   6.3133   7.0529

     occupation numbers 
     1.0000   1.0000   1.0000   1.0000   1.0000   1.0000   1.0000   1.0000
     1.0000   1.0000   1.0000   1.0000   1.0000   1.0000   1.0000   1.0000
     1.0000   1.0000   1.0000   1.0000   1.0000   0.0000   0.0000   0.0000
     0.0000   0.0000   0.0000   0.0000   0.0000   0.0000   0.0000   0.0000
     0.0000   0.0000   0.0000

          k =-0.3750 0.3608 0.0000 ( 11841 PWs)   bands (ev):

   -83.6064 -53.1969 -52.9792 -52.7611 -24.2819 -24.2462 -22.8262 -22.0748
   -16.7279 -16.4401 -13.6155 -13.1086 -12.7149 -12.3304 -12.0355 -10.8020
    -9.9128  -9.2703  -9.0754  -8.5489  -7.2528  -4.1066  -3.4700  -2.0869
    -1.7523  -0.7231  -0.3382   2.7309   3.2511   3.9501   4.3510   5.3755
     6.2338   6.3133   7.0530

     occupation numbers 
     1.0000   1.0000   1.0000   1.0000   1.0000   1.0000   1.0000   1.0000
     1.0000   1.0000   1.0000   1.0000   1.0000   1.0000   1.0000   1.0000
     1.0000   1.0000   1.0000   1.0000   1.0000   0.0000   0.0000   0.0000
     0.0000   0.0000   0.0000   0.0000   0.0000   0.0000   0.0000   0.0000
     0.0000   0.0000   0.0000

          k = 0.5000 0.1443 0.0000 ( 11841 PWs)   bands (ev):

   -83.6064 -53.1969 -52.9792 -52.7611 -24.2819 -24.2462 -22.8262 -22.0747
   -16.7278 -16.4401 -13.6155 -13.1086 -12.7150 -12.3305 -12.0355 -10.8021
    -9.9128  -9.2704  -9.0754  -8.5489  -7.2528  -4.1066  -3.4699  -2.0870
    -1.7522  -0.7231  -0.3382   2.7308   3.2510   3.9501   4.3510   5.3756
     6.2338   6.3134   7.0529

     occupation numbers 
     1.0000   1.0000   1.0000   1.0000   1.0000   1.0000   1.0000   1.0000
     1.0000   1.0000   1.0000   1.0000   1.0000   1.0000   1.0000   1.0000
     1.0000   1.0000   1.0000   1.0000   1.0000   0.0000   0.0000   0.0000
     0.0000   0.0000   0.0000   0.0000   0.0000   0.0000   0.0000   0.0000
     0.0000   0.0000   0.0000

          k =-0.3750-0.3608 0.0000 ( 11841 PWs)   bands (ev):

   -83.6064 -53.1969 -52.9793 -52.7610 -24.2819 -24.2462 -22.8262 -22.0747
   -16.7278 -16.4400 -13.6155 -13.1086 -12.7150 -12.3305 -12.0355 -10.8020
    -9.9129  -9.2704  -9.0755  -8.5489  -7.2527  -4.1066  -3.4699  -2.0869
    -1.7523  -0.7231  -0.3382   2.7308   3.2511   3.9501   4.3510   5.3755
     6.2338   6.3134   7.0530

     occupation numbers 
     1.0000   1.0000   1.0000   1.0000   1.0000   1.0000   1.0000   1.0000
     1.0000   1.0000   1.0000   1.0000   1.0000   1.0000   1.0000   1.0000
     1.0000   1.0000   1.0000   1.0000   1.0000   0.0000   0.0000   0.0000
     0.0000   0.0000   0.0000   0.0000   0.0000   0.0000   0.0000   0.0000
     0.0000   0.0000   0.0000

          k = 0.5000-0.1443 0.0000 ( 11841 PWs)   bands (ev):

   -83.6064 -53.1969 -52.9792 -52.7611 -24.2819 -24.2462 -22.8262 -22.0748
   -16.7279 -16.4401 -13.6155 -13.1086 -12.7149 -12.3304 -12.0355 -10.8020
    -9.9128  -9.2703  -9.0754  -8.5489  -7.2528  -4.1066  -3.4700  -2.0869
    -1.7522  -0.7231  -0.3382   2.7309   3.2511   3.9501   4.3510   5.3756
     6.2338   6.3134   7.0529

     occupation numbers 
     1.0000   1.0000   1.0000   1.0000   1.0000   1.0000   1.0000   1.0000
     1.0000   1.0000   1.0000   1.0000   1.0000   1.0000   1.0000   1.0000
     1.0000   1.0000   1.0000   1.0000   1.0000   0.0000   0.0000   0.0000
     0.0000   0.0000   0.0000   0.0000   0.0000   0.0000   0.0000   0.0000
     0.0000   0.0000   0.0000

          k =-0.2500 0.4330 0.0000 ( 11844 PWs)   bands (ev):

   -83.6137 -53.1802 -53.1209 -52.6575 -24.3245 -24.2813 -22.7975 -22.0299
   -16.1280 -15.7820 -14.0054 -13.7998 -13.2886 -11.9822 -11.8359 -11.1878
   -10.0790  -9.5778  -9.0424  -8.5243  -7.3328  -4.0046  -3.4134  -2.1497
    -1.6656   0.5054   0.7404   2.6205   3.0285   4.4548   4.7121   5.0806
     5.4753   6.1225   6.8619

     occupation numbers 
     1.0000   1.0000   1.0000   1.0000   1.0000   1.0000   1.0000   1.0000
     1.0000   1.0000   1.0000   1.0000   1.0000   1.0000   1.0000   1.0000
     1.0000   1.0000   1.0000   1.0000   1.0000   0.0000   0.0000   0.0000
     0.0000   0.0000   0.0000   0.0000   0.0000   0.0000   0.0000   0.0000
     0.0000   0.0000   0.0000

          k = 0.5000-0.0000 0.0000 ( 11844 PWs)   bands (ev):

   -83.6137 -53.1802 -53.1209 -52.6575 -24.3245 -24.2814 -22.7975 -22.0299
   -16.1280 -15.7820 -14.0054 -13.7998 -13.2886 -11.9822 -11.8359 -11.1878
   -10.0790  -9.5778  -9.0424  -8.5243  -7.3328  -4.0046  -3.4134  -2.1497
    -1.6656   0.5054   0.7404   2.6205   3.0285   4.4548   4.7120   5.0806
     5.4754   6.1225   6.8619

     occupation numbers 
     1.0000   1.0000   1.0000   1.0000   1.0000   1.0000   1.0000   1.0000
     1.0000   1.0000   1.0000   1.0000   1.0000   1.0000   1.0000   1.0000
     1.0000   1.0000   1.0000   1.0000   1.0000   0.0000   0.0000   0.0000
     0.0000   0.0000   0.0000   0.0000   0.0000   0.0000   0.0000   0.0000
     0.0000   0.0000   0.0000

          k =-0.3750 0.5052 0.0000 ( 11800 PWs)   bands (ev):

   -83.6030 -53.2076 -53.1348 -52.6269 -23.7835 -23.7559 -22.7484 -22.0513
   -16.3800 -16.0483 -14.6478 -14.5199 -12.8142 -12.3612 -12.1085 -10.8398
   -10.5804  -9.9952  -8.9873  -8.3418  -6.9631  -4.4056  -3.2514  -2.0456
    -1.7593   0.2875   0.6863   2.8439   3.2815   4.3314   4.7380   5.2490
     5.8545   6.3478   6.4452

     occupation numbers 
     1.0000   1.0000   1.0000   1.0000   1.0000   1.0000   1.0000   1.0000
     1.0000   1.0000   1.0000   1.0000   1.0000   1.0000   1.0000   1.0000
     1.0000   1.0000   1.0000   1.0000   1.0000   0.0000   0.0000   0.0000
     0.0000   0.0000   0.0000   0.0000   0.0000   0.0000   0.0000   0.0000
     0.0000   0.0000   0.0000

          k = 0.6250 0.0722 0.0000 ( 11800 PWs)   bands (ev):

   -83.6030 -53.2076 -53.1348 -52.6269 -23.7835 -23.7559 -22.7484 -22.0513
   -16.3800 -16.0483 -14.6479 -14.5199 -12.8142 -12.3612 -12.1085 -10.8398
   -10.5805  -9.9952  -8.9873  -8.3418  -6.9631  -4.4056  -3.2514  -2.0455
    -1.7594   0.2874   0.6864   2.8439   3.2816   4.3314   4.7380   5.2490
     5.8546   6.3479   6.4452

     occupation numbers 
     1.0000   1.0000   1.0000   1.0000   1.0000   1.0000   1.0000   1.0000
     1.0000   1.0000   1.0000   1.0000   1.0000   1.0000   1.0000   1.0000
     1.0000   1.0000   1.0000   1.0000   1.0000   0.0000   0.0000   0.0000
     0.0000   0.0000   0.0000   0.0000   0.0000   0.0000   0.0000   0.0000
     0.0000   0.0000   0.0000

     highest occupied, lowest unoccupied level (ev):    -6.5712   -4.4056

!    total energy              =    -263.21054278 Ry
     estimated scf accuracy    <          4.4E-11 Ry

     convergence has been achieved in   3 iterations

     Using ACE for calculation of exact exchange
     ACE projected onto    35 (nbndproj) and applied to    35 (nbnd) bands

     total energy              =    -263.21054278 Ry
     Harris-Foulkes estimate   =    -263.21054278 Ry
     est. exchange err (dexx)  =          1.5E-09 Ry
     - averaged Fock potential =      17.84086797 Ry
     + Fock energy (ACE)       =      -8.92043523 Ry

     EXX: now go back to refine exchange calculation

     total cpu time spent up to now is     7509.2 secs

     Self-consistent Calculation

     iteration #  1     ecut=    80.00 Ry     beta= 0.50
     Davidson diagonalization with overlap

---- Real-time Memory Report at c_bands before calling an iterative solver
          2135 MiB given to the printing process from OS
             0 MiB allocation reported by mallinfo(arena+hblkhd)
         12878 MiB available memory on the node where the printing process lives
------------------
     ethr =  3.00E-12,  avg # of iterations =  2.4

     total cpu time spent up to now is     7517.7 secs

     total energy              =    -263.21054278 Ry
     estimated scf accuracy    <          1.4E-09 Ry

     iteration #  2     ecut=    80.00 Ry     beta= 0.50
     Davidson diagonalization with overlap

---- Real-time Memory Report at c_bands before calling an iterative solver
          2135 MiB given to the printing process from OS
             0 MiB allocation reported by mallinfo(arena+hblkhd)
         12873 MiB available memory on the node where the printing process lives
------------------
     ethr =  3.23E-12,  avg # of iterations =  2.0

     total cpu time spent up to now is     7525.3 secs

     total energy              =    -263.21054278 Ry
     estimated scf accuracy    <          7.9E-09 Ry

     iteration #  3     ecut=    80.00 Ry     beta= 0.50
     Davidson diagonalization with overlap

---- Real-time Memory Report at c_bands before calling an iterative solver
          2135 MiB given to the printing process from OS
             0 MiB allocation reported by mallinfo(arena+hblkhd)
         12868 MiB available memory on the node where the printing process lives
------------------
     ethr =  3.23E-12,  avg # of iterations =  2.0

     total cpu time spent up to now is     7532.6 secs

     total energy              =    -263.21054278 Ry
     estimated scf accuracy    <          1.1E-10 Ry

     iteration #  4     ecut=    80.00 Ry     beta= 0.50
     Davidson diagonalization with overlap

---- Real-time Memory Report at c_bands before calling an iterative solver
          2135 MiB given to the printing process from OS
             0 MiB allocation reported by mallinfo(arena+hblkhd)
         12866 MiB available memory on the node where the printing process lives
------------------
     ethr =  2.54E-13,  avg # of iterations =  2.0

     total cpu time spent up to now is     7539.5 secs

     End of self-consistent calculation

          k = 0.0000 0.0000 0.0000 ( 11937 PWs)   bands (ev):

   -83.5878 -52.8394 -52.7331 -52.7331 -27.0867 -26.9889 -24.3179 -22.7306
   -15.6434 -12.7266 -10.6451 -10.4743 -10.4743 -10.4277 -10.4276  -9.9056
    -9.9055  -8.4931  -8.4928  -8.4910  -6.5712  -2.6779  -2.6777  -2.4419
    -2.4418  -0.2224   0.1109   2.3491   2.3826   2.5027   4.0139   4.0140
     4.0684   4.0684   4.2611

     occupation numbers 
     1.0000   1.0000   1.0000   1.0000   1.0000   1.0000   1.0000   1.0000
     1.0000   1.0000   1.0000   1.0000   1.0000   1.0000   1.0000   1.0000
     1.0000   1.0000   1.0000   1.0000   1.0000   0.0000   0.0000   0.0000
     0.0000   0.0000   0.0000   0.0000   0.0000   0.0000   0.0000   0.0000
     0.0000   0.0000   0.0000

          k = 0.0000 0.1443 0.0000 ( 11905 PWs)   bands (ev):

   -83.5986 -52.9344 -52.7621 -52.7324 -26.7833 -26.6893 -24.0835 -22.6116
   -15.3915 -12.6005 -11.5948 -11.5320 -10.6934 -10.6654 -10.5395 -10.2729
    -9.7548  -8.8982  -8.7578  -8.3030  -6.5870  -2.9434  -2.7405  -2.7142
    -2.3878   0.5042   0.7307   2.4394   2.4917   3.0542   3.2426   3.5282
     4.6776   4.7397   5.1339

     occupation numbers 
     1.0000   1.0000   1.0000   1.0000   1.0000   1.0000   1.0000   1.0000
     1.0000   1.0000   1.0000   1.0000   1.0000   1.0000   1.0000   1.0000
     1.0000   1.0000   1.0000   1.0000   1.0000   0.0000   0.0000   0.0000
     0.0000   0.0000   0.0000   0.0000   0.0000   0.0000   0.0000   0.0000
     0.0000   0.0000   0.0000

          k = 0.0000 0.2887 0.0000 ( 11885 PWs)   bands (ev):

   -83.6091 -53.1962 -52.8332 -52.6308 -25.9782 -25.8985 -23.5235 -22.3318
   -15.0328 -13.8368 -13.4730 -12.2913 -11.5648 -11.2207 -11.2110  -9.9332
    -9.6383  -9.3534  -9.2549  -8.4990  -6.9029  -3.5595  -3.2462  -2.4600
    -1.8625   0.1115   0.3010   2.4285   2.5718   3.4916   3.9965   5.0899
     5.9021   6.1092   6.2879

     occupation numbers 
     1.0000   1.0000   1.0000   1.0000   1.0000   1.0000   1.0000   1.0000
     1.0000   1.0000   1.0000   1.0000   1.0000   1.0000   1.0000   1.0000
     1.0000   1.0000   1.0000   1.0000   1.0000   0.0000   0.0000   0.0000
     0.0000   0.0000   0.0000   0.0000   0.0000   0.0000   0.0000   0.0000
     0.0000   0.0000   0.0000

          k = 0.0000 0.4330 0.0000 ( 11860 PWs)   bands (ev):

   -83.6038 -53.2498 -52.8422 -52.7458 -24.9041 -24.8504 -22.9908 -22.1110
   -16.2449 -15.9316 -13.8299 -12.6005 -12.0658 -11.7473 -11.7153 -10.4095
    -9.8224  -9.4658  -8.6994  -8.6884  -7.1318  -4.0133  -3.6252  -2.2419
    -1.4762  -1.2819  -0.7757   2.4296   2.9896   4.0198   4.2989   5.7888
     6.4123   6.6150   7.1622

     occupation numbers 
     1.0000   1.0000   1.0000   1.0000   1.0000   1.0000   1.0000   1.0000
     1.0000   1.0000   1.0000   1.0000   1.0000   1.0000   1.0000   1.0000
     1.0000   1.0000   1.0000   1.0000   1.0000   0.0000   0.0000   0.0000
     0.0000   0.0000   0.0000   0.0000   0.0000   0.0000   0.0000   0.0000
     0.0000   0.0000   0.0000

          k = 0.0000-0.5774 0.0000 ( 11846 PWs)   bands (ev):

   -83.5997 -53.1997 -52.8625 -52.8554 -24.2398 -24.2131 -22.8612 -22.1257
   -17.1597 -16.8848 -13.5592 -13.0601 -12.1762 -11.9708 -11.9322 -10.6057
   -10.0236  -9.2228  -8.7541  -8.4432  -7.3113  -4.0107  -3.6810  -2.3876
    -1.8990  -1.3444  -1.0608   2.1456   2.7601   4.4231   5.1187   5.8258
     6.1779   6.5203   7.2569

     occupation numbers 
     1.0000   1.0000   1.0000   1.0000   1.0000   1.0000   1.0000   1.0000
     1.0000   1.0000   1.0000   1.0000   1.0000   1.0000   1.0000   1.0000
     1.0000   1.0000   1.0000   1.0000   1.0000   0.0000   0.0000   0.0000
     0.0000   0.0000   0.0000   0.0000   0.0000   0.0000   0.0000   0.0000
     0.0000   0.0000   0.0000

          k = 0.1250 0.2165 0.0000 ( 11867 PWs)   bands (ev):

   -83.6000 -53.1246 -52.8484 -52.5886 -26.2304 -26.1449 -23.6925 -22.4180
   -15.0458 -13.0818 -12.8533 -12.2956 -11.6088 -11.3088 -10.9262  -9.9738
    -9.6597  -9.5529  -9.0095  -8.3568  -6.7805  -3.3970  -3.0845  -2.7038
    -1.9046   1.0475   1.2331   2.0133   2.0273   3.4885   3.6387   4.0485
     5.0946   5.7027   6.4690

     occupation numbers 
     1.0000   1.0000   1.0000   1.0000   1.0000   1.0000   1.0000   1.0000
     1.0000   1.0000   1.0000   1.0000   1.0000   1.0000   1.0000   1.0000
     1.0000   1.0000   1.0000   1.0000   1.0000   0.0000   0.0000   0.0000
     0.0000   0.0000   0.0000   0.0000   0.0000   0.0000   0.0000   0.0000
     0.0000   0.0000   0.0000

          k = 0.1250 0.3608 0.0000 ( 11871 PWs)   bands (ev):

   -83.6026 -53.2159 -52.9539 -52.6006 -25.2710 -25.2050 -23.1383 -22.1573
   -15.4510 -14.9648 -13.7879 -12.5718 -12.2951 -11.9825 -11.6111 -10.5851
    -9.6709  -9.3285  -9.0844  -8.6311  -7.1490  -3.7611  -3.4935  -2.3499
    -1.5960   0.1374   0.3700   2.6670   2.7394   3.7949   4.1853   5.1195
     5.7511   6.1935   6.6254

     occupation numbers 
     1.0000   1.0000   1.0000   1.0000   1.0000   1.0000   1.0000   1.0000
     1.0000   1.0000   1.0000   1.0000   1.0000   1.0000   1.0000   1.0000
     1.0000   1.0000   1.0000   1.0000   1.0000   0.0000   0.0000   0.0000
     0.0000   0.0000   0.0000   0.0000   0.0000   0.0000   0.0000   0.0000
     0.0000   0.0000   0.0000

          k = 0.1250 0.5052 0.0000 ( 11841 PWs)   bands (ev):

   -83.6064 -53.1969 -52.9793 -52.7611 -24.2819 -24.2462 -22.8262 -22.0747
   -16.7278 -16.4400 -13.6155 -13.1086 -12.7150 -12.3305 -12.0355 -10.8020
    -9.9129  -9.2704  -9.0755  -8.5489  -7.2528  -4.1066  -3.4699  -2.0869
    -1.7523  -0.7231  -0.3382   2.7308   3.2511   3.9501   4.3510   5.3755
     6.2338   6.3134   7.0529

     occupation numbers 
     1.0000   1.0000   1.0000   1.0000   1.0000   1.0000   1.0000   1.0000
     1.0000   1.0000   1.0000   1.0000   1.0000   1.0000   1.0000   1.0000
     1.0000   1.0000   1.0000   1.0000   1.0000   0.0000   0.0000   0.0000
     0.0000   0.0000   0.0000   0.0000   0.0000   0.0000   0.0000   0.0000
     0.0000   0.0000   0.0000

          k = 0.2500 0.4330 0.0000 ( 11844 PWs)   bands (ev):

   -83.6137 -53.1802 -53.1210 -52.6575 -24.3245 -24.2814 -22.7975 -22.0299
   -16.1279 -15.7819 -14.0054 -13.7999 -13.2886 -11.9823 -11.8360 -11.1878
   -10.0790  -9.5778  -9.0424  -8.5243  -7.3328  -4.0044  -3.4136  -2.1496
    -1.6658   0.5053   0.7404   2.6205   3.0285   4.4548   4.7121   5.0805
     5.4754   6.1224   6.8619

     occupation numbers 
     1.0000   1.0000   1.0000   1.0000   1.0000   1.0000   1.0000   1.0000
     1.0000   1.0000   1.0000   1.0000   1.0000   1.0000   1.0000   1.0000
     1.0000   1.0000   1.0000   1.0000   1.0000   0.0000   0.0000   0.0000
     0.0000   0.0000   0.0000   0.0000   0.0000   0.0000   0.0000   0.0000
     0.0000   0.0000   0.0000

          k = 0.2500 0.5774 0.0000 ( 11800 PWs)   bands (ev):

   -83.6030 -53.2076 -53.1348 -52.6269 -23.7835 -23.7559 -22.7484 -22.0513
   -16.3800 -16.0483 -14.6479 -14.5199 -12.8143 -12.3612 -12.1085 -10.8398
   -10.5805  -9.9952  -8.9873  -8.3418  -6.9631  -4.4056  -3.2514  -2.0455
    -1.7594   0.2874   0.6864   2.8439   3.2815   4.3314   4.7380   5.2489
     5.8546   6.3478   6.4451

     occupation numbers 
     1.0000   1.0000   1.0000   1.0000   1.0000   1.0000   1.0000   1.0000
     1.0000   1.0000   1.0000   1.0000   1.0000   1.0000   1.0000   1.0000
     1.0000   1.0000   1.0000   1.0000   1.0000   0.0000   0.0000   0.0000
     0.0000   0.0000   0.0000   0.0000   0.0000   0.0000   0.0000   0.0000
     0.0000   0.0000   0.0000

          k =-0.1250 0.0722 0.0000 ( 11905 PWs)   bands (ev):

   -83.5986 -52.9344 -52.7621 -52.7324 -26.7833 -26.6893 -24.0835 -22.6116
   -15.3915 -12.6005 -11.5949 -11.5321 -10.6933 -10.6653 -10.5395 -10.2729
    -9.7548  -8.8984  -8.7575  -8.3031  -6.5870  -2.9434  -2.7404  -2.7141
    -2.3879   0.5042   0.7307   2.4394   2.4917   3.0542   3.2426   3.5282
     4.6776   4.7397   5.1339

     occupation numbers 
     1.0000   1.0000   1.0000   1.0000   1.0000   1.0000   1.0000   1.0000
     1.0000   1.0000   1.0000   1.0000   1.0000   1.0000   1.0000   1.0000
     1.0000   1.0000   1.0000   1.0000   1.0000   0.0000   0.0000   0.0000
     0.0000   0.0000   0.0000   0.0000   0.0000   0.0000   0.0000   0.0000
     0.0000   0.0000   0.0000

          k = 0.1250 0.0722 0.0000 ( 11905 PWs)   bands (ev):

   -83.5986 -52.9344 -52.7621 -52.7324 -26.7833 -26.6893 -24.0835 -22.6116
   -15.3915 -12.6005 -11.5948 -11.5320 -10.6934 -10.6654 -10.5395 -10.2729
    -9.7548  -8.8982  -8.7577  -8.3030  -6.5870  -2.9434  -2.7405  -2.7142
    -2.3878   0.5042   0.7308   2.4394   2.4917   3.0542   3.2426   3.5282
     4.6776   4.7397   5.1339

     occupation numbers 
     1.0000   1.0000   1.0000   1.0000   1.0000   1.0000   1.0000   1.0000
     1.0000   1.0000   1.0000   1.0000   1.0000   1.0000   1.0000   1.0000
     1.0000   1.0000   1.0000   1.0000   1.0000   0.0000   0.0000   0.0000
     0.0000   0.0000   0.0000   0.0000   0.0000   0.0000   0.0000   0.0000
     0.0000   0.0000   0.0000

          k =-0.2500 0.1443 0.0000 ( 11885 PWs)   bands (ev):

   -83.6091 -53.1962 -52.8332 -52.6308 -25.9782 -25.8985 -23.5235 -22.3319
   -15.0328 -13.8368 -13.4731 -12.2914 -11.5648 -11.2207 -11.2110  -9.9332
    -9.6383  -9.3533  -9.2548  -8.4990  -6.9030  -3.5595  -3.2462  -2.4599
    -1.8626   0.1115   0.3010   2.4285   2.5718   3.4915   3.9964   5.0899
     5.9021   6.1092   6.2879

     occupation numbers 
     1.0000   1.0000   1.0000   1.0000   1.0000   1.0000   1.0000   1.0000
     1.0000   1.0000   1.0000   1.0000   1.0000   1.0000   1.0000   1.0000
     1.0000   1.0000   1.0000   1.0000   1.0000   0.0000   0.0000   0.0000
     0.0000   0.0000   0.0000   0.0000   0.0000   0.0000   0.0000   0.0000
     0.0000   0.0000   0.0000

          k = 0.2500 0.1443 0.0000 ( 11885 PWs)   bands (ev):

   -83.6091 -53.1962 -52.8332 -52.6308 -25.9782 -25.8985 -23.5235 -22.3318
   -15.0328 -13.8368 -13.4730 -12.2913 -11.5648 -11.2207 -11.2110  -9.9332
    -9.6383  -9.3534  -9.2549  -8.4990  -6.9029  -3.5595  -3.2462  -2.4600
    -1.8625   0.1115   0.3010   2.4285   2.5718   3.4915   3.9964   5.0899
     5.9021   6.1092   6.2878

     occupation numbers 
     1.0000   1.0000   1.0000   1.0000   1.0000   1.0000   1.0000   1.0000
     1.0000   1.0000   1.0000   1.0000   1.0000   1.0000   1.0000   1.0000
     1.0000   1.0000   1.0000   1.0000   1.0000   0.0000   0.0000   0.0000
     0.0000   0.0000   0.0000   0.0000   0.0000   0.0000   0.0000   0.0000
     0.0000   0.0000   0.0000

          k =-0.3750 0.2165 0.0000 ( 11860 PWs)   bands (ev):

   -83.6038 -53.2498 -52.8422 -52.7458 -24.9041 -24.8504 -22.9908 -22.1110
   -16.2450 -15.9316 -13.8299 -12.6005 -12.0658 -11.7472 -11.7152 -10.4095
    -9.8223  -9.4657  -8.6993  -8.6885  -7.1319  -4.0134  -3.6252  -2.2418
    -1.4762  -1.2819  -0.7757   2.4297   2.9895   4.0198   4.2989   5.7889
     6.4122   6.6150   7.1622

     occupation numbers 
     1.0000   1.0000   1.0000   1.0000   1.0000   1.0000   1.0000   1.0000
     1.0000   1.0000   1.0000   1.0000   1.0000   1.0000   1.0000   1.0000
     1.0000   1.0000   1.0000   1.0000   1.0000   0.0000   0.0000   0.0000
     0.0000   0.0000   0.0000   0.0000   0.0000   0.0000   0.0000   0.0000
     0.0000   0.0000   0.0000

          k = 0.3750 0.2165 0.0000 ( 11860 PWs)   bands (ev):

   -83.6038 -53.2498 -52.8422 -52.7458 -24.9041 -24.8504 -22.9908 -22.1110
   -16.2449 -15.9316 -13.8299 -12.6005 -12.0658 -11.7473 -11.7153 -10.4095
    -9.8224  -9.4657  -8.6994  -8.6884  -7.1318  -4.0133  -3.6252  -2.2419
    -1.4762  -1.2819  -0.7757   2.4296   2.9895   4.0198   4.2989   5.7888
     6.4123   6.6150   7.1621

     occupation numbers 
     1.0000   1.0000   1.0000   1.0000   1.0000   1.0000   1.0000   1.0000
     1.0000   1.0000   1.0000   1.0000   1.0000   1.0000   1.0000   1.0000
     1.0000   1.0000   1.0000   1.0000   1.0000   0.0000   0.0000   0.0000
     0.0000   0.0000   0.0000   0.0000   0.0000   0.0000   0.0000   0.0000
     0.0000   0.0000   0.0000

          k = 0.5000-0.2887 0.0000 ( 11846 PWs)   bands (ev):

   -83.5997 -53.1997 -52.8625 -52.8554 -24.2398 -24.2131 -22.8611 -22.1257
   -17.1597 -16.8848 -13.5592 -13.0600 -12.1762 -11.9707 -11.9321 -10.6057
   -10.0234  -9.2227  -8.7542  -8.4431  -7.3113  -4.0108  -3.6810  -2.3876
    -1.8990  -1.3444  -1.0608   2.1456   2.7600   4.4231   5.1187   5.8258
     6.1779   6.5203   7.2570

     occupation numbers 
     1.0000   1.0000   1.0000   1.0000   1.0000   1.0000   1.0000   1.0000
     1.0000   1.0000   1.0000   1.0000   1.0000   1.0000   1.0000   1.0000
     1.0000   1.0000   1.0000   1.0000   1.0000   0.0000   0.0000   0.0000
     0.0000   0.0000   0.0000   0.0000   0.0000   0.0000   0.0000   0.0000
     0.0000   0.0000   0.0000

          k =-0.5000-0.2887 0.0000 ( 11846 PWs)   bands (ev):

   -83.5997 -53.1997 -52.8625 -52.8554 -24.2398 -24.2131 -22.8611 -22.1256
   -17.1597 -16.8848 -13.5592 -13.0601 -12.1762 -11.9708 -11.9322 -10.6057
   -10.0236  -9.2228  -8.7542  -8.4432  -7.3113  -4.0107  -3.6810  -2.3876
    -1.8990  -1.3444  -1.0608   2.1456   2.7600   4.4231   5.1187   5.8258
     6.1779   6.5203   7.2569

     occupation numbers 
     1.0000   1.0000   1.0000   1.0000   1.0000   1.0000   1.0000   1.0000
     1.0000   1.0000   1.0000   1.0000   1.0000   1.0000   1.0000   1.0000
     1.0000   1.0000   1.0000   1.0000   1.0000   0.0000   0.0000   0.0000
     0.0000   0.0000   0.0000   0.0000   0.0000   0.0000   0.0000   0.0000
     0.0000   0.0000   0.0000

          k =-0.1250 0.2165 0.0000 ( 11867 PWs)   bands (ev):

   -83.6000 -53.1246 -52.8484 -52.5886 -26.2304 -26.1449 -23.6925 -22.4180
   -15.0458 -13.0818 -12.8533 -12.2956 -11.6088 -11.3087 -10.9261  -9.9738
    -9.6596  -9.5528  -9.0095  -8.3568  -6.7805  -3.3970  -3.0846  -2.7038
    -1.9046   1.0475   1.2331   2.0133   2.0273   3.4885   3.6387   4.0485
     5.0946   5.7027   6.4690

     occupation numbers 
     1.0000   1.0000   1.0000   1.0000   1.0000   1.0000   1.0000   1.0000
     1.0000   1.0000   1.0000   1.0000   1.0000   1.0000   1.0000   1.0000
     1.0000   1.0000   1.0000   1.0000   1.0000   0.0000   0.0000   0.0000
     0.0000   0.0000   0.0000   0.0000   0.0000   0.0000   0.0000   0.0000
     0.0000   0.0000   0.0000

          k = 0.2500-0.0000 0.0000 ( 11867 PWs)   bands (ev):

   -83.6000 -53.1246 -52.8484 -52.5886 -26.2304 -26.1449 -23.6925 -22.4180
   -15.0457 -13.0818 -12.8533 -12.2956 -11.6088 -11.3087 -10.9261  -9.9738
    -9.6596  -9.5527  -9.0095  -8.3568  -6.7805  -3.3970  -3.0846  -2.7038
    -1.9046   1.0475   1.2332   2.0133   2.0273   3.4885   3.6387   4.0485
     5.0945   5.7027   6.4691

     occupation numbers 
     1.0000   1.0000   1.0000   1.0000   1.0000   1.0000   1.0000   1.0000
     1.0000   1.0000   1.0000   1.0000   1.0000   1.0000   1.0000   1.0000
     1.0000   1.0000   1.0000   1.0000   1.0000   0.0000   0.0000   0.0000
     0.0000   0.0000   0.0000   0.0000   0.0000   0.0000   0.0000   0.0000
     0.0000   0.0000   0.0000

          k =-0.1250 0.3608 0.0000 ( 11871 PWs)   bands (ev):

   -83.6026 -53.2159 -52.9539 -52.6006 -25.2710 -25.2050 -23.1383 -22.1573
   -15.4510 -14.9648 -13.7879 -12.5718 -12.2951 -11.9825 -11.6111 -10.5851
    -9.6709  -9.3285  -9.0844  -8.6310  -7.1491  -3.7611  -3.4935  -2.3500
    -1.5960   0.1374   0.3700   2.6670   2.7394   3.7949   4.1853   5.1196
     5.7511   6.1935   6.6254

     occupation numbers 
     1.0000   1.0000   1.0000   1.0000   1.0000   1.0000   1.0000   1.0000
     1.0000   1.0000   1.0000   1.0000   1.0000   1.0000   1.0000   1.0000
     1.0000   1.0000   1.0000   1.0000   1.0000   0.0000   0.0000   0.0000
     0.0000   0.0000   0.0000   0.0000   0.0000   0.0000   0.0000   0.0000
     0.0000   0.0000   0.0000

          k =-0.2500 0.2887 0.0000 ( 11871 PWs)   bands (ev):

   -83.6026 -53.2159 -52.9539 -52.6006 -25.2710 -25.2050 -23.1383 -22.1573
   -15.4510 -14.9649 -13.7879 -12.5718 -12.2950 -11.9825 -11.6111 -10.5850
    -9.6708  -9.3284  -9.0844  -8.6311  -7.1491  -3.7611  -3.4935  -2.3499
    -1.5960   0.1374   0.3700   2.6670   2.7394   3.7948   4.1852   5.1196
     5.7511   6.1935   6.6253

     occupation numbers 
     1.0000   1.0000   1.0000   1.0000   1.0000   1.0000   1.0000   1.0000
     1.0000   1.0000   1.0000   1.0000   1.0000   1.0000   1.0000   1.0000
     1.0000   1.0000   1.0000   1.0000   1.0000   0.0000   0.0000   0.0000
     0.0000   0.0000   0.0000   0.0000   0.0000   0.0000   0.0000   0.0000
     0.0000   0.0000   0.0000

          k = 0.3750 0.0722 0.0000 ( 11871 PWs)   bands (ev):

   -83.6026 -53.2159 -52.9539 -52.6006 -25.2710 -25.2050 -23.1383 -22.1573
   -15.4510 -14.9648 -13.7879 -12.5718 -12.2951 -11.9825 -11.6111 -10.5851
    -9.6709  -9.3285  -9.0844  -8.6310  -7.1491  -3.7611  -3.4935  -2.3500
    -1.5960   0.1374   0.3700   2.6670   2.7394   3.7949   4.1853   5.1196
     5.7511   6.1936   6.6254

     occupation numbers 
     1.0000   1.0000   1.0000   1.0000   1.0000   1.0000   1.0000   1.0000
     1.0000   1.0000   1.0000   1.0000   1.0000   1.0000   1.0000   1.0000
     1.0000   1.0000   1.0000   1.0000   1.0000   0.0000   0.0000   0.0000
     0.0000   0.0000   0.0000   0.0000   0.0000   0.0000   0.0000   0.0000
     0.0000   0.0000   0.0000

          k =-0.2500-0.2887 0.0000 ( 11871 PWs)   bands (ev):

   -83.6026 -53.2159 -52.9539 -52.6006 -25.2710 -25.2050 -23.1383 -22.1573
   -15.4510 -14.9648 -13.7879 -12.5718 -12.2951 -11.9825 -11.6111 -10.5851
    -9.6708  -9.3285  -9.0844  -8.6311  -7.1490  -3.7611  -3.4935  -2.3499
    -1.5960   0.1374   0.3700   2.6670   2.7394   3.7948   4.1852   5.1196
     5.7511   6.1935   6.6254

     occupation numbers 
     1.0000   1.0000   1.0000   1.0000   1.0000   1.0000   1.0000   1.0000
     1.0000   1.0000   1.0000   1.0000   1.0000   1.0000   1.0000   1.0000
     1.0000   1.0000   1.0000   1.0000   1.0000   0.0000   0.0000   0.0000
     0.0000   0.0000   0.0000   0.0000   0.0000   0.0000   0.0000   0.0000
     0.0000   0.0000   0.0000

          k = 0.3750-0.0722 0.0000 ( 11871 PWs)   bands (ev):

   -83.6026 -53.2159 -52.9539 -52.6006 -25.2710 -25.2050 -23.1383 -22.1573
   -15.4510 -14.9649 -13.7879 -12.5718 -12.2950 -11.9825 -11.6111 -10.5850
    -9.6708  -9.3285  -9.0844  -8.6311  -7.1491  -3.7611  -3.4935  -2.3499
    -1.5960   0.1374   0.3700   2.6670   2.7394   3.7948   4.1853   5.1196
     5.7511   6.1936   6.6253

     occupation numbers 
     1.0000   1.0000   1.0000   1.0000   1.0000   1.0000   1.0000   1.0000
     1.0000   1.0000   1.0000   1.0000   1.0000   1.0000   1.0000   1.0000
     1.0000   1.0000   1.0000   1.0000   1.0000   0.0000   0.0000   0.0000
     0.0000   0.0000   0.0000   0.0000   0.0000   0.0000   0.0000   0.0000
     0.0000   0.0000   0.0000

          k =-0.1250 0.5052 0.0000 ( 11841 PWs)   bands (ev):

   -83.6064 -53.1969 -52.9793 -52.7611 -24.2819 -24.2462 -22.8262 -22.0747
   -16.7278 -16.4400 -13.6155 -13.1086 -12.7150 -12.3305 -12.0355 -10.8020
    -9.9129  -9.2704  -9.0755  -8.5489  -7.2528  -4.1067  -3.4699  -2.0870
    -1.7522  -0.7231  -0.3382   2.7308   3.2511   3.9501   4.3510   5.3755
     6.2339   6.3133   7.0529

     occupation numbers 
     1.0000   1.0000   1.0000   1.0000   1.0000   1.0000   1.0000   1.0000
     1.0000   1.0000   1.0000   1.0000   1.0000   1.0000   1.0000   1.0000
     1.0000   1.0000   1.0000   1.0000   1.0000   0.0000   0.0000   0.0000
     0.0000   0.0000   0.0000   0.0000   0.0000   0.0000   0.0000   0.0000
     0.0000   0.0000   0.0000

          k =-0.3750 0.3608 0.0000 ( 11841 PWs)   bands (ev):

   -83.6064 -53.1969 -52.9793 -52.7611 -24.2819 -24.2462 -22.8262 -22.0748
   -16.7279 -16.4401 -13.6155 -13.1086 -12.7149 -12.3304 -12.0355 -10.8020
    -9.9128  -9.2703  -9.0754  -8.5489  -7.2529  -4.1067  -3.4699  -2.0869
    -1.7523  -0.7231  -0.3382   2.7309   3.2511   3.9501   4.3510   5.3755
     6.2338   6.3133   7.0530

     occupation numbers 
     1.0000   1.0000   1.0000   1.0000   1.0000   1.0000   1.0000   1.0000
     1.0000   1.0000   1.0000   1.0000   1.0000   1.0000   1.0000   1.0000
     1.0000   1.0000   1.0000   1.0000   1.0000   0.0000   0.0000   0.0000
     0.0000   0.0000   0.0000   0.0000   0.0000   0.0000   0.0000   0.0000
     0.0000   0.0000   0.0000

          k = 0.5000 0.1443 0.0000 ( 11841 PWs)   bands (ev):

   -83.6064 -53.1969 -52.9793 -52.7611 -24.2819 -24.2462 -22.8262 -22.0747
   -16.7278 -16.4401 -13.6155 -13.1086 -12.7150 -12.3305 -12.0355 -10.8021
    -9.9129  -9.2704  -9.0754  -8.5489  -7.2529  -4.1067  -3.4699  -2.0870
    -1.7522  -0.7231  -0.3382   2.7308   3.2510   3.9501   4.3510   5.3756
     6.2338   6.3134   7.0529

     occupation numbers 
     1.0000   1.0000   1.0000   1.0000   1.0000   1.0000   1.0000   1.0000
     1.0000   1.0000   1.0000   1.0000   1.0000   1.0000   1.0000   1.0000
     1.0000   1.0000   1.0000   1.0000   1.0000   0.0000   0.0000   0.0000
     0.0000   0.0000   0.0000   0.0000   0.0000   0.0000   0.0000   0.0000
     0.0000   0.0000   0.0000

          k =-0.3750-0.3608 0.0000 ( 11841 PWs)   bands (ev):

   -83.6064 -53.1969 -52.9793 -52.7611 -24.2819 -24.2462 -22.8262 -22.0747
   -16.7278 -16.4401 -13.6155 -13.1086 -12.7150 -12.3305 -12.0355 -10.8020
    -9.9129  -9.2704  -9.0755  -8.5489  -7.2528  -4.1066  -3.4699  -2.0869
    -1.7523  -0.7231  -0.3382   2.7308   3.2511   3.9501   4.3510   5.3755
     6.2338   6.3134   7.0530

     occupation numbers 
     1.0000   1.0000   1.0000   1.0000   1.0000   1.0000   1.0000   1.0000
     1.0000   1.0000   1.0000   1.0000   1.0000   1.0000   1.0000   1.0000
     1.0000   1.0000   1.0000   1.0000   1.0000   0.0000   0.0000   0.0000
     0.0000   0.0000   0.0000   0.0000   0.0000   0.0000   0.0000   0.0000
     0.0000   0.0000   0.0000

          k = 0.5000-0.1443 0.0000 ( 11841 PWs)   bands (ev):

   -83.6064 -53.1969 -52.9793 -52.7611 -24.2819 -24.2462 -22.8262 -22.0748
   -16.7279 -16.4401 -13.6155 -13.1086 -12.7149 -12.3304 -12.0355 -10.8020
    -9.9128  -9.2704  -9.0754  -8.5489  -7.2529  -4.1067  -3.4699  -2.0869
    -1.7523  -0.7231  -0.3382   2.7308   3.2511   3.9501   4.3510   5.3756
     6.2338   6.3133   7.0529

     occupation numbers 
     1.0000   1.0000   1.0000   1.0000   1.0000   1.0000   1.0000   1.0000
     1.0000   1.0000   1.0000   1.0000   1.0000   1.0000   1.0000   1.0000
     1.0000   1.0000   1.0000   1.0000   1.0000   0.0000   0.0000   0.0000
     0.0000   0.0000   0.0000   0.0000   0.0000   0.0000   0.0000   0.0000
     0.0000   0.0000   0.0000

          k =-0.2500 0.4330 0.0000 ( 11844 PWs)   bands (ev):

   -83.6137 -53.1802 -53.1209 -52.6575 -24.3245 -24.2814 -22.7975 -22.0299
   -16.1280 -15.7820 -14.0054 -13.7998 -13.2886 -11.9823 -11.8359 -11.1878
   -10.0790  -9.5778  -9.0424  -8.5243  -7.3328  -4.0045  -3.4136  -2.1497
    -1.6657   0.5054   0.7404   2.6205   3.0285   4.4548   4.7121   5.0806
     5.4753   6.1225   6.8619

     occupation numbers 
     1.0000   1.0000   1.0000   1.0000   1.0000   1.0000   1.0000   1.0000
     1.0000   1.0000   1.0000   1.0000   1.0000   1.0000   1.0000   1.0000
     1.0000   1.0000   1.0000   1.0000   1.0000   0.0000   0.0000   0.0000
     0.0000   0.0000   0.0000   0.0000   0.0000   0.0000   0.0000   0.0000
     0.0000   0.0000   0.0000

          k = 0.5000-0.0000 0.0000 ( 11844 PWs)   bands (ev):

   -83.6137 -53.1802 -53.1209 -52.6575 -24.3245 -24.2814 -22.7975 -22.0299
   -16.1280 -15.7820 -14.0054 -13.7998 -13.2886 -11.9823 -11.8359 -11.1878
   -10.0790  -9.5778  -9.0424  -8.5243  -7.3328  -4.0045  -3.4136  -2.1497
    -1.6657   0.5054   0.7404   2.6205   3.0285   4.4548   4.7120   5.0806
     5.4753   6.1225   6.8618

     occupation numbers 
     1.0000   1.0000   1.0000   1.0000   1.0000   1.0000   1.0000   1.0000
     1.0000   1.0000   1.0000   1.0000   1.0000   1.0000   1.0000   1.0000
     1.0000   1.0000   1.0000   1.0000   1.0000   0.0000   0.0000   0.0000
     0.0000   0.0000   0.0000   0.0000   0.0000   0.0000   0.0000   0.0000
     0.0000   0.0000   0.0000

          k =-0.3750 0.5052 0.0000 ( 11800 PWs)   bands (ev):

   -83.6030 -53.2076 -53.1348 -52.6269 -23.7835 -23.7559 -22.7484 -22.0513
   -16.3800 -16.0483 -14.6478 -14.5199 -12.8143 -12.3612 -12.1085 -10.8398
   -10.5804  -9.9952  -8.9873  -8.3418  -6.9631  -4.4056  -3.2514  -2.0456
    -1.7593   0.2874   0.6863   2.8439   3.2815   4.3314   4.7380   5.2490
     5.8545   6.3478   6.4452

     occupation numbers 
     1.0000   1.0000   1.0000   1.0000   1.0000   1.0000   1.0000   1.0000
     1.0000   1.0000   1.0000   1.0000   1.0000   1.0000   1.0000   1.0000
     1.0000   1.0000   1.0000   1.0000   1.0000   0.0000   0.0000   0.0000
     0.0000   0.0000   0.0000   0.0000   0.0000   0.0000   0.0000   0.0000
     0.0000   0.0000   0.0000

          k = 0.6250 0.0722 0.0000 ( 11800 PWs)   bands (ev):

   -83.6030 -53.2076 -53.1348 -52.6269 -23.7835 -23.7559 -22.7484 -22.0513
   -16.3800 -16.0483 -14.6479 -14.5199 -12.8143 -12.3612 -12.1085 -10.8398
   -10.5805  -9.9952  -8.9873  -8.3418  -6.9631  -4.4056  -3.2514  -2.0455
    -1.7594   0.2874   0.6864   2.8439   3.2815   4.3314   4.7380   5.2490
     5.8546   6.3479   6.4452

     occupation numbers 
     1.0000   1.0000   1.0000   1.0000   1.0000   1.0000   1.0000   1.0000
     1.0000   1.0000   1.0000   1.0000   1.0000   1.0000   1.0000   1.0000
     1.0000   1.0000   1.0000   1.0000   1.0000   0.0000   0.0000   0.0000
     0.0000   0.0000   0.0000   0.0000   0.0000   0.0000   0.0000   0.0000
     0.0000   0.0000   0.0000

     highest occupied, lowest unoccupied level (ev):    -6.5712   -4.4056

!    total energy              =    -263.21054278 Ry
     estimated scf accuracy    <          2.8E-13 Ry

     convergence has been achieved in   4 iterations

     Using ACE for calculation of exact exchange
     ACE projected onto    35 (nbndproj) and applied to    35 (nbnd) bands

     total energy              =    -263.21054278 Ry
     Harris-Foulkes estimate   =    -263.21054278 Ry
     est. exchange err (dexx)  =          8.8E-10 Ry
     - averaged Fock potential =      17.84087284 Ry
     + Fock energy (ACE)       =      -8.92043761 Ry

     EXX: now go back to refine exchange calculation

     total cpu time spent up to now is     7878.8 secs

     Self-consistent Calculation

     iteration #  1     ecut=    80.00 Ry     beta= 0.50
     Davidson diagonalization with overlap

---- Real-time Memory Report at c_bands before calling an iterative solver
          2135 MiB given to the printing process from OS
             0 MiB allocation reported by mallinfo(arena+hblkhd)
         12882 MiB available memory on the node where the printing process lives
------------------
     ethr =  2.54E-13,  avg # of iterations =  3.1

     total cpu time spent up to now is     7887.5 secs

     End of self-consistent calculation

          k = 0.0000 0.0000 0.0000 ( 11937 PWs)   bands (ev):

   -83.5878 -52.8394 -52.7331 -52.7331 -27.0867 -26.9889 -24.3179 -22.7306
   -15.6434 -12.7266 -10.6451 -10.4743 -10.4743 -10.4277 -10.4276  -9.9056
    -9.9055  -8.4931  -8.4928  -8.4910  -6.5712  -2.6779  -2.6777  -2.4419
    -2.4418  -0.2224   0.1109   2.3491   2.3826   2.5027   4.0139   4.0140
     4.0684   4.0684   4.2611

     occupation numbers 
     1.0000   1.0000   1.0000   1.0000   1.0000   1.0000   1.0000   1.0000
     1.0000   1.0000   1.0000   1.0000   1.0000   1.0000   1.0000   1.0000
     1.0000   1.0000   1.0000   1.0000   1.0000   0.0000   0.0000   0.0000
     0.0000   0.0000   0.0000   0.0000   0.0000   0.0000   0.0000   0.0000
     0.0000   0.0000   0.0000

          k = 0.0000 0.1443 0.0000 ( 11905 PWs)   bands (ev):

   -83.5986 -52.9344 -52.7621 -52.7324 -26.7833 -26.6893 -24.0835 -22.6116
   -15.3915 -12.6005 -11.5948 -11.5320 -10.6934 -10.6654 -10.5395 -10.2729
    -9.7548  -8.8982  -8.7578  -8.3030  -6.5870  -2.9434  -2.7405  -2.7142
    -2.3878   0.5042   0.7307   2.4394   2.4917   3.0542   3.2426   3.5282
     4.6776   4.7397   5.1339

     occupation numbers 
     1.0000   1.0000   1.0000   1.0000   1.0000   1.0000   1.0000   1.0000
     1.0000   1.0000   1.0000   1.0000   1.0000   1.0000   1.0000   1.0000
     1.0000   1.0000   1.0000   1.0000   1.0000   0.0000   0.0000   0.0000
     0.0000   0.0000   0.0000   0.0000   0.0000   0.0000   0.0000   0.0000
     0.0000   0.0000   0.0000

          k = 0.0000 0.2887 0.0000 ( 11885 PWs)   bands (ev):

   -83.6091 -53.1962 -52.8332 -52.6307 -25.9782 -25.8985 -23.5235 -22.3318
   -15.0328 -13.8368 -13.4730 -12.2913 -11.5648 -11.2207 -11.2110  -9.9332
    -9.6383  -9.3534  -9.2549  -8.4990  -6.9028  -3.5595  -3.2462  -2.4600
    -1.8625   0.1115   0.3010   2.4285   2.5718   3.4916   3.9965   5.0899
     5.9021   6.1092   6.2879

     occupation numbers 
     1.0000   1.0000   1.0000   1.0000   1.0000   1.0000   1.0000   1.0000
     1.0000   1.0000   1.0000   1.0000   1.0000   1.0000   1.0000   1.0000
     1.0000   1.0000   1.0000   1.0000   1.0000   0.0000   0.0000   0.0000
     0.0000   0.0000   0.0000   0.0000   0.0000   0.0000   0.0000   0.0000
     0.0000   0.0000   0.0000

          k = 0.0000 0.4330 0.0000 ( 11860 PWs)   bands (ev):

   -83.6038 -53.2498 -52.8422 -52.7459 -24.9041 -24.8504 -22.9908 -22.1110
   -16.2449 -15.9316 -13.8299 -12.6005 -12.0658 -11.7473 -11.7153 -10.4095
    -9.8224  -9.4658  -8.6994  -8.6884  -7.1319  -4.0133  -3.6252  -2.2419
    -1.4762  -1.2819  -0.7757   2.4297   2.9896   4.0198   4.2989   5.7888
     6.4123   6.6150   7.1622

     occupation numbers 
     1.0000   1.0000   1.0000   1.0000   1.0000   1.0000   1.0000   1.0000
     1.0000   1.0000   1.0000   1.0000   1.0000   1.0000   1.0000   1.0000
     1.0000   1.0000   1.0000   1.0000   1.0000   0.0000   0.0000   0.0000
     0.0000   0.0000   0.0000   0.0000   0.0000   0.0000   0.0000   0.0000
     0.0000   0.0000   0.0000

          k = 0.0000-0.5774 0.0000 ( 11846 PWs)   bands (ev):

   -83.5997 -53.1997 -52.8625 -52.8554 -24.2398 -24.2131 -22.8612 -22.1257
   -17.1597 -16.8848 -13.5592 -13.0601 -12.1762 -11.9708 -11.9322 -10.6057
   -10.0236  -9.2228  -8.7542  -8.4432  -7.3113  -4.0107  -3.6810  -2.3876
    -1.8990  -1.3444  -1.0608   2.1456   2.7601   4.4231   5.1187   5.8258
     6.1779   6.5203   7.2569

     occupation numbers 
     1.0000   1.0000   1.0000   1.0000   1.0000   1.0000   1.0000   1.0000
     1.0000   1.0000   1.0000   1.0000   1.0000   1.0000   1.0000   1.0000
     1.0000   1.0000   1.0000   1.0000   1.0000   0.0000   0.0000   0.0000
     0.0000   0.0000   0.0000   0.0000   0.0000   0.0000   0.0000   0.0000
     0.0000   0.0000   0.0000

          k = 0.1250 0.2165 0.0000 ( 11867 PWs)   bands (ev):

   -83.6000 -53.1246 -52.8484 -52.5886 -26.2304 -26.1449 -23.6925 -22.4180
   -15.0458 -13.0818 -12.8533 -12.2956 -11.6088 -11.3088 -10.9262  -9.9738
    -9.6597  -9.5529  -9.0095  -8.3568  -6.7805  -3.3970  -3.0845  -2.7038
    -1.9046   1.0475   1.2331   2.0133   2.0273   3.4885   3.6387   4.0485
     5.0946   5.7027   6.4690

     occupation numbers 
     1.0000   1.0000   1.0000   1.0000   1.0000   1.0000   1.0000   1.0000
     1.0000   1.0000   1.0000   1.0000   1.0000   1.0000   1.0000   1.0000
     1.0000   1.0000   1.0000   1.0000   1.0000   0.0000   0.0000   0.0000
     0.0000   0.0000   0.0000   0.0000   0.0000   0.0000   0.0000   0.0000
     0.0000   0.0000   0.0000

          k = 0.1250 0.3608 0.0000 ( 11871 PWs)   bands (ev):

   -83.6026 -53.2159 -52.9539 -52.6006 -25.2710 -25.2050 -23.1383 -22.1573
   -15.4510 -14.9648 -13.7879 -12.5718 -12.2951 -11.9825 -11.6111 -10.5851
    -9.6709  -9.3285  -9.0844  -8.6311  -7.1490  -3.7611  -3.4935  -2.3499
    -1.5960   0.1374   0.3700   2.6670   2.7394   3.7949   4.1853   5.1195
     5.7511   6.1935   6.6254

     occupation numbers 
     1.0000   1.0000   1.0000   1.0000   1.0000   1.0000   1.0000   1.0000
     1.0000   1.0000   1.0000   1.0000   1.0000   1.0000   1.0000   1.0000
     1.0000   1.0000   1.0000   1.0000   1.0000   0.0000   0.0000   0.0000
     0.0000   0.0000   0.0000   0.0000   0.0000   0.0000   0.0000   0.0000
     0.0000   0.0000   0.0000

          k = 0.1250 0.5052 0.0000 ( 11841 PWs)   bands (ev):

   -83.6064 -53.1968 -52.9793 -52.7611 -24.2819 -24.2462 -22.8262 -22.0747
   -16.7278 -16.4400 -13.6155 -13.1086 -12.7150 -12.3305 -12.0355 -10.8020
    -9.9129  -9.2704  -9.0755  -8.5489  -7.2529  -4.1066  -3.4698  -2.0869
    -1.7523  -0.7231  -0.3382   2.7308   3.2511   3.9501   4.3510   5.3755
     6.2338   6.3134   7.0529

     occupation numbers 
     1.0000   1.0000   1.0000   1.0000   1.0000   1.0000   1.0000   1.0000
     1.0000   1.0000   1.0000   1.0000   1.0000   1.0000   1.0000   1.0000
     1.0000   1.0000   1.0000   1.0000   1.0000   0.0000   0.0000   0.0000
     0.0000   0.0000   0.0000   0.0000   0.0000   0.0000   0.0000   0.0000
     0.0000   0.0000   0.0000

          k = 0.2500 0.4330 0.0000 ( 11844 PWs)   bands (ev):

   -83.6137 -53.1803 -53.1210 -52.6574 -24.3245 -24.2814 -22.7975 -22.0299
   -16.1279 -15.7819 -14.0054 -13.7999 -13.2886 -11.9823 -11.8360 -11.1878
   -10.0790  -9.5778  -9.0424  -8.5243  -7.3327  -4.0043  -3.4136  -2.1496
    -1.6658   0.5053   0.7404   2.6205   3.0285   4.4548   4.7121   5.0805
     5.4754   6.1224   6.8619

     occupation numbers 
     1.0000   1.0000   1.0000   1.0000   1.0000   1.0000   1.0000   1.0000
     1.0000   1.0000   1.0000   1.0000   1.0000   1.0000   1.0000   1.0000
     1.0000   1.0000   1.0000   1.0000   1.0000   0.0000   0.0000   0.0000
     0.0000   0.0000   0.0000   0.0000   0.0000   0.0000   0.0000   0.0000
     0.0000   0.0000   0.0000

          k = 0.2500 0.5774 0.0000 ( 11800 PWs)   bands (ev):

   -83.6030 -53.2076 -53.1348 -52.6269 -23.7835 -23.7559 -22.7484 -22.0513
   -16.3800 -16.0483 -14.6479 -14.5199 -12.8143 -12.3612 -12.1085 -10.8398
   -10.5805  -9.9952  -8.9873  -8.3418  -6.9631  -4.4056  -3.2514  -2.0455
    -1.7594   0.2874   0.6864   2.8439   3.2815   4.3314   4.7380   5.2489
     5.8546   6.3478   6.4451

     occupation numbers 
     1.0000   1.0000   1.0000   1.0000   1.0000   1.0000   1.0000   1.0000
     1.0000   1.0000   1.0000   1.0000   1.0000   1.0000   1.0000   1.0000
     1.0000   1.0000   1.0000   1.0000   1.0000   0.0000   0.0000   0.0000
     0.0000   0.0000   0.0000   0.0000   0.0000   0.0000   0.0000   0.0000
     0.0000   0.0000   0.0000

          k =-0.1250 0.0722 0.0000 ( 11905 PWs)   bands (ev):

   -83.5986 -52.9344 -52.7621 -52.7324 -26.7833 -26.6893 -24.0835 -22.6116
   -15.3915 -12.6005 -11.5949 -11.5321 -10.6933 -10.6653 -10.5395 -10.2729
    -9.7547  -8.8984  -8.7575  -8.3031  -6.5870  -2.9435  -2.7404  -2.7141
    -2.3879   0.5042   0.7307   2.4394   2.4917   3.0542   3.2426   3.5282
     4.6776   4.7397   5.1339

     occupation numbers 
     1.0000   1.0000   1.0000   1.0000   1.0000   1.0000   1.0000   1.0000
     1.0000   1.0000   1.0000   1.0000   1.0000   1.0000   1.0000   1.0000
     1.0000   1.0000   1.0000   1.0000   1.0000   0.0000   0.0000   0.0000
     0.0000   0.0000   0.0000   0.0000   0.0000   0.0000   0.0000   0.0000
     0.0000   0.0000   0.0000

          k = 0.1250 0.0722 0.0000 ( 11905 PWs)   bands (ev):

   -83.5986 -52.9344 -52.7621 -52.7324 -26.7833 -26.6893 -24.0835 -22.6116
   -15.3915 -12.6005 -11.5948 -11.5320 -10.6934 -10.6654 -10.5395 -10.2729
    -9.7548  -8.8982  -8.7577  -8.3030  -6.5870  -2.9434  -2.7405  -2.7142
    -2.3878   0.5042   0.7308   2.4394   2.4917   3.0542   3.2426   3.5282
     4.6776   4.7396   5.1339

     occupation numbers 
     1.0000   1.0000   1.0000   1.0000   1.0000   1.0000   1.0000   1.0000
     1.0000   1.0000   1.0000   1.0000   1.0000   1.0000   1.0000   1.0000
     1.0000   1.0000   1.0000   1.0000   1.0000   0.0000   0.0000   0.0000
     0.0000   0.0000   0.0000   0.0000   0.0000   0.0000   0.0000   0.0000
     0.0000   0.0000   0.0000

          k =-0.2500 0.1443 0.0000 ( 11885 PWs)   bands (ev):

   -83.6091 -53.1962 -52.8332 -52.6307 -25.9782 -25.8985 -23.5235 -22.3319
   -15.0328 -13.8368 -13.4731 -12.2914 -11.5648 -11.2206 -11.2110  -9.9332
    -9.6383  -9.3533  -9.2548  -8.4990  -6.9029  -3.5595  -3.2462  -2.4599
    -1.8626   0.1115   0.3010   2.4285   2.5718   3.4915   3.9964   5.0899
     5.9021   6.1092   6.2879

     occupation numbers 
     1.0000   1.0000   1.0000   1.0000   1.0000   1.0000   1.0000   1.0000
     1.0000   1.0000   1.0000   1.0000   1.0000   1.0000   1.0000   1.0000
     1.0000   1.0000   1.0000   1.0000   1.0000   0.0000   0.0000   0.0000
     0.0000   0.0000   0.0000   0.0000   0.0000   0.0000   0.0000   0.0000
     0.0000   0.0000   0.0000

          k = 0.2500 0.1443 0.0000 ( 11885 PWs)   bands (ev):

   -83.6091 -53.1962 -52.8332 -52.6307 -25.9782 -25.8985 -23.5235 -22.3318
   -15.0328 -13.8368 -13.4730 -12.2913 -11.5648 -11.2207 -11.2110  -9.9332
    -9.6383  -9.3534  -9.2549  -8.4990  -6.9028  -3.5595  -3.2462  -2.4600
    -1.8625   0.1115   0.3010   2.4285   2.5718   3.4915   3.9964   5.0899
     5.9021   6.1092   6.2878

     occupation numbers 
     1.0000   1.0000   1.0000   1.0000   1.0000   1.0000   1.0000   1.0000
     1.0000   1.0000   1.0000   1.0000   1.0000   1.0000   1.0000   1.0000
     1.0000   1.0000   1.0000   1.0000   1.0000   0.0000   0.0000   0.0000
     0.0000   0.0000   0.0000   0.0000   0.0000   0.0000   0.0000   0.0000
     0.0000   0.0000   0.0000

          k =-0.3750 0.2165 0.0000 ( 11860 PWs)   bands (ev):

   -83.6038 -53.2498 -52.8422 -52.7459 -24.9041 -24.8504 -22.9908 -22.1110
   -16.2450 -15.9316 -13.8299 -12.6005 -12.0658 -11.7472 -11.7152 -10.4095
    -9.8223  -9.4657  -8.6993  -8.6885  -7.1319  -4.0134  -3.6252  -2.2418
    -1.4762  -1.2819  -0.7757   2.4297   2.9895   4.0198   4.2989   5.7889
     6.4122   6.6150   7.1622

     occupation numbers 
     1.0000   1.0000   1.0000   1.0000   1.0000   1.0000   1.0000   1.0000
     1.0000   1.0000   1.0000   1.0000   1.0000   1.0000   1.0000   1.0000
     1.0000   1.0000   1.0000   1.0000   1.0000   0.0000   0.0000   0.0000
     0.0000   0.0000   0.0000   0.0000   0.0000   0.0000   0.0000   0.0000
     0.0000   0.0000   0.0000

          k = 0.3750 0.2165 0.0000 ( 11860 PWs)   bands (ev):

   -83.6038 -53.2498 -52.8422 -52.7459 -24.9041 -24.8504 -22.9908 -22.1110
   -16.2449 -15.9316 -13.8299 -12.6005 -12.0658 -11.7473 -11.7153 -10.4095
    -9.8224  -9.4657  -8.6994  -8.6884  -7.1319  -4.0133  -3.6252  -2.2419
    -1.4762  -1.2819  -0.7757   2.4296   2.9895   4.0198   4.2989   5.7888
     6.4123   6.6150   7.1621

     occupation numbers 
     1.0000   1.0000   1.0000   1.0000   1.0000   1.0000   1.0000   1.0000
     1.0000   1.0000   1.0000   1.0000   1.0000   1.0000   1.0000   1.0000
     1.0000   1.0000   1.0000   1.0000   1.0000   0.0000   0.0000   0.0000
     0.0000   0.0000   0.0000   0.0000   0.0000   0.0000   0.0000   0.0000
     0.0000   0.0000   0.0000

          k = 0.5000-0.2887 0.0000 ( 11846 PWs)   bands (ev):

   -83.5997 -53.1997 -52.8625 -52.8554 -24.2398 -24.2131 -22.8611 -22.1257
   -17.1597 -16.8848 -13.5592 -13.0600 -12.1762 -11.9707 -11.9321 -10.6057
   -10.0234  -9.2227  -8.7542  -8.4431  -7.3113  -4.0108  -3.6810  -2.3876
    -1.8990  -1.3444  -1.0608   2.1456   2.7600   4.4231   5.1187   5.8258
     6.1778   6.5203   7.2570

     occupation numbers 
     1.0000   1.0000   1.0000   1.0000   1.0000   1.0000   1.0000   1.0000
     1.0000   1.0000   1.0000   1.0000   1.0000   1.0000   1.0000   1.0000
     1.0000   1.0000   1.0000   1.0000   1.0000   0.0000   0.0000   0.0000
     0.0000   0.0000   0.0000   0.0000   0.0000   0.0000   0.0000   0.0000
     0.0000   0.0000   0.0000

          k =-0.5000-0.2887 0.0000 ( 11846 PWs)   bands (ev):

   -83.5997 -53.1997 -52.8625 -52.8554 -24.2398 -24.2131 -22.8611 -22.1256
   -17.1597 -16.8848 -13.5592 -13.0601 -12.1762 -11.9708 -11.9322 -10.6057
   -10.0236  -9.2228  -8.7542  -8.4432  -7.3113  -4.0107  -3.6810  -2.3876
    -1.8990  -1.3444  -1.0608   2.1456   2.7600   4.4231   5.1187   5.8258
     6.1779   6.5203   7.2569

     occupation numbers 
     1.0000   1.0000   1.0000   1.0000   1.0000   1.0000   1.0000   1.0000
     1.0000   1.0000   1.0000   1.0000   1.0000   1.0000   1.0000   1.0000
     1.0000   1.0000   1.0000   1.0000   1.0000   0.0000   0.0000   0.0000
     0.0000   0.0000   0.0000   0.0000   0.0000   0.0000   0.0000   0.0000
     0.0000   0.0000   0.0000

          k =-0.1250 0.2165 0.0000 ( 11867 PWs)   bands (ev):

   -83.6000 -53.1246 -52.8484 -52.5886 -26.2304 -26.1449 -23.6925 -22.4180
   -15.0458 -13.0818 -12.8533 -12.2956 -11.6088 -11.3087 -10.9261  -9.9738
    -9.6596  -9.5528  -9.0095  -8.3568  -6.7805  -3.3970  -3.0845  -2.7038
    -1.9046   1.0475   1.2331   2.0133   2.0273   3.4885   3.6387   4.0485
     5.0946   5.7027   6.4690

     occupation numbers 
     1.0000   1.0000   1.0000   1.0000   1.0000   1.0000   1.0000   1.0000
     1.0000   1.0000   1.0000   1.0000   1.0000   1.0000   1.0000   1.0000
     1.0000   1.0000   1.0000   1.0000   1.0000   0.0000   0.0000   0.0000
     0.0000   0.0000   0.0000   0.0000   0.0000   0.0000   0.0000   0.0000
     0.0000   0.0000   0.0000

          k = 0.2500-0.0000 0.0000 ( 11867 PWs)   bands (ev):

   -83.6000 -53.1246 -52.8484 -52.5886 -26.2304 -26.1449 -23.6925 -22.4180
   -15.0457 -13.0818 -12.8533 -12.2956 -11.6088 -11.3087 -10.9261  -9.9738
    -9.6596  -9.5527  -9.0095  -8.3568  -6.7805  -3.3970  -3.0845  -2.7038
    -1.9046   1.0475   1.2332   2.0133   2.0273   3.4885   3.6387   4.0485
     5.0945   5.7027   6.4691

     occupation numbers 
     1.0000   1.0000   1.0000   1.0000   1.0000   1.0000   1.0000   1.0000
     1.0000   1.0000   1.0000   1.0000   1.0000   1.0000   1.0000   1.0000
     1.0000   1.0000   1.0000   1.0000   1.0000   0.0000   0.0000   0.0000
     0.0000   0.0000   0.0000   0.0000   0.0000   0.0000   0.0000   0.0000
     0.0000   0.0000   0.0000

          k =-0.1250 0.3608 0.0000 ( 11871 PWs)   bands (ev):

   -83.6026 -53.2158 -52.9539 -52.6006 -25.2710 -25.2050 -23.1383 -22.1573
   -15.4510 -14.9648 -13.7879 -12.5718 -12.2951 -11.9825 -11.6111 -10.5850
    -9.6709  -9.3285  -9.0844  -8.6310  -7.1491  -3.7611  -3.4935  -2.3500
    -1.5960   0.1374   0.3700   2.6670   2.7394   3.7949   4.1853   5.1196
     5.7511   6.1935   6.6254

     occupation numbers 
     1.0000   1.0000   1.0000   1.0000   1.0000   1.0000   1.0000   1.0000
     1.0000   1.0000   1.0000   1.0000   1.0000   1.0000   1.0000   1.0000
     1.0000   1.0000   1.0000   1.0000   1.0000   0.0000   0.0000   0.0000
     0.0000   0.0000   0.0000   0.0000   0.0000   0.0000   0.0000   0.0000
     0.0000   0.0000   0.0000

          k =-0.2500 0.2887 0.0000 ( 11871 PWs)   bands (ev):

   -83.6026 -53.2159 -52.9539 -52.6006 -25.2710 -25.2050 -23.1383 -22.1573
   -15.4510 -14.9649 -13.7879 -12.5718 -12.2950 -11.9825 -11.6111 -10.5850
    -9.6708  -9.3284  -9.0843  -8.6311  -7.1491  -3.7611  -3.4935  -2.3499
    -1.5960   0.1374   0.3700   2.6670   2.7394   3.7948   4.1853   5.1196
     5.7511   6.1935   6.6253

     occupation numbers 
     1.0000   1.0000   1.0000   1.0000   1.0000   1.0000   1.0000   1.0000
     1.0000   1.0000   1.0000   1.0000   1.0000   1.0000   1.0000   1.0000
     1.0000   1.0000   1.0000   1.0000   1.0000   0.0000   0.0000   0.0000
     0.0000   0.0000   0.0000   0.0000   0.0000   0.0000   0.0000   0.0000
     0.0000   0.0000   0.0000

          k = 0.3750 0.0722 0.0000 ( 11871 PWs)   bands (ev):

   -83.6026 -53.2158 -52.9539 -52.6006 -25.2710 -25.2050 -23.1383 -22.1573
   -15.4510 -14.9648 -13.7879 -12.5718 -12.2951 -11.9825 -11.6111 -10.5851
    -9.6709  -9.3285  -9.0844  -8.6310  -7.1491  -3.7611  -3.4935  -2.3500
    -1.5960   0.1374   0.3700   2.6670   2.7394   3.7949   4.1853   5.1196
     5.7511   6.1936   6.6254

     occupation numbers 
     1.0000   1.0000   1.0000   1.0000   1.0000   1.0000   1.0000   1.0000
     1.0000   1.0000   1.0000   1.0000   1.0000   1.0000   1.0000   1.0000
     1.0000   1.0000   1.0000   1.0000   1.0000   0.0000   0.0000   0.0000
     0.0000   0.0000   0.0000   0.0000   0.0000   0.0000   0.0000   0.0000
     0.0000   0.0000   0.0000

          k =-0.2500-0.2887 0.0000 ( 11871 PWs)   bands (ev):

   -83.6026 -53.2159 -52.9539 -52.6006 -25.2710 -25.2050 -23.1383 -22.1573
   -15.4510 -14.9648 -13.7879 -12.5718 -12.2951 -11.9825 -11.6111 -10.5851
    -9.6708  -9.3285  -9.0844  -8.6311  -7.1490  -3.7611  -3.4935  -2.3499
    -1.5960   0.1374   0.3700   2.6670   2.7394   3.7948   4.1852   5.1196
     5.7511   6.1935   6.6254

     occupation numbers 
     1.0000   1.0000   1.0000   1.0000   1.0000   1.0000   1.0000   1.0000
     1.0000   1.0000   1.0000   1.0000   1.0000   1.0000   1.0000   1.0000
     1.0000   1.0000   1.0000   1.0000   1.0000   0.0000   0.0000   0.0000
     0.0000   0.0000   0.0000   0.0000   0.0000   0.0000   0.0000   0.0000
     0.0000   0.0000   0.0000

          k = 0.3750-0.0722 0.0000 ( 11871 PWs)   bands (ev):

   -83.6026 -53.2159 -52.9539 -52.6006 -25.2710 -25.2050 -23.1383 -22.1573
   -15.4510 -14.9649 -13.7879 -12.5718 -12.2950 -11.9825 -11.6111 -10.5850
    -9.6708  -9.3284  -9.0843  -8.6311  -7.1491  -3.7611  -3.4935  -2.3499
    -1.5960   0.1374   0.3700   2.6670   2.7394   3.7948   4.1853   5.1196
     5.7511   6.1936   6.6253

     occupation numbers 
     1.0000   1.0000   1.0000   1.0000   1.0000   1.0000   1.0000   1.0000
     1.0000   1.0000   1.0000   1.0000   1.0000   1.0000   1.0000   1.0000
     1.0000   1.0000   1.0000   1.0000   1.0000   0.0000   0.0000   0.0000
     0.0000   0.0000   0.0000   0.0000   0.0000   0.0000   0.0000   0.0000
     0.0000   0.0000   0.0000

          k =-0.1250 0.5052 0.0000 ( 11841 PWs)   bands (ev):

   -83.6064 -53.1968 -52.9793 -52.7611 -24.2819 -24.2462 -22.8262 -22.0747
   -16.7278 -16.4400 -13.6155 -13.1086 -12.7150 -12.3305 -12.0355 -10.8020
    -9.9129  -9.2704  -9.0755  -8.5489  -7.2529  -4.1067  -3.4698  -2.0870
    -1.7522  -0.7231  -0.3382   2.7308   3.2511   3.9501   4.3510   5.3755
     6.2339   6.3133   7.0529

     occupation numbers 
     1.0000   1.0000   1.0000   1.0000   1.0000   1.0000   1.0000   1.0000
     1.0000   1.0000   1.0000   1.0000   1.0000   1.0000   1.0000   1.0000
     1.0000   1.0000   1.0000   1.0000   1.0000   0.0000   0.0000   0.0000
     0.0000   0.0000   0.0000   0.0000   0.0000   0.0000   0.0000   0.0000
     0.0000   0.0000   0.0000

          k =-0.3750 0.3608 0.0000 ( 11841 PWs)   bands (ev):

   -83.6064 -53.1969 -52.9793 -52.7611 -24.2819 -24.2462 -22.8262 -22.0748
   -16.7279 -16.4401 -13.6155 -13.1086 -12.7149 -12.3304 -12.0355 -10.8020
    -9.9128  -9.2703  -9.0754  -8.5489  -7.2529  -4.1067  -3.4699  -2.0869
    -1.7523  -0.7231  -0.3382   2.7309   3.2511   3.9501   4.3510   5.3755
     6.2338   6.3133   7.0530

     occupation numbers 
     1.0000   1.0000   1.0000   1.0000   1.0000   1.0000   1.0000   1.0000
     1.0000   1.0000   1.0000   1.0000   1.0000   1.0000   1.0000   1.0000
     1.0000   1.0000   1.0000   1.0000   1.0000   0.0000   0.0000   0.0000
     0.0000   0.0000   0.0000   0.0000   0.0000   0.0000   0.0000   0.0000
     0.0000   0.0000   0.0000

          k = 0.5000 0.1443 0.0000 ( 11841 PWs)   bands (ev):

   -83.6064 -53.1968 -52.9793 -52.7611 -24.2819 -24.2462 -22.8262 -22.0747
   -16.7278 -16.4401 -13.6155 -13.1086 -12.7150 -12.3305 -12.0355 -10.8021
    -9.9129  -9.2704  -9.0754  -8.5489  -7.2529  -4.1067  -3.4698  -2.0870
    -1.7522  -0.7231  -0.3382   2.7308   3.2510   3.9501   4.3510   5.3756
     6.2338   6.3134   7.0529

     occupation numbers 
     1.0000   1.0000   1.0000   1.0000   1.0000   1.0000   1.0000   1.0000
     1.0000   1.0000   1.0000   1.0000   1.0000   1.0000   1.0000   1.0000
     1.0000   1.0000   1.0000   1.0000   1.0000   0.0000   0.0000   0.0000
     0.0000   0.0000   0.0000   0.0000   0.0000   0.0000   0.0000   0.0000
     0.0000   0.0000   0.0000

          k =-0.3750-0.3608 0.0000 ( 11841 PWs)   bands (ev):

   -83.6064 -53.1968 -52.9793 -52.7611 -24.2819 -24.2462 -22.8262 -22.0747
   -16.7278 -16.4401 -13.6155 -13.1086 -12.7150 -12.3305 -12.0355 -10.8020
    -9.9129  -9.2704  -9.0755  -8.5489  -7.2529  -4.1066  -3.4698  -2.0869
    -1.7523  -0.7231  -0.3382   2.7308   3.2511   3.9501   4.3510   5.3755
     6.2338   6.3134   7.0530

     occupation numbers 
     1.0000   1.0000   1.0000   1.0000   1.0000   1.0000   1.0000   1.0000
     1.0000   1.0000   1.0000   1.0000   1.0000   1.0000   1.0000   1.0000
     1.0000   1.0000   1.0000   1.0000   1.0000   0.0000   0.0000   0.0000
     0.0000   0.0000   0.0000   0.0000   0.0000   0.0000   0.0000   0.0000
     0.0000   0.0000   0.0000

          k = 0.5000-0.1443 0.0000 ( 11841 PWs)   bands (ev):

   -83.6064 -53.1969 -52.9793 -52.7611 -24.2819 -24.2462 -22.8262 -22.0748
   -16.7279 -16.4401 -13.6155 -13.1086 -12.7149 -12.3304 -12.0355 -10.8020
    -9.9128  -9.2704  -9.0754  -8.5489  -7.2529  -4.1067  -3.4699  -2.0869
    -1.7522  -0.7231  -0.3382   2.7309   3.2511   3.9501   4.3510   5.3756
     6.2338   6.3133   7.0529

     occupation numbers 
     1.0000   1.0000   1.0000   1.0000   1.0000   1.0000   1.0000   1.0000
     1.0000   1.0000   1.0000   1.0000   1.0000   1.0000   1.0000   1.0000
     1.0000   1.0000   1.0000   1.0000   1.0000   0.0000   0.0000   0.0000
     0.0000   0.0000   0.0000   0.0000   0.0000   0.0000   0.0000   0.0000
     0.0000   0.0000   0.0000

          k =-0.2500 0.4330 0.0000 ( 11844 PWs)   bands (ev):

   -83.6137 -53.1803 -53.1210 -52.6574 -24.3245 -24.2814 -22.7975 -22.0299
   -16.1280 -15.7820 -14.0054 -13.7998 -13.2886 -11.9823 -11.8359 -11.1878
   -10.0790  -9.5778  -9.0424  -8.5243  -7.3328  -4.0044  -3.4136  -2.1497
    -1.6657   0.5054   0.7404   2.6205   3.0285   4.4548   4.7121   5.0806
     5.4753   6.1225   6.8619

     occupation numbers 
     1.0000   1.0000   1.0000   1.0000   1.0000   1.0000   1.0000   1.0000
     1.0000   1.0000   1.0000   1.0000   1.0000   1.0000   1.0000   1.0000
     1.0000   1.0000   1.0000   1.0000   1.0000   0.0000   0.0000   0.0000
     0.0000   0.0000   0.0000   0.0000   0.0000   0.0000   0.0000   0.0000
     0.0000   0.0000   0.0000

          k = 0.5000-0.0000 0.0000 ( 11844 PWs)   bands (ev):

   -83.6137 -53.1803 -53.1210 -52.6574 -24.3245 -24.2814 -22.7975 -22.0299
   -16.1280 -15.7820 -14.0054 -13.7998 -13.2886 -11.9823 -11.8359 -11.1878
   -10.0790  -9.5778  -9.0424  -8.5243  -7.3328  -4.0044  -3.4136  -2.1497
    -1.6657   0.5054   0.7404   2.6205   3.0285   4.4548   4.7121   5.0806
     5.4753   6.1225   6.8618

     occupation numbers 
     1.0000   1.0000   1.0000   1.0000   1.0000   1.0000   1.0000   1.0000
     1.0000   1.0000   1.0000   1.0000   1.0000   1.0000   1.0000   1.0000
     1.0000   1.0000   1.0000   1.0000   1.0000   0.0000   0.0000   0.0000
     0.0000   0.0000   0.0000   0.0000   0.0000   0.0000   0.0000   0.0000
     0.0000   0.0000   0.0000

          k =-0.3750 0.5052 0.0000 ( 11800 PWs)   bands (ev):

   -83.6030 -53.2076 -53.1348 -52.6269 -23.7835 -23.7559 -22.7484 -22.0513
   -16.3800 -16.0483 -14.6478 -14.5199 -12.8143 -12.3612 -12.1084 -10.8398
   -10.5804  -9.9952  -8.9873  -8.3418  -6.9631  -4.4056  -3.2514  -2.0456
    -1.7593   0.2874   0.6863   2.8439   3.2815   4.3314   4.7380   5.2490
     5.8545   6.3478   6.4452

     occupation numbers 
     1.0000   1.0000   1.0000   1.0000   1.0000   1.0000   1.0000   1.0000
     1.0000   1.0000   1.0000   1.0000   1.0000   1.0000   1.0000   1.0000
     1.0000   1.0000   1.0000   1.0000   1.0000   0.0000   0.0000   0.0000
     0.0000   0.0000   0.0000   0.0000   0.0000   0.0000   0.0000   0.0000
     0.0000   0.0000   0.0000

          k = 0.6250 0.0722 0.0000 ( 11800 PWs)   bands (ev):

   -83.6030 -53.2076 -53.1348 -52.6269 -23.7835 -23.7559 -22.7484 -22.0513
   -16.3800 -16.0483 -14.6479 -14.5199 -12.8143 -12.3612 -12.1084 -10.8398
   -10.5805  -9.9952  -8.9873  -8.3418  -6.9631  -4.4056  -3.2514  -2.0455
    -1.7594   0.2874   0.6864   2.8439   3.2815   4.3314   4.7380   5.2490
     5.8546   6.3479   6.4452

     occupation numbers 
     1.0000   1.0000   1.0000   1.0000   1.0000   1.0000   1.0000   1.0000
     1.0000   1.0000   1.0000   1.0000   1.0000   1.0000   1.0000   1.0000
     1.0000   1.0000   1.0000   1.0000   1.0000   0.0000   0.0000   0.0000
     0.0000   0.0000   0.0000   0.0000   0.0000   0.0000   0.0000   0.0000
     0.0000   0.0000   0.0000

     highest occupied, lowest unoccupied level (ev):    -6.5712   -4.4056

!    total energy              =    -263.21054278 Ry
     estimated scf accuracy    <          1.1E-11 Ry

     convergence has been achieved in   1 iterations

     Using ACE for calculation of exact exchange
     ACE projected onto    35 (nbndproj) and applied to    35 (nbnd) bands

     total energy              =    -263.21054278 Ry
     Harris-Foulkes estimate   =    -263.21054278 Ry
     est. exchange err (dexx)  =          5.1E-10 Ry
     - averaged Fock potential =      17.84087686 Ry
     + Fock energy (ACE)       =      -8.92043926 Ry

     EXX: now go back to refine exchange calculation

     total cpu time spent up to now is     8226.6 secs

     Self-consistent Calculation

     iteration #  1     ecut=    80.00 Ry     beta= 0.50
     Davidson diagonalization with overlap

---- Real-time Memory Report at c_bands before calling an iterative solver
          2135 MiB given to the printing process from OS
             0 MiB allocation reported by mallinfo(arena+hblkhd)
         12869 MiB available memory on the node where the printing process lives
------------------
     ethr =  2.54E-13,  avg # of iterations =  3.0

     total cpu time spent up to now is     8235.4 secs

     total energy              =    -263.21054278 Ry
     estimated scf accuracy    <          3.2E-10 Ry

     iteration #  2     ecut=    80.00 Ry     beta= 0.50
     Davidson diagonalization with overlap

---- Real-time Memory Report at c_bands before calling an iterative solver
          2135 MiB given to the printing process from OS
             0 MiB allocation reported by mallinfo(arena+hblkhd)
         12856 MiB available memory on the node where the printing process lives
------------------
     ethr =  7.59E-13,  avg # of iterations =  2.0

     total cpu time spent up to now is     8242.8 secs

     total energy              =    -263.21054278 Ry
     estimated scf accuracy    <          2.8E-09 Ry

     iteration #  3     ecut=    80.00 Ry     beta= 0.50
     Davidson diagonalization with overlap

---- Real-time Memory Report at c_bands before calling an iterative solver
          2135 MiB given to the printing process from OS
             0 MiB allocation reported by mallinfo(arena+hblkhd)
         12855 MiB available memory on the node where the printing process lives
------------------
     ethr =  7.59E-13,  avg # of iterations =  2.0

     total cpu time spent up to now is     8250.2 secs

     End of self-consistent calculation

          k = 0.0000 0.0000 0.0000 ( 11937 PWs)   bands (ev):

   -83.5878 -52.8394 -52.7331 -52.7331 -27.0867 -26.9889 -24.3179 -22.7306
   -15.6434 -12.7266 -10.6451 -10.4743 -10.4743 -10.4277 -10.4276  -9.9056
    -9.9055  -8.4931  -8.4928  -8.4910  -6.5712  -2.6779  -2.6777  -2.4419
    -2.4418  -0.2224   0.1109   2.3491   2.3826   2.5027   4.0139   4.0140
     4.0684   4.0684   4.2611

     occupation numbers 
     1.0000   1.0000   1.0000   1.0000   1.0000   1.0000   1.0000   1.0000
     1.0000   1.0000   1.0000   1.0000   1.0000   1.0000   1.0000   1.0000
     1.0000   1.0000   1.0000   1.0000   1.0000   0.0000   0.0000   0.0000
     0.0000   0.0000   0.0000   0.0000   0.0000   0.0000   0.0000   0.0000
     0.0000   0.0000   0.0000

          k = 0.0000 0.1443 0.0000 ( 11905 PWs)   bands (ev):

   -83.5986 -52.9344 -52.7621 -52.7324 -26.7833 -26.6893 -24.0835 -22.6116
   -15.3915 -12.6005 -11.5948 -11.5320 -10.6934 -10.6654 -10.5395 -10.2729
    -9.7548  -8.8982  -8.7578  -8.3030  -6.5870  -2.9434  -2.7405  -2.7142
    -2.3878   0.5042   0.7307   2.4394   2.4917   3.0542   3.2426   3.5282
     4.6776   4.7397   5.1339

     occupation numbers 
     1.0000   1.0000   1.0000   1.0000   1.0000   1.0000   1.0000   1.0000
     1.0000   1.0000   1.0000   1.0000   1.0000   1.0000   1.0000   1.0000
     1.0000   1.0000   1.0000   1.0000   1.0000   0.0000   0.0000   0.0000
     0.0000   0.0000   0.0000   0.0000   0.0000   0.0000   0.0000   0.0000
     0.0000   0.0000   0.0000

          k = 0.0000 0.2887 0.0000 ( 11885 PWs)   bands (ev):

   -83.6091 -53.1962 -52.8332 -52.6307 -25.9782 -25.8985 -23.5235 -22.3318
   -15.0328 -13.8368 -13.4730 -12.2914 -11.5648 -11.2207 -11.2110  -9.9332
    -9.6383  -9.3534  -9.2549  -8.4990  -6.9028  -3.5595  -3.2462  -2.4600
    -1.8625   0.1115   0.3010   2.4285   2.5718   3.4916   3.9965   5.0899
     5.9021   6.1092   6.2879

     occupation numbers 
     1.0000   1.0000   1.0000   1.0000   1.0000   1.0000   1.0000   1.0000
     1.0000   1.0000   1.0000   1.0000   1.0000   1.0000   1.0000   1.0000
     1.0000   1.0000   1.0000   1.0000   1.0000   0.0000   0.0000   0.0000
     0.0000   0.0000   0.0000   0.0000   0.0000   0.0000   0.0000   0.0000
     0.0000   0.0000   0.0000

          k = 0.0000 0.4330 0.0000 ( 11860 PWs)   bands (ev):

   -83.6038 -53.2498 -52.8422 -52.7459 -24.9041 -24.8504 -22.9908 -22.1110
   -16.2449 -15.9316 -13.8299 -12.6005 -12.0658 -11.7473 -11.7153 -10.4095
    -9.8224  -9.4658  -8.6994  -8.6884  -7.1319  -4.0134  -3.6252  -2.2419
    -1.4762  -1.2819  -0.7757   2.4296   2.9896   4.0198   4.2989   5.7888
     6.4123   6.6150   7.1622

     occupation numbers 
     1.0000   1.0000   1.0000   1.0000   1.0000   1.0000   1.0000   1.0000
     1.0000   1.0000   1.0000   1.0000   1.0000   1.0000   1.0000   1.0000
     1.0000   1.0000   1.0000   1.0000   1.0000   0.0000   0.0000   0.0000
     0.0000   0.0000   0.0000   0.0000   0.0000   0.0000   0.0000   0.0000
     0.0000   0.0000   0.0000

          k = 0.0000-0.5774 0.0000 ( 11846 PWs)   bands (ev):

   -83.5997 -53.1997 -52.8625 -52.8554 -24.2398 -24.2131 -22.8612 -22.1257
   -17.1597 -16.8848 -13.5592 -13.0601 -12.1762 -11.9708 -11.9322 -10.6057
   -10.0236  -9.2228  -8.7541  -8.4432  -7.3113  -4.0107  -3.6810  -2.3876
    -1.8990  -1.3444  -1.0608   2.1456   2.7601   4.4231   5.1187   5.8258
     6.1779   6.5203   7.2569

     occupation numbers 
     1.0000   1.0000   1.0000   1.0000   1.0000   1.0000   1.0000   1.0000
     1.0000   1.0000   1.0000   1.0000   1.0000   1.0000   1.0000   1.0000
     1.0000   1.0000   1.0000   1.0000   1.0000   0.0000   0.0000   0.0000
     0.0000   0.0000   0.0000   0.0000   0.0000   0.0000   0.0000   0.0000
     0.0000   0.0000   0.0000

          k = 0.1250 0.2165 0.0000 ( 11867 PWs)   bands (ev):

   -83.6000 -53.1246 -52.8483 -52.5887 -26.2304 -26.1449 -23.6925 -22.4180
   -15.0458 -13.0818 -12.8533 -12.2956 -11.6088 -11.3088 -10.9262  -9.9738
    -9.6597  -9.5529  -9.0095  -8.3568  -6.7805  -3.3971  -3.0845  -2.7038
    -1.9046   1.0475   1.2331   2.0133   2.0273   3.4885   3.6387   4.0485
     5.0946   5.7027   6.4690

     occupation numbers 
     1.0000   1.0000   1.0000   1.0000   1.0000   1.0000   1.0000   1.0000
     1.0000   1.0000   1.0000   1.0000   1.0000   1.0000   1.0000   1.0000
     1.0000   1.0000   1.0000   1.0000   1.0000   0.0000   0.0000   0.0000
     0.0000   0.0000   0.0000   0.0000   0.0000   0.0000   0.0000   0.0000
     0.0000   0.0000   0.0000

          k = 0.1250 0.3608 0.0000 ( 11871 PWs)   bands (ev):

   -83.6026 -53.2159 -52.9539 -52.6006 -25.2710 -25.2050 -23.1383 -22.1573
   -15.4510 -14.9648 -13.7879 -12.5718 -12.2951 -11.9825 -11.6111 -10.5851
    -9.6709  -9.3285  -9.0844  -8.6311  -7.1491  -3.7611  -3.4935  -2.3499
    -1.5960   0.1374   0.3700   2.6670   2.7394   3.7949   4.1853   5.1195
     5.7511   6.1935   6.6254

     occupation numbers 
     1.0000   1.0000   1.0000   1.0000   1.0000   1.0000   1.0000   1.0000
     1.0000   1.0000   1.0000   1.0000   1.0000   1.0000   1.0000   1.0000
     1.0000   1.0000   1.0000   1.0000   1.0000   0.0000   0.0000   0.0000
     0.0000   0.0000   0.0000   0.0000   0.0000   0.0000   0.0000   0.0000
     0.0000   0.0000   0.0000

          k = 0.1250 0.5052 0.0000 ( 11841 PWs)   bands (ev):

   -83.6064 -53.1968 -52.9793 -52.7611 -24.2819 -24.2462 -22.8262 -22.0747
   -16.7278 -16.4400 -13.6155 -13.1086 -12.7150 -12.3305 -12.0355 -10.8020
    -9.9129  -9.2704  -9.0755  -8.5489  -7.2529  -4.1067  -3.4698  -2.0869
    -1.7523  -0.7231  -0.3382   2.7308   3.2511   3.9501   4.3510   5.3755
     6.2338   6.3134   7.0529

     occupation numbers 
     1.0000   1.0000   1.0000   1.0000   1.0000   1.0000   1.0000   1.0000
     1.0000   1.0000   1.0000   1.0000   1.0000   1.0000   1.0000   1.0000
     1.0000   1.0000   1.0000   1.0000   1.0000   0.0000   0.0000   0.0000
     0.0000   0.0000   0.0000   0.0000   0.0000   0.0000   0.0000   0.0000
     0.0000   0.0000   0.0000

          k = 0.2500 0.4330 0.0000 ( 11844 PWs)   bands (ev):

   -83.6137 -53.1803 -53.1210 -52.6573 -24.3245 -24.2814 -22.7975 -22.0299
   -16.1279 -15.7819 -14.0054 -13.7999 -13.2886 -11.9823 -11.8360 -11.1878
   -10.0790  -9.5778  -9.0424  -8.5243  -7.3327  -4.0042  -3.4137  -2.1496
    -1.6658   0.5053   0.7404   2.6205   3.0285   4.4548   4.7121   5.0805
     5.4754   6.1224   6.8619

     occupation numbers 
     1.0000   1.0000   1.0000   1.0000   1.0000   1.0000   1.0000   1.0000
     1.0000   1.0000   1.0000   1.0000   1.0000   1.0000   1.0000   1.0000
     1.0000   1.0000   1.0000   1.0000   1.0000   0.0000   0.0000   0.0000
     0.0000   0.0000   0.0000   0.0000   0.0000   0.0000   0.0000   0.0000
     0.0000   0.0000   0.0000

          k = 0.2500 0.5774 0.0000 ( 11800 PWs)   bands (ev):

   -83.6030 -53.2076 -53.1348 -52.6269 -23.7835 -23.7559 -22.7484 -22.0513
   -16.3800 -16.0483 -14.6479 -14.5199 -12.8143 -12.3612 -12.1085 -10.8398
   -10.5805  -9.9952  -8.9873  -8.3418  -6.9631  -4.4056  -3.2514  -2.0455
    -1.7594   0.2874   0.6864   2.8439   3.2815   4.3314   4.7380   5.2489
     5.8546   6.3478   6.4451

     occupation numbers 
     1.0000   1.0000   1.0000   1.0000   1.0000   1.0000   1.0000   1.0000
     1.0000   1.0000   1.0000   1.0000   1.0000   1.0000   1.0000   1.0000
     1.0000   1.0000   1.0000   1.0000   1.0000   0.0000   0.0000   0.0000
     0.0000   0.0000   0.0000   0.0000   0.0000   0.0000   0.0000   0.0000
     0.0000   0.0000   0.0000

          k =-0.1250 0.0722 0.0000 ( 11905 PWs)   bands (ev):

   -83.5986 -52.9344 -52.7621 -52.7324 -26.7833 -26.6893 -24.0835 -22.6116
   -15.3915 -12.6005 -11.5949 -11.5321 -10.6933 -10.6653 -10.5395 -10.2729
    -9.7547  -8.8984  -8.7575  -8.3031  -6.5871  -2.9435  -2.7404  -2.7141
    -2.3879   0.5042   0.7307   2.4394   2.4917   3.0542   3.2426   3.5282
     4.6775   4.7397   5.1339

     occupation numbers 
     1.0000   1.0000   1.0000   1.0000   1.0000   1.0000   1.0000   1.0000
     1.0000   1.0000   1.0000   1.0000   1.0000   1.0000   1.0000   1.0000
     1.0000   1.0000   1.0000   1.0000   1.0000   0.0000   0.0000   0.0000
     0.0000   0.0000   0.0000   0.0000   0.0000   0.0000   0.0000   0.0000
     0.0000   0.0000   0.0000

          k = 0.1250 0.0722 0.0000 ( 11905 PWs)   bands (ev):

   -83.5986 -52.9344 -52.7621 -52.7324 -26.7833 -26.6893 -24.0835 -22.6116
   -15.3915 -12.6005 -11.5948 -11.5320 -10.6934 -10.6654 -10.5395 -10.2729
    -9.7548  -8.8982  -8.7577  -8.3030  -6.5870  -2.9434  -2.7405  -2.7142
    -2.3878   0.5042   0.7308   2.4394   2.4917   3.0542   3.2426   3.5282
     4.6776   4.7397   5.1339

     occupation numbers 
     1.0000   1.0000   1.0000   1.0000   1.0000   1.0000   1.0000   1.0000
     1.0000   1.0000   1.0000   1.0000   1.0000   1.0000   1.0000   1.0000
     1.0000   1.0000   1.0000   1.0000   1.0000   0.0000   0.0000   0.0000
     0.0000   0.0000   0.0000   0.0000   0.0000   0.0000   0.0000   0.0000
     0.0000   0.0000   0.0000

          k =-0.2500 0.1443 0.0000 ( 11885 PWs)   bands (ev):

   -83.6091 -53.1962 -52.8332 -52.6307 -25.9782 -25.8985 -23.5235 -22.3319
   -15.0328 -13.8368 -13.4731 -12.2914 -11.5649 -11.2207 -11.2110  -9.9332
    -9.6383  -9.3533  -9.2548  -8.4990  -6.9028  -3.5595  -3.2462  -2.4599
    -1.8626   0.1115   0.3010   2.4285   2.5718   3.4915   3.9964   5.0899
     5.9021   6.1092   6.2879

     occupation numbers 
     1.0000   1.0000   1.0000   1.0000   1.0000   1.0000   1.0000   1.0000
     1.0000   1.0000   1.0000   1.0000   1.0000   1.0000   1.0000   1.0000
     1.0000   1.0000   1.0000   1.0000   1.0000   0.0000   0.0000   0.0000
     0.0000   0.0000   0.0000   0.0000   0.0000   0.0000   0.0000   0.0000
     0.0000   0.0000   0.0000

          k = 0.2500 0.1443 0.0000 ( 11885 PWs)   bands (ev):

   -83.6091 -53.1962 -52.8332 -52.6307 -25.9782 -25.8985 -23.5235 -22.3318
   -15.0328 -13.8368 -13.4730 -12.2913 -11.5648 -11.2207 -11.2110  -9.9332
    -9.6383  -9.3534  -9.2549  -8.4990  -6.9028  -3.5595  -3.2462  -2.4600
    -1.8625   0.1115   0.3010   2.4285   2.5718   3.4915   3.9964   5.0899
     5.9021   6.1092   6.2878

     occupation numbers 
     1.0000   1.0000   1.0000   1.0000   1.0000   1.0000   1.0000   1.0000
     1.0000   1.0000   1.0000   1.0000   1.0000   1.0000   1.0000   1.0000
     1.0000   1.0000   1.0000   1.0000   1.0000   0.0000   0.0000   0.0000
     0.0000   0.0000   0.0000   0.0000   0.0000   0.0000   0.0000   0.0000
     0.0000   0.0000   0.0000

          k =-0.3750 0.2165 0.0000 ( 11860 PWs)   bands (ev):

   -83.6038 -53.2499 -52.8422 -52.7459 -24.9041 -24.8504 -22.9908 -22.1110
   -16.2450 -15.9316 -13.8299 -12.6005 -12.0658 -11.7472 -11.7152 -10.4095
    -9.8223  -9.4657  -8.6993  -8.6885  -7.1320  -4.0134  -3.6252  -2.2418
    -1.4762  -1.2819  -0.7757   2.4297   2.9895   4.0198   4.2989   5.7889
     6.4122   6.6150   7.1622

     occupation numbers 
     1.0000   1.0000   1.0000   1.0000   1.0000   1.0000   1.0000   1.0000
     1.0000   1.0000   1.0000   1.0000   1.0000   1.0000   1.0000   1.0000
     1.0000   1.0000   1.0000   1.0000   1.0000   0.0000   0.0000   0.0000
     0.0000   0.0000   0.0000   0.0000   0.0000   0.0000   0.0000   0.0000
     0.0000   0.0000   0.0000

          k = 0.3750 0.2165 0.0000 ( 11860 PWs)   bands (ev):

   -83.6038 -53.2498 -52.8422 -52.7459 -24.9041 -24.8504 -22.9908 -22.1110
   -16.2449 -15.9316 -13.8299 -12.6005 -12.0658 -11.7473 -11.7153 -10.4095
    -9.8224  -9.4657  -8.6994  -8.6884  -7.1319  -4.0134  -3.6252  -2.2419
    -1.4762  -1.2819  -0.7757   2.4296   2.9895   4.0198   4.2989   5.7888
     6.4123   6.6150   7.1621

     occupation numbers 
     1.0000   1.0000   1.0000   1.0000   1.0000   1.0000   1.0000   1.0000
     1.0000   1.0000   1.0000   1.0000   1.0000   1.0000   1.0000   1.0000
     1.0000   1.0000   1.0000   1.0000   1.0000   0.0000   0.0000   0.0000
     0.0000   0.0000   0.0000   0.0000   0.0000   0.0000   0.0000   0.0000
     0.0000   0.0000   0.0000

          k = 0.5000-0.2887 0.0000 ( 11846 PWs)   bands (ev):

   -83.5997 -53.1997 -52.8625 -52.8554 -24.2398 -24.2131 -22.8611 -22.1257
   -17.1597 -16.8848 -13.5592 -13.0600 -12.1762 -11.9707 -11.9321 -10.6057
   -10.0234  -9.2228  -8.7542  -8.4431  -7.3113  -4.0108  -3.6810  -2.3876
    -1.8990  -1.3444  -1.0608   2.1456   2.7600   4.4231   5.1187   5.8258
     6.1779   6.5203   7.2570

     occupation numbers 
     1.0000   1.0000   1.0000   1.0000   1.0000   1.0000   1.0000   1.0000
     1.0000   1.0000   1.0000   1.0000   1.0000   1.0000   1.0000   1.0000
     1.0000   1.0000   1.0000   1.0000   1.0000   0.0000   0.0000   0.0000
     0.0000   0.0000   0.0000   0.0000   0.0000   0.0000   0.0000   0.0000
     0.0000   0.0000   0.0000

          k =-0.5000-0.2887 0.0000 ( 11846 PWs)   bands (ev):

   -83.5997 -53.1997 -52.8625 -52.8554 -24.2398 -24.2131 -22.8611 -22.1256
   -17.1597 -16.8848 -13.5592 -13.0601 -12.1762 -11.9708 -11.9322 -10.6057
   -10.0236  -9.2228  -8.7542  -8.4432  -7.3113  -4.0107  -3.6810  -2.3876
    -1.8990  -1.3444  -1.0608   2.1456   2.7600   4.4231   5.1187   5.8258
     6.1779   6.5203   7.2569

     occupation numbers 
     1.0000   1.0000   1.0000   1.0000   1.0000   1.0000   1.0000   1.0000
     1.0000   1.0000   1.0000   1.0000   1.0000   1.0000   1.0000   1.0000
     1.0000   1.0000   1.0000   1.0000   1.0000   0.0000   0.0000   0.0000
     0.0000   0.0000   0.0000   0.0000   0.0000   0.0000   0.0000   0.0000
     0.0000   0.0000   0.0000

          k =-0.1250 0.2165 0.0000 ( 11867 PWs)   bands (ev):

   -83.6000 -53.1246 -52.8484 -52.5887 -26.2304 -26.1449 -23.6925 -22.4180
   -15.0458 -13.0818 -12.8533 -12.2956 -11.6088 -11.3087 -10.9261  -9.9738
    -9.6596  -9.5528  -9.0095  -8.3568  -6.7805  -3.3970  -3.0845  -2.7038
    -1.9046   1.0475   1.2331   2.0133   2.0273   3.4885   3.6387   4.0485
     5.0946   5.7027   6.4690

     occupation numbers 
     1.0000   1.0000   1.0000   1.0000   1.0000   1.0000   1.0000   1.0000
     1.0000   1.0000   1.0000   1.0000   1.0000   1.0000   1.0000   1.0000
     1.0000   1.0000   1.0000   1.0000   1.0000   0.0000   0.0000   0.0000
     0.0000   0.0000   0.0000   0.0000   0.0000   0.0000   0.0000   0.0000
     0.0000   0.0000   0.0000

          k = 0.2500-0.0000 0.0000 ( 11867 PWs)   bands (ev):

   -83.6000 -53.1246 -52.8484 -52.5887 -26.2304 -26.1449 -23.6925 -22.4180
   -15.0458 -13.0818 -12.8533 -12.2956 -11.6088 -11.3087 -10.9261  -9.9738
    -9.6596  -9.5527  -9.0095  -8.3568  -6.7805  -3.3970  -3.0845  -2.7038
    -1.9046   1.0475   1.2332   2.0133   2.0273   3.4885   3.6387   4.0485
     5.0945   5.7027   6.4691

     occupation numbers 
     1.0000   1.0000   1.0000   1.0000   1.0000   1.0000   1.0000   1.0000
     1.0000   1.0000   1.0000   1.0000   1.0000   1.0000   1.0000   1.0000
     1.0000   1.0000   1.0000   1.0000   1.0000   0.0000   0.0000   0.0000
     0.0000   0.0000   0.0000   0.0000   0.0000   0.0000   0.0000   0.0000
     0.0000   0.0000   0.0000

          k =-0.1250 0.3608 0.0000 ( 11871 PWs)   bands (ev):

   -83.6026 -53.2159 -52.9539 -52.6006 -25.2710 -25.2050 -23.1383 -22.1573
   -15.4510 -14.9648 -13.7879 -12.5718 -12.2951 -11.9825 -11.6111 -10.5851
    -9.6709  -9.3285  -9.0844  -8.6310  -7.1491  -3.7611  -3.4935  -2.3500
    -1.5960   0.1374   0.3700   2.6670   2.7394   3.7949   4.1853   5.1196
     5.7511   6.1935   6.6254

     occupation numbers 
     1.0000   1.0000   1.0000   1.0000   1.0000   1.0000   1.0000   1.0000
     1.0000   1.0000   1.0000   1.0000   1.0000   1.0000   1.0000   1.0000
     1.0000   1.0000   1.0000   1.0000   1.0000   0.0000   0.0000   0.0000
     0.0000   0.0000   0.0000   0.0000   0.0000   0.0000   0.0000   0.0000
     0.0000   0.0000   0.0000

          k =-0.2500 0.2887 0.0000 ( 11871 PWs)   bands (ev):

   -83.6026 -53.2159 -52.9539 -52.6006 -25.2710 -25.2050 -23.1383 -22.1573
   -15.4510 -14.9649 -13.7879 -12.5718 -12.2950 -11.9825 -11.6111 -10.5850
    -9.6708  -9.3284  -9.0844  -8.6311  -7.1491  -3.7611  -3.4935  -2.3499
    -1.5960   0.1374   0.3700   2.6670   2.7394   3.7948   4.1852   5.1196
     5.7511   6.1935   6.6253

     occupation numbers 
     1.0000   1.0000   1.0000   1.0000   1.0000   1.0000   1.0000   1.0000
     1.0000   1.0000   1.0000   1.0000   1.0000   1.0000   1.0000   1.0000
     1.0000   1.0000   1.0000   1.0000   1.0000   0.0000   0.0000   0.0000
     0.0000   0.0000   0.0000   0.0000   0.0000   0.0000   0.0000   0.0000
     0.0000   0.0000   0.0000

          k = 0.3750 0.0722 0.0000 ( 11871 PWs)   bands (ev):

   -83.6026 -53.2159 -52.9539 -52.6006 -25.2710 -25.2050 -23.1383 -22.1573
   -15.4510 -14.9648 -13.7879 -12.5718 -12.2951 -11.9825 -11.6111 -10.5851
    -9.6709  -9.3285  -9.0844  -8.6310  -7.1491  -3.7611  -3.4935  -2.3500
    -1.5960   0.1374   0.3700   2.6670   2.7394   3.7949   4.1853   5.1196
     5.7511   6.1936   6.6254

     occupation numbers 
     1.0000   1.0000   1.0000   1.0000   1.0000   1.0000   1.0000   1.0000
     1.0000   1.0000   1.0000   1.0000   1.0000   1.0000   1.0000   1.0000
     1.0000   1.0000   1.0000   1.0000   1.0000   0.0000   0.0000   0.0000
     0.0000   0.0000   0.0000   0.0000   0.0000   0.0000   0.0000   0.0000
     0.0000   0.0000   0.0000

          k =-0.2500-0.2887 0.0000 ( 11871 PWs)   bands (ev):

   -83.6026 -53.2159 -52.9539 -52.6006 -25.2710 -25.2050 -23.1383 -22.1573
   -15.4510 -14.9648 -13.7879 -12.5718 -12.2951 -11.9825 -11.6111 -10.5851
    -9.6708  -9.3285  -9.0844  -8.6311  -7.1491  -3.7611  -3.4935  -2.3499
    -1.5960   0.1374   0.3700   2.6670   2.7394   3.7948   4.1852   5.1196
     5.7511   6.1935   6.6254

     occupation numbers 
     1.0000   1.0000   1.0000   1.0000   1.0000   1.0000   1.0000   1.0000
     1.0000   1.0000   1.0000   1.0000   1.0000   1.0000   1.0000   1.0000
     1.0000   1.0000   1.0000   1.0000   1.0000   0.0000   0.0000   0.0000
     0.0000   0.0000   0.0000   0.0000   0.0000   0.0000   0.0000   0.0000
     0.0000   0.0000   0.0000

          k = 0.3750-0.0722 0.0000 ( 11871 PWs)   bands (ev):

   -83.6026 -53.2159 -52.9539 -52.6006 -25.2710 -25.2050 -23.1383 -22.1573
   -15.4510 -14.9649 -13.7879 -12.5718 -12.2950 -11.9825 -11.6111 -10.5850
    -9.6708  -9.3284  -9.0844  -8.6311  -7.1491  -3.7611  -3.4935  -2.3499
    -1.5960   0.1374   0.3700   2.6670   2.7394   3.7948   4.1853   5.1196
     5.7511   6.1936   6.6254

     occupation numbers 
     1.0000   1.0000   1.0000   1.0000   1.0000   1.0000   1.0000   1.0000
     1.0000   1.0000   1.0000   1.0000   1.0000   1.0000   1.0000   1.0000
     1.0000   1.0000   1.0000   1.0000   1.0000   0.0000   0.0000   0.0000
     0.0000   0.0000   0.0000   0.0000   0.0000   0.0000   0.0000   0.0000
     0.0000   0.0000   0.0000

          k =-0.1250 0.5052 0.0000 ( 11841 PWs)   bands (ev):

   -83.6064 -53.1968 -52.9793 -52.7611 -24.2819 -24.2462 -22.8262 -22.0747
   -16.7278 -16.4400 -13.6155 -13.1087 -12.7150 -12.3305 -12.0355 -10.8020
    -9.9129  -9.2704  -9.0755  -8.5489  -7.2529  -4.1067  -3.4698  -2.0870
    -1.7522  -0.7231  -0.3382   2.7308   3.2511   3.9501   4.3510   5.3755
     6.2338   6.3133   7.0529

     occupation numbers 
     1.0000   1.0000   1.0000   1.0000   1.0000   1.0000   1.0000   1.0000
     1.0000   1.0000   1.0000   1.0000   1.0000   1.0000   1.0000   1.0000
     1.0000   1.0000   1.0000   1.0000   1.0000   0.0000   0.0000   0.0000
     0.0000   0.0000   0.0000   0.0000   0.0000   0.0000   0.0000   0.0000
     0.0000   0.0000   0.0000

          k =-0.3750 0.3608 0.0000 ( 11841 PWs)   bands (ev):

   -83.6064 -53.1968 -52.9793 -52.7611 -24.2819 -24.2462 -22.8262 -22.0748
   -16.7279 -16.4401 -13.6155 -13.1086 -12.7149 -12.3304 -12.0355 -10.8020
    -9.9128  -9.2703  -9.0754  -8.5489  -7.2530  -4.1067  -3.4698  -2.0869
    -1.7523  -0.7231  -0.3382   2.7309   3.2511   3.9501   4.3510   5.3755
     6.2338   6.3133   7.0530

     occupation numbers 
     1.0000   1.0000   1.0000   1.0000   1.0000   1.0000   1.0000   1.0000
     1.0000   1.0000   1.0000   1.0000   1.0000   1.0000   1.0000   1.0000
     1.0000   1.0000   1.0000   1.0000   1.0000   0.0000   0.0000   0.0000
     0.0000   0.0000   0.0000   0.0000   0.0000   0.0000   0.0000   0.0000
     0.0000   0.0000   0.0000

          k = 0.5000 0.1443 0.0000 ( 11841 PWs)   bands (ev):

   -83.6064 -53.1968 -52.9793 -52.7611 -24.2819 -24.2462 -22.8262 -22.0747
   -16.7278 -16.4401 -13.6155 -13.1086 -12.7150 -12.3305 -12.0355 -10.8021
    -9.9129  -9.2704  -9.0754  -8.5489  -7.2529  -4.1067  -3.4698  -2.0870
    -1.7522  -0.7231  -0.3382   2.7308   3.2510   3.9501   4.3510   5.3756
     6.2338   6.3134   7.0529

     occupation numbers 
     1.0000   1.0000   1.0000   1.0000   1.0000   1.0000   1.0000   1.0000
     1.0000   1.0000   1.0000   1.0000   1.0000   1.0000   1.0000   1.0000
     1.0000   1.0000   1.0000   1.0000   1.0000   0.0000   0.0000   0.0000
     0.0000   0.0000   0.0000   0.0000   0.0000   0.0000   0.0000   0.0000
     0.0000   0.0000   0.0000

          k =-0.3750-0.3608 0.0000 ( 11841 PWs)   bands (ev):

   -83.6064 -53.1968 -52.9793 -52.7611 -24.2819 -24.2462 -22.8262 -22.0747
   -16.7278 -16.4401 -13.6155 -13.1086 -12.7150 -12.3305 -12.0355 -10.8020
    -9.9129  -9.2704  -9.0755  -8.5489  -7.2529  -4.1067  -3.4698  -2.0869
    -1.7523  -0.7231  -0.3382   2.7308   3.2511   3.9501   4.3510   5.3755
     6.2338   6.3134   7.0530

     occupation numbers 
     1.0000   1.0000   1.0000   1.0000   1.0000   1.0000   1.0000   1.0000
     1.0000   1.0000   1.0000   1.0000   1.0000   1.0000   1.0000   1.0000
     1.0000   1.0000   1.0000   1.0000   1.0000   0.0000   0.0000   0.0000
     0.0000   0.0000   0.0000   0.0000   0.0000   0.0000   0.0000   0.0000
     0.0000   0.0000   0.0000

          k = 0.5000-0.1443 0.0000 ( 11841 PWs)   bands (ev):

   -83.6064 -53.1968 -52.9793 -52.7611 -24.2819 -24.2462 -22.8262 -22.0748
   -16.7279 -16.4401 -13.6155 -13.1086 -12.7149 -12.3304 -12.0355 -10.8020
    -9.9128  -9.2704  -9.0754  -8.5489  -7.2530  -4.1067  -3.4698  -2.0869
    -1.7523  -0.7231  -0.3382   2.7308   3.2510   3.9501   4.3510   5.3756
     6.2338   6.3134   7.0529

     occupation numbers 
     1.0000   1.0000   1.0000   1.0000   1.0000   1.0000   1.0000   1.0000
     1.0000   1.0000   1.0000   1.0000   1.0000   1.0000   1.0000   1.0000
     1.0000   1.0000   1.0000   1.0000   1.0000   0.0000   0.0000   0.0000
     0.0000   0.0000   0.0000   0.0000   0.0000   0.0000   0.0000   0.0000
     0.0000   0.0000   0.0000

          k =-0.2500 0.4330 0.0000 ( 11844 PWs)   bands (ev):

   -83.6137 -53.1803 -53.1210 -52.6574 -24.3245 -24.2814 -22.7975 -22.0299
   -16.1280 -15.7820 -14.0054 -13.7998 -13.2886 -11.9823 -11.8359 -11.1878
   -10.0790  -9.5778  -9.0424  -8.5243  -7.3328  -4.0043  -3.4137  -2.1497
    -1.6657   0.5054   0.7404   2.6205   3.0285   4.4548   4.7121   5.0806
     5.4753   6.1225   6.8619

     occupation numbers 
     1.0000   1.0000   1.0000   1.0000   1.0000   1.0000   1.0000   1.0000
     1.0000   1.0000   1.0000   1.0000   1.0000   1.0000   1.0000   1.0000
     1.0000   1.0000   1.0000   1.0000   1.0000   0.0000   0.0000   0.0000
     0.0000   0.0000   0.0000   0.0000   0.0000   0.0000   0.0000   0.0000
     0.0000   0.0000   0.0000

          k = 0.5000-0.0000 0.0000 ( 11844 PWs)   bands (ev):

   -83.6137 -53.1803 -53.1210 -52.6574 -24.3245 -24.2814 -22.7975 -22.0299
   -16.1280 -15.7820 -14.0054 -13.7998 -13.2886 -11.9823 -11.8359 -11.1878
   -10.0790  -9.5778  -9.0424  -8.5243  -7.3328  -4.0043  -3.4137  -2.1497
    -1.6657   0.5054   0.7403   2.6205   3.0285   4.4548   4.7120   5.0806
     5.4754   6.1225   6.8618

     occupation numbers 
     1.0000   1.0000   1.0000   1.0000   1.0000   1.0000   1.0000   1.0000
     1.0000   1.0000   1.0000   1.0000   1.0000   1.0000   1.0000   1.0000
     1.0000   1.0000   1.0000   1.0000   1.0000   0.0000   0.0000   0.0000
     0.0000   0.0000   0.0000   0.0000   0.0000   0.0000   0.0000   0.0000
     0.0000   0.0000   0.0000

          k =-0.3750 0.5052 0.0000 ( 11800 PWs)   bands (ev):

   -83.6030 -53.2076 -53.1348 -52.6269 -23.7835 -23.7559 -22.7484 -22.0513
   -16.3800 -16.0483 -14.6478 -14.5199 -12.8143 -12.3612 -12.1085 -10.8398
   -10.5804  -9.9952  -8.9873  -8.3418  -6.9632  -4.4056  -3.2514  -2.0456
    -1.7593   0.2875   0.6863   2.8439   3.2815   4.3314   4.7380   5.2490
     5.8545   6.3478   6.4452

     occupation numbers 
     1.0000   1.0000   1.0000   1.0000   1.0000   1.0000   1.0000   1.0000
     1.0000   1.0000   1.0000   1.0000   1.0000   1.0000   1.0000   1.0000
     1.0000   1.0000   1.0000   1.0000   1.0000   0.0000   0.0000   0.0000
     0.0000   0.0000   0.0000   0.0000   0.0000   0.0000   0.0000   0.0000
     0.0000   0.0000   0.0000

          k = 0.6250 0.0722 0.0000 ( 11800 PWs)   bands (ev):

   -83.6030 -53.2076 -53.1348 -52.6269 -23.7835 -23.7559 -22.7484 -22.0513
   -16.3800 -16.0483 -14.6479 -14.5199 -12.8143 -12.3612 -12.1085 -10.8398
   -10.5805  -9.9952  -8.9873  -8.3418  -6.9631  -4.4056  -3.2514  -2.0455
    -1.7594   0.2874   0.6864   2.8439   3.2815   4.3314   4.7380   5.2490
     5.8546   6.3479   6.4452

     occupation numbers 
     1.0000   1.0000   1.0000   1.0000   1.0000   1.0000   1.0000   1.0000
     1.0000   1.0000   1.0000   1.0000   1.0000   1.0000   1.0000   1.0000
     1.0000   1.0000   1.0000   1.0000   1.0000   0.0000   0.0000   0.0000
     0.0000   0.0000   0.0000   0.0000   0.0000   0.0000   0.0000   0.0000
     0.0000   0.0000   0.0000

     highest occupied, lowest unoccupied level (ev):    -6.5712   -4.4056

!    total energy              =    -263.21054278 Ry
     estimated scf accuracy    <          1.6E-11 Ry

     convergence has been achieved in   3 iterations

     Using ACE for calculation of exact exchange
     ACE projected onto    35 (nbndproj) and applied to    35 (nbnd) bands

     total energy              =    -263.21054278 Ry
     Harris-Foulkes estimate   =    -263.21054278 Ry
     est. exchange err (dexx)  =          2.9E-10 Ry
     - averaged Fock potential =      17.84087944 Ry
     + Fock energy (ACE)       =      -8.92044019 Ry

     EXX: now go back to refine exchange calculation

     total cpu time spent up to now is     8589.6 secs

     Self-consistent Calculation

     iteration #  1     ecut=    80.00 Ry     beta= 0.50
     Davidson diagonalization with overlap

---- Real-time Memory Report at c_bands before calling an iterative solver
          2135 MiB given to the printing process from OS
             0 MiB allocation reported by mallinfo(arena+hblkhd)
         12834 MiB available memory on the node where the printing process lives
------------------
     ethr =  7.59E-13,  avg # of iterations =  2.3

     total cpu time spent up to now is     8598.1 secs

     total energy              =    -263.21054278 Ry
     estimated scf accuracy    <          5.1E-10 Ry

     iteration #  2     ecut=    80.00 Ry     beta= 0.50
     Davidson diagonalization with overlap

---- Real-time Memory Report at c_bands before calling an iterative solver
          2135 MiB given to the printing process from OS
             0 MiB allocation reported by mallinfo(arena+hblkhd)
         12832 MiB available memory on the node where the printing process lives
------------------
     ethr =  1.21E-12,  avg # of iterations =  2.0

     total cpu time spent up to now is     8605.6 secs

     total energy              =    -263.21054278 Ry
     estimated scf accuracy    <          3.5E-09 Ry

     iteration #  3     ecut=    80.00 Ry     beta= 0.50
     Davidson diagonalization with overlap

---- Real-time Memory Report at c_bands before calling an iterative solver
          2135 MiB given to the printing process from OS
             0 MiB allocation reported by mallinfo(arena+hblkhd)
         12831 MiB available memory on the node where the printing process lives
------------------
     ethr =  1.21E-12,  avg # of iterations =  2.0

     total cpu time spent up to now is     8612.9 secs

     End of self-consistent calculation

          k = 0.0000 0.0000 0.0000 ( 11937 PWs)   bands (ev):

   -83.5878 -52.8394 -52.7331 -52.7331 -27.0867 -26.9889 -24.3179 -22.7306
   -15.6434 -12.7266 -10.6451 -10.4743 -10.4743 -10.4277 -10.4276  -9.9056
    -9.9056  -8.4931  -8.4928  -8.4910  -6.5712  -2.6779  -2.6777  -2.4419
    -2.4418  -0.2224   0.1109   2.3491   2.3826   2.5026   4.0139   4.0140
     4.0684   4.0684   4.2611

     occupation numbers 
     1.0000   1.0000   1.0000   1.0000   1.0000   1.0000   1.0000   1.0000
     1.0000   1.0000   1.0000   1.0000   1.0000   1.0000   1.0000   1.0000
     1.0000   1.0000   1.0000   1.0000   1.0000   0.0000   0.0000   0.0000
     0.0000   0.0000   0.0000   0.0000   0.0000   0.0000   0.0000   0.0000
     0.0000   0.0000   0.0000

          k = 0.0000 0.1443 0.0000 ( 11905 PWs)   bands (ev):

   -83.5986 -52.9344 -52.7620 -52.7324 -26.7833 -26.6893 -24.0835 -22.6116
   -15.3915 -12.6005 -11.5948 -11.5320 -10.6934 -10.6654 -10.5395 -10.2729
    -9.7548  -8.8982  -8.7578  -8.3030  -6.5871  -2.9434  -2.7405  -2.7142
    -2.3878   0.5042   0.7307   2.4394   2.4917   3.0542   3.2426   3.5282
     4.6776   4.7396   5.1339

     occupation numbers 
     1.0000   1.0000   1.0000   1.0000   1.0000   1.0000   1.0000   1.0000
     1.0000   1.0000   1.0000   1.0000   1.0000   1.0000   1.0000   1.0000
     1.0000   1.0000   1.0000   1.0000   1.0000   0.0000   0.0000   0.0000
     0.0000   0.0000   0.0000   0.0000   0.0000   0.0000   0.0000   0.0000
     0.0000   0.0000   0.0000

          k = 0.0000 0.2887 0.0000 ( 11885 PWs)   bands (ev):

   -83.6091 -53.1962 -52.8332 -52.6306 -25.9782 -25.8985 -23.5235 -22.3318
   -15.0328 -13.8368 -13.4730 -12.2914 -11.5649 -11.2207 -11.2110  -9.9332
    -9.6383  -9.3534  -9.2549  -8.4990  -6.9027  -3.5595  -3.2462  -2.4600
    -1.8625   0.1115   0.3010   2.4285   2.5718   3.4916   3.9965   5.0899
     5.9021   6.1092   6.2879

     occupation numbers 
     1.0000   1.0000   1.0000   1.0000   1.0000   1.0000   1.0000   1.0000
     1.0000   1.0000   1.0000   1.0000   1.0000   1.0000   1.0000   1.0000
     1.0000   1.0000   1.0000   1.0000   1.0000   0.0000   0.0000   0.0000
     0.0000   0.0000   0.0000   0.0000   0.0000   0.0000   0.0000   0.0000
     0.0000   0.0000   0.0000

          k = 0.0000 0.4330 0.0000 ( 11860 PWs)   bands (ev):

   -83.6038 -53.2498 -52.8422 -52.7459 -24.9041 -24.8504 -22.9908 -22.1110
   -16.2449 -15.9316 -13.8299 -12.6005 -12.0658 -11.7473 -11.7153 -10.4095
    -9.8224  -9.4658  -8.6994  -8.6884  -7.1319  -4.0134  -3.6252  -2.2419
    -1.4762  -1.2819  -0.7757   2.4296   2.9896   4.0198   4.2990   5.7888
     6.4123   6.6150   7.1622

     occupation numbers 
     1.0000   1.0000   1.0000   1.0000   1.0000   1.0000   1.0000   1.0000
     1.0000   1.0000   1.0000   1.0000   1.0000   1.0000   1.0000   1.0000
     1.0000   1.0000   1.0000   1.0000   1.0000   0.0000   0.0000   0.0000
     0.0000   0.0000   0.0000   0.0000   0.0000   0.0000   0.0000   0.0000
     0.0000   0.0000   0.0000

          k = 0.0000-0.5774 0.0000 ( 11846 PWs)   bands (ev):

   -83.5997 -53.1997 -52.8625 -52.8554 -24.2398 -24.2131 -22.8612 -22.1257
   -17.1597 -16.8848 -13.5592 -13.0601 -12.1763 -11.9708 -11.9322 -10.6057
   -10.0236  -9.2228  -8.7542  -8.4432  -7.3113  -4.0107  -3.6810  -2.3876
    -1.8990  -1.3444  -1.0608   2.1456   2.7601   4.4231   5.1187   5.8258
     6.1779   6.5203   7.2569

     occupation numbers 
     1.0000   1.0000   1.0000   1.0000   1.0000   1.0000   1.0000   1.0000
     1.0000   1.0000   1.0000   1.0000   1.0000   1.0000   1.0000   1.0000
     1.0000   1.0000   1.0000   1.0000   1.0000   0.0000   0.0000   0.0000
     0.0000   0.0000   0.0000   0.0000   0.0000   0.0000   0.0000   0.0000
     0.0000   0.0000   0.0000

          k = 0.1250 0.2165 0.0000 ( 11867 PWs)   bands (ev):

   -83.6000 -53.1246 -52.8483 -52.5887 -26.2304 -26.1449 -23.6925 -22.4180
   -15.0458 -13.0818 -12.8533 -12.2956 -11.6088 -11.3088 -10.9262  -9.9738
    -9.6597  -9.5529  -9.0095  -8.3568  -6.7805  -3.3971  -3.0845  -2.7038
    -1.9046   1.0475   1.2331   2.0132   2.0273   3.4885   3.6387   4.0485
     5.0946   5.7027   6.4690

     occupation numbers 
     1.0000   1.0000   1.0000   1.0000   1.0000   1.0000   1.0000   1.0000
     1.0000   1.0000   1.0000   1.0000   1.0000   1.0000   1.0000   1.0000
     1.0000   1.0000   1.0000   1.0000   1.0000   0.0000   0.0000   0.0000
     0.0000   0.0000   0.0000   0.0000   0.0000   0.0000   0.0000   0.0000
     0.0000   0.0000   0.0000

          k = 0.1250 0.3608 0.0000 ( 11871 PWs)   bands (ev):

   -83.6026 -53.2159 -52.9539 -52.6006 -25.2710 -25.2050 -23.1383 -22.1573
   -15.4510 -14.9648 -13.7879 -12.5718 -12.2951 -11.9825 -11.6111 -10.5851
    -9.6709  -9.3285  -9.0844  -8.6311  -7.1491  -3.7611  -3.4935  -2.3499
    -1.5960   0.1374   0.3700   2.6670   2.7394   3.7949   4.1853   5.1195
     5.7511   6.1935   6.6254

     occupation numbers 
     1.0000   1.0000   1.0000   1.0000   1.0000   1.0000   1.0000   1.0000
     1.0000   1.0000   1.0000   1.0000   1.0000   1.0000   1.0000   1.0000
     1.0000   1.0000   1.0000   1.0000   1.0000   0.0000   0.0000   0.0000
     0.0000   0.0000   0.0000   0.0000   0.0000   0.0000   0.0000   0.0000
     0.0000   0.0000   0.0000

          k = 0.1250 0.5052 0.0000 ( 11841 PWs)   bands (ev):

   -83.6064 -53.1968 -52.9793 -52.7612 -24.2819 -24.2462 -22.8262 -22.0747
   -16.7278 -16.4400 -13.6155 -13.1086 -12.7150 -12.3305 -12.0355 -10.8020
    -9.9129  -9.2704  -9.0755  -8.5489  -7.2530  -4.1067  -3.4698  -2.0869
    -1.7523  -0.7231  -0.3382   2.7308   3.2511   3.9501   4.3510   5.3755
     6.2338   6.3134   7.0529

     occupation numbers 
     1.0000   1.0000   1.0000   1.0000   1.0000   1.0000   1.0000   1.0000
     1.0000   1.0000   1.0000   1.0000   1.0000   1.0000   1.0000   1.0000
     1.0000   1.0000   1.0000   1.0000   1.0000   0.0000   0.0000   0.0000
     0.0000   0.0000   0.0000   0.0000   0.0000   0.0000   0.0000   0.0000
     0.0000   0.0000   0.0000

          k = 0.2500 0.4330 0.0000 ( 11844 PWs)   bands (ev):

   -83.6137 -53.1803 -53.1210 -52.6573 -24.3245 -24.2814 -22.7975 -22.0299
   -16.1279 -15.7819 -14.0054 -13.7999 -13.2886 -11.9823 -11.8360 -11.1878
   -10.0790  -9.5778  -9.0424  -8.5243  -7.3327  -4.0042  -3.4138  -2.1496
    -1.6658   0.5053   0.7404   2.6205   3.0285   4.4548   4.7121   5.0805
     5.4754   6.1224   6.8619

     occupation numbers 
     1.0000   1.0000   1.0000   1.0000   1.0000   1.0000   1.0000   1.0000
     1.0000   1.0000   1.0000   1.0000   1.0000   1.0000   1.0000   1.0000
     1.0000   1.0000   1.0000   1.0000   1.0000   0.0000   0.0000   0.0000
     0.0000   0.0000   0.0000   0.0000   0.0000   0.0000   0.0000   0.0000
     0.0000   0.0000   0.0000

          k = 0.2500 0.5774 0.0000 ( 11800 PWs)   bands (ev):

   -83.6030 -53.2076 -53.1348 -52.6269 -23.7835 -23.7559 -22.7484 -22.0513
   -16.3800 -16.0483 -14.6478 -14.5199 -12.8143 -12.3612 -12.1085 -10.8398
   -10.5805  -9.9952  -8.9873  -8.3418  -6.9631  -4.4056  -3.2514  -2.0455
    -1.7594   0.2874   0.6864   2.8439   3.2815   4.3314   4.7380   5.2489
     5.8546   6.3478   6.4452

     occupation numbers 
     1.0000   1.0000   1.0000   1.0000   1.0000   1.0000   1.0000   1.0000
     1.0000   1.0000   1.0000   1.0000   1.0000   1.0000   1.0000   1.0000
     1.0000   1.0000   1.0000   1.0000   1.0000   0.0000   0.0000   0.0000
     0.0000   0.0000   0.0000   0.0000   0.0000   0.0000   0.0000   0.0000
     0.0000   0.0000   0.0000

          k =-0.1250 0.0722 0.0000 ( 11905 PWs)   bands (ev):

   -83.5986 -52.9344 -52.7620 -52.7324 -26.7833 -26.6893 -24.0835 -22.6116
   -15.3915 -12.6005 -11.5949 -11.5321 -10.6933 -10.6653 -10.5395 -10.2729
    -9.7547  -8.8984  -8.7575  -8.3031  -6.5871  -2.9435  -2.7404  -2.7141
    -2.3880   0.5042   0.7307   2.4394   2.4917   3.0542   3.2426   3.5282
     4.6776   4.7397   5.1339

     occupation numbers 
     1.0000   1.0000   1.0000   1.0000   1.0000   1.0000   1.0000   1.0000
     1.0000   1.0000   1.0000   1.0000   1.0000   1.0000   1.0000   1.0000
     1.0000   1.0000   1.0000   1.0000   1.0000   0.0000   0.0000   0.0000
     0.0000   0.0000   0.0000   0.0000   0.0000   0.0000   0.0000   0.0000
     0.0000   0.0000   0.0000

          k = 0.1250 0.0722 0.0000 ( 11905 PWs)   bands (ev):

   -83.5986 -52.9344 -52.7620 -52.7324 -26.7833 -26.6893 -24.0835 -22.6116
   -15.3915 -12.6005 -11.5948 -11.5320 -10.6934 -10.6654 -10.5395 -10.2729
    -9.7548  -8.8982  -8.7577  -8.3030  -6.5871  -2.9434  -2.7405  -2.7141
    -2.3878   0.5042   0.7308   2.4394   2.4917   3.0542   3.2426   3.5282
     4.6776   4.7396   5.1339

     occupation numbers 
     1.0000   1.0000   1.0000   1.0000   1.0000   1.0000   1.0000   1.0000
     1.0000   1.0000   1.0000   1.0000   1.0000   1.0000   1.0000   1.0000
     1.0000   1.0000   1.0000   1.0000   1.0000   0.0000   0.0000   0.0000
     0.0000   0.0000   0.0000   0.0000   0.0000   0.0000   0.0000   0.0000
     0.0000   0.0000   0.0000

          k =-0.2500 0.1443 0.0000 ( 11885 PWs)   bands (ev):

   -83.6091 -53.1962 -52.8332 -52.6306 -25.9782 -25.8985 -23.5235 -22.3319
   -15.0328 -13.8368 -13.4731 -12.2914 -11.5649 -11.2206 -11.2110  -9.9332
    -9.6383  -9.3533  -9.2548  -8.4990  -6.9028  -3.5595  -3.2462  -2.4599
    -1.8626   0.1115   0.3010   2.4285   2.5718   3.4915   3.9964   5.0899
     5.9021   6.1092   6.2879

     occupation numbers 
     1.0000   1.0000   1.0000   1.0000   1.0000   1.0000   1.0000   1.0000
     1.0000   1.0000   1.0000   1.0000   1.0000   1.0000   1.0000   1.0000
     1.0000   1.0000   1.0000   1.0000   1.0000   0.0000   0.0000   0.0000
     0.0000   0.0000   0.0000   0.0000   0.0000   0.0000   0.0000   0.0000
     0.0000   0.0000   0.0000

          k = 0.2500 0.1443 0.0000 ( 11885 PWs)   bands (ev):

   -83.6091 -53.1962 -52.8332 -52.6306 -25.9782 -25.8985 -23.5235 -22.3318
   -15.0328 -13.8368 -13.4730 -12.2913 -11.5649 -11.2207 -11.2110  -9.9332
    -9.6383  -9.3534  -9.2549  -8.4990  -6.9027  -3.5595  -3.2462  -2.4600
    -1.8625   0.1115   0.3010   2.4285   2.5718   3.4916   3.9964   5.0899
     5.9021   6.1092   6.2878

     occupation numbers 
     1.0000   1.0000   1.0000   1.0000   1.0000   1.0000   1.0000   1.0000
     1.0000   1.0000   1.0000   1.0000   1.0000   1.0000   1.0000   1.0000
     1.0000   1.0000   1.0000   1.0000   1.0000   0.0000   0.0000   0.0000
     0.0000   0.0000   0.0000   0.0000   0.0000   0.0000   0.0000   0.0000
     0.0000   0.0000   0.0000

          k =-0.3750 0.2165 0.0000 ( 11860 PWs)   bands (ev):

   -83.6038 -53.2499 -52.8422 -52.7459 -24.9041 -24.8504 -22.9908 -22.1110
   -16.2450 -15.9316 -13.8299 -12.6005 -12.0658 -11.7472 -11.7152 -10.4095
    -9.8223  -9.4657  -8.6993  -8.6885  -7.1320  -4.0134  -3.6252  -2.2418
    -1.4762  -1.2819  -0.7757   2.4297   2.9895   4.0198   4.2989   5.7889
     6.4122   6.6150   7.1622

     occupation numbers 
     1.0000   1.0000   1.0000   1.0000   1.0000   1.0000   1.0000   1.0000
     1.0000   1.0000   1.0000   1.0000   1.0000   1.0000   1.0000   1.0000
     1.0000   1.0000   1.0000   1.0000   1.0000   0.0000   0.0000   0.0000
     0.0000   0.0000   0.0000   0.0000   0.0000   0.0000   0.0000   0.0000
     0.0000   0.0000   0.0000

          k = 0.3750 0.2165 0.0000 ( 11860 PWs)   bands (ev):

   -83.6038 -53.2498 -52.8422 -52.7459 -24.9041 -24.8504 -22.9908 -22.1110
   -16.2449 -15.9316 -13.8299 -12.6005 -12.0658 -11.7473 -11.7153 -10.4095
    -9.8224  -9.4657  -8.6994  -8.6884  -7.1319  -4.0134  -3.6252  -2.2419
    -1.4762  -1.2819  -0.7757   2.4296   2.9895   4.0198   4.2989   5.7888
     6.4123   6.6150   7.1620

     occupation numbers 
     1.0000   1.0000   1.0000   1.0000   1.0000   1.0000   1.0000   1.0000
     1.0000   1.0000   1.0000   1.0000   1.0000   1.0000   1.0000   1.0000
     1.0000   1.0000   1.0000   1.0000   1.0000   0.0000   0.0000   0.0000
     0.0000   0.0000   0.0000   0.0000   0.0000   0.0000   0.0000   0.0000
     0.0000   0.0000   0.0000

          k = 0.5000-0.2887 0.0000 ( 11846 PWs)   bands (ev):

   -83.5997 -53.1997 -52.8625 -52.8554 -24.2398 -24.2131 -22.8611 -22.1257
   -17.1597 -16.8848 -13.5592 -13.0600 -12.1763 -11.9707 -11.9321 -10.6057
   -10.0234  -9.2227  -8.7542  -8.4431  -7.3113  -4.0108  -3.6810  -2.3876
    -1.8990  -1.3444  -1.0608   2.1456   2.7600   4.4231   5.1187   5.8258
     6.1778   6.5203   7.2570

     occupation numbers 
     1.0000   1.0000   1.0000   1.0000   1.0000   1.0000   1.0000   1.0000
     1.0000   1.0000   1.0000   1.0000   1.0000   1.0000   1.0000   1.0000
     1.0000   1.0000   1.0000   1.0000   1.0000   0.0000   0.0000   0.0000
     0.0000   0.0000   0.0000   0.0000   0.0000   0.0000   0.0000   0.0000
     0.0000   0.0000   0.0000

          k =-0.5000-0.2887 0.0000 ( 11846 PWs)   bands (ev):

   -83.5997 -53.1997 -52.8625 -52.8554 -24.2398 -24.2132 -22.8611 -22.1256
   -17.1597 -16.8848 -13.5592 -13.0600 -12.1763 -11.9708 -11.9322 -10.6057
   -10.0236  -9.2228  -8.7542  -8.4432  -7.3113  -4.0107  -3.6810  -2.3877
    -1.8990  -1.3444  -1.0608   2.1456   2.7600   4.4231   5.1187   5.8258
     6.1779   6.5203   7.2569

     occupation numbers 
     1.0000   1.0000   1.0000   1.0000   1.0000   1.0000   1.0000   1.0000
     1.0000   1.0000   1.0000   1.0000   1.0000   1.0000   1.0000   1.0000
     1.0000   1.0000   1.0000   1.0000   1.0000   0.0000   0.0000   0.0000
     0.0000   0.0000   0.0000   0.0000   0.0000   0.0000   0.0000   0.0000
     0.0000   0.0000   0.0000

          k =-0.1250 0.2165 0.0000 ( 11867 PWs)   bands (ev):

   -83.6000 -53.1246 -52.8483 -52.5887 -26.2304 -26.1449 -23.6925 -22.4180
   -15.0458 -13.0818 -12.8533 -12.2956 -11.6088 -11.3087 -10.9261  -9.9738
    -9.6596  -9.5528  -9.0095  -8.3568  -6.7806  -3.3971  -3.0845  -2.7038
    -1.9046   1.0475   1.2331   2.0133   2.0273   3.4885   3.6387   4.0485
     5.0946   5.7027   6.4690

     occupation numbers 
     1.0000   1.0000   1.0000   1.0000   1.0000   1.0000   1.0000   1.0000
     1.0000   1.0000   1.0000   1.0000   1.0000   1.0000   1.0000   1.0000
     1.0000   1.0000   1.0000   1.0000   1.0000   0.0000   0.0000   0.0000
     0.0000   0.0000   0.0000   0.0000   0.0000   0.0000   0.0000   0.0000
     0.0000   0.0000   0.0000

          k = 0.2500-0.0000 0.0000 ( 11867 PWs)   bands (ev):

   -83.6000 -53.1246 -52.8483 -52.5887 -26.2304 -26.1449 -23.6925 -22.4180
   -15.0458 -13.0818 -12.8533 -12.2956 -11.6088 -11.3087 -10.9261  -9.9738
    -9.6596  -9.5527  -9.0095  -8.3568  -6.7806  -3.3970  -3.0845  -2.7038
    -1.9046   1.0475   1.2332   2.0133   2.0273   3.4885   3.6387   4.0485
     5.0945   5.7027   6.4691

     occupation numbers 
     1.0000   1.0000   1.0000   1.0000   1.0000   1.0000   1.0000   1.0000
     1.0000   1.0000   1.0000   1.0000   1.0000   1.0000   1.0000   1.0000
     1.0000   1.0000   1.0000   1.0000   1.0000   0.0000   0.0000   0.0000
     0.0000   0.0000   0.0000   0.0000   0.0000   0.0000   0.0000   0.0000
     0.0000   0.0000   0.0000

          k =-0.1250 0.3608 0.0000 ( 11871 PWs)   bands (ev):

   -83.6026 -53.2159 -52.9539 -52.6006 -25.2710 -25.2050 -23.1383 -22.1573
   -15.4510 -14.9648 -13.7879 -12.5718 -12.2951 -11.9825 -11.6111 -10.5851
    -9.6709  -9.3285  -9.0844  -8.6310  -7.1491  -3.7611  -3.4935  -2.3500
    -1.5960   0.1374   0.3700   2.6670   2.7394   3.7949   4.1853   5.1196
     5.7511   6.1935   6.6253

     occupation numbers 
     1.0000   1.0000   1.0000   1.0000   1.0000   1.0000   1.0000   1.0000
     1.0000   1.0000   1.0000   1.0000   1.0000   1.0000   1.0000   1.0000
     1.0000   1.0000   1.0000   1.0000   1.0000   0.0000   0.0000   0.0000
     0.0000   0.0000   0.0000   0.0000   0.0000   0.0000   0.0000   0.0000
     0.0000   0.0000   0.0000

          k =-0.2500 0.2887 0.0000 ( 11871 PWs)   bands (ev):

   -83.6026 -53.2159 -52.9539 -52.6006 -25.2710 -25.2050 -23.1383 -22.1573
   -15.4510 -14.9649 -13.7879 -12.5718 -12.2950 -11.9825 -11.6111 -10.5850
    -9.6708  -9.3284  -9.0843  -8.6311  -7.1491  -3.7611  -3.4935  -2.3499
    -1.5960   0.1374   0.3700   2.6670   2.7394   3.7948   4.1852   5.1196
     5.7511   6.1935   6.6253

     occupation numbers 
     1.0000   1.0000   1.0000   1.0000   1.0000   1.0000   1.0000   1.0000
     1.0000   1.0000   1.0000   1.0000   1.0000   1.0000   1.0000   1.0000
     1.0000   1.0000   1.0000   1.0000   1.0000   0.0000   0.0000   0.0000
     0.0000   0.0000   0.0000   0.0000   0.0000   0.0000   0.0000   0.0000
     0.0000   0.0000   0.0000

          k = 0.3750 0.0722 0.0000 ( 11871 PWs)   bands (ev):

   -83.6026 -53.2159 -52.9539 -52.6006 -25.2710 -25.2050 -23.1383 -22.1573
   -15.4510 -14.9648 -13.7879 -12.5718 -12.2951 -11.9825 -11.6111 -10.5851
    -9.6709  -9.3285  -9.0844  -8.6310  -7.1491  -3.7611  -3.4935  -2.3500
    -1.5960   0.1374   0.3700   2.6670   2.7394   3.7949   4.1853   5.1196
     5.7511   6.1936   6.6254

     occupation numbers 
     1.0000   1.0000   1.0000   1.0000   1.0000   1.0000   1.0000   1.0000
     1.0000   1.0000   1.0000   1.0000   1.0000   1.0000   1.0000   1.0000
     1.0000   1.0000   1.0000   1.0000   1.0000   0.0000   0.0000   0.0000
     0.0000   0.0000   0.0000   0.0000   0.0000   0.0000   0.0000   0.0000
     0.0000   0.0000   0.0000

          k =-0.2500-0.2887 0.0000 ( 11871 PWs)   bands (ev):

   -83.6026 -53.2159 -52.9539 -52.6006 -25.2710 -25.2050 -23.1383 -22.1573
   -15.4510 -14.9648 -13.7879 -12.5718 -12.2951 -11.9825 -11.6111 -10.5851
    -9.6709  -9.3285  -9.0844  -8.6311  -7.1491  -3.7611  -3.4935  -2.3499
    -1.5960   0.1374   0.3700   2.6670   2.7394   3.7948   4.1852   5.1196
     5.7511   6.1935   6.6254

     occupation numbers 
     1.0000   1.0000   1.0000   1.0000   1.0000   1.0000   1.0000   1.0000
     1.0000   1.0000   1.0000   1.0000   1.0000   1.0000   1.0000   1.0000
     1.0000   1.0000   1.0000   1.0000   1.0000   0.0000   0.0000   0.0000
     0.0000   0.0000   0.0000   0.0000   0.0000   0.0000   0.0000   0.0000
     0.0000   0.0000   0.0000

          k = 0.3750-0.0722 0.0000 ( 11871 PWs)   bands (ev):

   -83.6026 -53.2159 -52.9539 -52.6006 -25.2710 -25.2050 -23.1383 -22.1573
   -15.4510 -14.9649 -13.7879 -12.5718 -12.2950 -11.9825 -11.6111 -10.5850
    -9.6708  -9.3285  -9.0843  -8.6311  -7.1491  -3.7611  -3.4935  -2.3499
    -1.5960   0.1374   0.3700   2.6670   2.7394   3.7948   4.1853   5.1196
     5.7511   6.1936   6.6253

     occupation numbers 
     1.0000   1.0000   1.0000   1.0000   1.0000   1.0000   1.0000   1.0000
     1.0000   1.0000   1.0000   1.0000   1.0000   1.0000   1.0000   1.0000
     1.0000   1.0000   1.0000   1.0000   1.0000   0.0000   0.0000   0.0000
     0.0000   0.0000   0.0000   0.0000   0.0000   0.0000   0.0000   0.0000
     0.0000   0.0000   0.0000

          k =-0.1250 0.5052 0.0000 ( 11841 PWs)   bands (ev):

   -83.6064 -53.1968 -52.9793 -52.7612 -24.2819 -24.2462 -22.8262 -22.0747
   -16.7278 -16.4400 -13.6155 -13.1086 -12.7150 -12.3305 -12.0355 -10.8020
    -9.9129  -9.2704  -9.0755  -8.5489  -7.2530  -4.1067  -3.4698  -2.0870
    -1.7522  -0.7231  -0.3382   2.7308   3.2511   3.9501   4.3510   5.3755
     6.2339   6.3133   7.0529

     occupation numbers 
     1.0000   1.0000   1.0000   1.0000   1.0000   1.0000   1.0000   1.0000
     1.0000   1.0000   1.0000   1.0000   1.0000   1.0000   1.0000   1.0000
     1.0000   1.0000   1.0000   1.0000   1.0000   0.0000   0.0000   0.0000
     0.0000   0.0000   0.0000   0.0000   0.0000   0.0000   0.0000   0.0000
     0.0000   0.0000   0.0000

          k =-0.3750 0.3608 0.0000 ( 11841 PWs)   bands (ev):

   -83.6064 -53.1968 -52.9793 -52.7612 -24.2819 -24.2462 -22.8262 -22.0748
   -16.7279 -16.4401 -13.6155 -13.1086 -12.7150 -12.3304 -12.0355 -10.8020
    -9.9128  -9.2703  -9.0754  -8.5489  -7.2530  -4.1067  -3.4698  -2.0869
    -1.7523  -0.7231  -0.3382   2.7309   3.2511   3.9501   4.3510   5.3755
     6.2338   6.3133   7.0530

     occupation numbers 
     1.0000   1.0000   1.0000   1.0000   1.0000   1.0000   1.0000   1.0000
     1.0000   1.0000   1.0000   1.0000   1.0000   1.0000   1.0000   1.0000
     1.0000   1.0000   1.0000   1.0000   1.0000   0.0000   0.0000   0.0000
     0.0000   0.0000   0.0000   0.0000   0.0000   0.0000   0.0000   0.0000
     0.0000   0.0000   0.0000

          k = 0.5000 0.1443 0.0000 ( 11841 PWs)   bands (ev):

   -83.6064 -53.1968 -52.9793 -52.7612 -24.2819 -24.2462 -22.8262 -22.0747
   -16.7278 -16.4401 -13.6155 -13.1086 -12.7150 -12.3305 -12.0355 -10.8021
    -9.9129  -9.2704  -9.0754  -8.5489  -7.2530  -4.1067  -3.4698  -2.0870
    -1.7522  -0.7231  -0.3382   2.7308   3.2510   3.9501   4.3510   5.3756
     6.2338   6.3134   7.0529

     occupation numbers 
     1.0000   1.0000   1.0000   1.0000   1.0000   1.0000   1.0000   1.0000
     1.0000   1.0000   1.0000   1.0000   1.0000   1.0000   1.0000   1.0000
     1.0000   1.0000   1.0000   1.0000   1.0000   0.0000   0.0000   0.0000
     0.0000   0.0000   0.0000   0.0000   0.0000   0.0000   0.0000   0.0000
     0.0000   0.0000   0.0000

          k =-0.3750-0.3608 0.0000 ( 11841 PWs)   bands (ev):

   -83.6064 -53.1968 -52.9793 -52.7612 -24.2819 -24.2462 -22.8262 -22.0747
   -16.7278 -16.4401 -13.6155 -13.1086 -12.7150 -12.3305 -12.0355 -10.8020
    -9.9129  -9.2704  -9.0755  -8.5489  -7.2530  -4.1067  -3.4698  -2.0869
    -1.7523  -0.7231  -0.3382   2.7308   3.2511   3.9501   4.3510   5.3755
     6.2338   6.3134   7.0530

     occupation numbers 
     1.0000   1.0000   1.0000   1.0000   1.0000   1.0000   1.0000   1.0000
     1.0000   1.0000   1.0000   1.0000   1.0000   1.0000   1.0000   1.0000
     1.0000   1.0000   1.0000   1.0000   1.0000   0.0000   0.0000   0.0000
     0.0000   0.0000   0.0000   0.0000   0.0000   0.0000   0.0000   0.0000
     0.0000   0.0000   0.0000

          k = 0.5000-0.1443 0.0000 ( 11841 PWs)   bands (ev):

   -83.6064 -53.1968 -52.9793 -52.7612 -24.2819 -24.2462 -22.8262 -22.0748
   -16.7279 -16.4401 -13.6155 -13.1086 -12.7150 -12.3304 -12.0355 -10.8020
    -9.9128  -9.2704  -9.0754  -8.5489  -7.2530  -4.1067  -3.4698  -2.0869
    -1.7522  -0.7231  -0.3382   2.7308   3.2510   3.9501   4.3510   5.3756
     6.2338   6.3133   7.0529

     occupation numbers 
     1.0000   1.0000   1.0000   1.0000   1.0000   1.0000   1.0000   1.0000
     1.0000   1.0000   1.0000   1.0000   1.0000   1.0000   1.0000   1.0000
     1.0000   1.0000   1.0000   1.0000   1.0000   0.0000   0.0000   0.0000
     0.0000   0.0000   0.0000   0.0000   0.0000   0.0000   0.0000   0.0000
     0.0000   0.0000   0.0000

          k =-0.2500 0.4330 0.0000 ( 11844 PWs)   bands (ev):

   -83.6137 -53.1803 -53.1210 -52.6573 -24.3245 -24.2814 -22.7975 -22.0299
   -16.1280 -15.7820 -14.0054 -13.7998 -13.2886 -11.9823 -11.8359 -11.1878
   -10.0790  -9.5778  -9.0424  -8.5243  -7.3328  -4.0042  -3.4138  -2.1497
    -1.6657   0.5054   0.7404   2.6205   3.0285   4.4548   4.7121   5.0805
     5.4753   6.1225   6.8619

     occupation numbers 
     1.0000   1.0000   1.0000   1.0000   1.0000   1.0000   1.0000   1.0000
     1.0000   1.0000   1.0000   1.0000   1.0000   1.0000   1.0000   1.0000
     1.0000   1.0000   1.0000   1.0000   1.0000   0.0000   0.0000   0.0000
     0.0000   0.0000   0.0000   0.0000   0.0000   0.0000   0.0000   0.0000
     0.0000   0.0000   0.0000

          k = 0.5000-0.0000 0.0000 ( 11844 PWs)   bands (ev):

   -83.6137 -53.1803 -53.1210 -52.6573 -24.3245 -24.2814 -22.7975 -22.0299
   -16.1280 -15.7820 -14.0054 -13.7998 -13.2886 -11.9823 -11.8359 -11.1878
   -10.0790  -9.5778  -9.0424  -8.5243  -7.3328  -4.0042  -3.4138  -2.1497
    -1.6657   0.5054   0.7404   2.6205   3.0285   4.4548   4.7121   5.0806
     5.4753   6.1225   6.8618

     occupation numbers 
     1.0000   1.0000   1.0000   1.0000   1.0000   1.0000   1.0000   1.0000
     1.0000   1.0000   1.0000   1.0000   1.0000   1.0000   1.0000   1.0000
     1.0000   1.0000   1.0000   1.0000   1.0000   0.0000   0.0000   0.0000
     0.0000   0.0000   0.0000   0.0000   0.0000   0.0000   0.0000   0.0000
     0.0000   0.0000   0.0000

          k =-0.3750 0.5052 0.0000 ( 11800 PWs)   bands (ev):

   -83.6030 -53.2076 -53.1348 -52.6269 -23.7835 -23.7559 -22.7484 -22.0513
   -16.3800 -16.0483 -14.6478 -14.5199 -12.8143 -12.3613 -12.1084 -10.8398
   -10.5804  -9.9952  -8.9873  -8.3418  -6.9632  -4.4056  -3.2514  -2.0456
    -1.7593   0.2874   0.6863   2.8439   3.2815   4.3314   4.7380   5.2490
     5.8545   6.3478   6.4452

     occupation numbers 
     1.0000   1.0000   1.0000   1.0000   1.0000   1.0000   1.0000   1.0000
     1.0000   1.0000   1.0000   1.0000   1.0000   1.0000   1.0000   1.0000
     1.0000   1.0000   1.0000   1.0000   1.0000   0.0000   0.0000   0.0000
     0.0000   0.0000   0.0000   0.0000   0.0000   0.0000   0.0000   0.0000
     0.0000   0.0000   0.0000

          k = 0.6250 0.0722 0.0000 ( 11800 PWs)   bands (ev):

   -83.6030 -53.2076 -53.1348 -52.6269 -23.7835 -23.7559 -22.7484 -22.0513
   -16.3800 -16.0483 -14.6479 -14.5199 -12.8143 -12.3612 -12.1084 -10.8398
   -10.5805  -9.9952  -8.9873  -8.3418  -6.9632  -4.4056  -3.2514  -2.0455
    -1.7594   0.2874   0.6864   2.8439   3.2815   4.3314   4.7380   5.2490
     5.8546   6.3479   6.4452

     occupation numbers 
     1.0000   1.0000   1.0000   1.0000   1.0000   1.0000   1.0000   1.0000
     1.0000   1.0000   1.0000   1.0000   1.0000   1.0000   1.0000   1.0000
     1.0000   1.0000   1.0000   1.0000   1.0000   0.0000   0.0000   0.0000
     0.0000   0.0000   0.0000   0.0000   0.0000   0.0000   0.0000   0.0000
     0.0000   0.0000   0.0000

     highest occupied, lowest unoccupied level (ev):    -6.5712   -4.4056

!    total energy              =    -263.21054278 Ry
     estimated scf accuracy    <          5.6E-11 Ry

     convergence has been achieved in   3 iterations

     Using ACE for calculation of exact exchange
     ACE projected onto    35 (nbndproj) and applied to    35 (nbnd) bands

     total energy              =    -263.21054278 Ry
     Harris-Foulkes estimate   =    -263.21054278 Ry
     est. exchange err (dexx)  =          1.7E-10 Ry
     - averaged Fock potential =      17.84088113 Ry
     + Fock energy (ACE)       =      -8.92044094 Ry

     EXX: now go back to refine exchange calculation

     total cpu time spent up to now is     8952.4 secs

     Self-consistent Calculation

     iteration #  1     ecut=    80.00 Ry     beta= 0.50
     Davidson diagonalization with overlap

---- Real-time Memory Report at c_bands before calling an iterative solver
          2135 MiB given to the printing process from OS
             0 MiB allocation reported by mallinfo(arena+hblkhd)
         12838 MiB available memory on the node where the printing process lives
------------------
     ethr =  1.21E-12,  avg # of iterations =  2.4

     total cpu time spent up to now is     8960.9 secs

     total energy              =    -263.21054278 Ry
     estimated scf accuracy    <          2.2E-09 Ry

     iteration #  2     ecut=    80.00 Ry     beta= 0.50
     Davidson diagonalization with overlap

---- Real-time Memory Report at c_bands before calling an iterative solver
          2135 MiB given to the printing process from OS
             0 MiB allocation reported by mallinfo(arena+hblkhd)
         12848 MiB available memory on the node where the printing process lives
------------------
     ethr =  5.35E-12,  avg # of iterations =  2.0

     total cpu time spent up to now is     8968.4 secs

     total energy              =    -263.21054278 Ry
     estimated scf accuracy    <       0.00000002 Ry

     iteration #  3     ecut=    80.00 Ry     beta= 0.50
     Davidson diagonalization with overlap

---- Real-time Memory Report at c_bands before calling an iterative solver
          2135 MiB given to the printing process from OS
             0 MiB allocation reported by mallinfo(arena+hblkhd)
         12846 MiB available memory on the node where the printing process lives
------------------
     ethr =  5.35E-12,  avg # of iterations =  2.0

     total cpu time spent up to now is     8975.8 secs

     total energy              =    -263.21054278 Ry
     estimated scf accuracy    <          1.3E-10 Ry

     iteration #  4     ecut=    80.00 Ry     beta= 0.50
     Davidson diagonalization with overlap

---- Real-time Memory Report at c_bands before calling an iterative solver
          2135 MiB given to the printing process from OS
             0 MiB allocation reported by mallinfo(arena+hblkhd)
         12840 MiB available memory on the node where the printing process lives
------------------
     ethr =  3.17E-13,  avg # of iterations =  2.0

     total cpu time spent up to now is     8982.7 secs

     End of self-consistent calculation

          k = 0.0000 0.0000 0.0000 ( 11937 PWs)   bands (ev):

   -83.5878 -52.8393 -52.7331 -52.7331 -27.0867 -26.9889 -24.3179 -22.7306
   -15.6434 -12.7266 -10.6451 -10.4743 -10.4743 -10.4277 -10.4276  -9.9056
    -9.9055  -8.4931  -8.4927  -8.4910  -6.5712  -2.6779  -2.6777  -2.4419
    -2.4418  -0.2224   0.1109   2.3491   2.3826   2.5027   4.0139   4.0140
     4.0684   4.0684   4.2611

     occupation numbers 
     1.0000   1.0000   1.0000   1.0000   1.0000   1.0000   1.0000   1.0000
     1.0000   1.0000   1.0000   1.0000   1.0000   1.0000   1.0000   1.0000
     1.0000   1.0000   1.0000   1.0000   1.0000   0.0000   0.0000   0.0000
     0.0000   0.0000   0.0000   0.0000   0.0000   0.0000   0.0000   0.0000
     0.0000   0.0000   0.0000

          k = 0.0000 0.1443 0.0000 ( 11905 PWs)   bands (ev):

   -83.5986 -52.9344 -52.7620 -52.7324 -26.7833 -26.6893 -24.0835 -22.6116
   -15.3915 -12.6005 -11.5948 -11.5320 -10.6934 -10.6654 -10.5394 -10.2729
    -9.7547  -8.8982  -8.7577  -8.3030  -6.5870  -2.9434  -2.7405  -2.7141
    -2.3878   0.5042   0.7307   2.4394   2.4917   3.0542   3.2426   3.5282
     4.6776   4.7397   5.1339

     occupation numbers 
     1.0000   1.0000   1.0000   1.0000   1.0000   1.0000   1.0000   1.0000
     1.0000   1.0000   1.0000   1.0000   1.0000   1.0000   1.0000   1.0000
     1.0000   1.0000   1.0000   1.0000   1.0000   0.0000   0.0000   0.0000
     0.0000   0.0000   0.0000   0.0000   0.0000   0.0000   0.0000   0.0000
     0.0000   0.0000   0.0000

          k = 0.0000 0.2887 0.0000 ( 11885 PWs)   bands (ev):

   -83.6091 -53.1962 -52.8332 -52.6306 -25.9782 -25.8985 -23.5235 -22.3318
   -15.0328 -13.8368 -13.4730 -12.2913 -11.5649 -11.2207 -11.2110  -9.9332
    -9.6383  -9.3534  -9.2549  -8.4990  -6.9026  -3.5595  -3.2462  -2.4600
    -1.8625   0.1115   0.3010   2.4285   2.5718   3.4916   3.9965   5.0899
     5.9021   6.1092   6.2879

     occupation numbers 
     1.0000   1.0000   1.0000   1.0000   1.0000   1.0000   1.0000   1.0000
     1.0000   1.0000   1.0000   1.0000   1.0000   1.0000   1.0000   1.0000
     1.0000   1.0000   1.0000   1.0000   1.0000   0.0000   0.0000   0.0000
     0.0000   0.0000   0.0000   0.0000   0.0000   0.0000   0.0000   0.0000
     0.0000   0.0000   0.0000

          k = 0.0000 0.4330 0.0000 ( 11860 PWs)   bands (ev):

   -83.6038 -53.2498 -52.8421 -52.7459 -24.9041 -24.8504 -22.9908 -22.1110
   -16.2449 -15.9316 -13.8299 -12.6005 -12.0658 -11.7473 -11.7153 -10.4095
    -9.8224  -9.4658  -8.6994  -8.6884  -7.1319  -4.0134  -3.6251  -2.2419
    -1.4762  -1.2819  -0.7757   2.4297   2.9896   4.0198   4.2989   5.7888
     6.4123   6.6150   7.1622

     occupation numbers 
     1.0000   1.0000   1.0000   1.0000   1.0000   1.0000   1.0000   1.0000
     1.0000   1.0000   1.0000   1.0000   1.0000   1.0000   1.0000   1.0000
     1.0000   1.0000   1.0000   1.0000   1.0000   0.0000   0.0000   0.0000
     0.0000   0.0000   0.0000   0.0000   0.0000   0.0000   0.0000   0.0000
     0.0000   0.0000   0.0000

          k = 0.0000-0.5774 0.0000 ( 11846 PWs)   bands (ev):

   -83.5997 -53.1997 -52.8624 -52.8554 -24.2398 -24.2131 -22.8611 -22.1257
   -17.1597 -16.8848 -13.5592 -13.0601 -12.1762 -11.9708 -11.9322 -10.6057
   -10.0236  -9.2228  -8.7541  -8.4432  -7.3112  -4.0107  -3.6810  -2.3876
    -1.8990  -1.3444  -1.0608   2.1456   2.7601   4.4231   5.1187   5.8258
     6.1779   6.5203   7.2569

     occupation numbers 
     1.0000   1.0000   1.0000   1.0000   1.0000   1.0000   1.0000   1.0000
     1.0000   1.0000   1.0000   1.0000   1.0000   1.0000   1.0000   1.0000
     1.0000   1.0000   1.0000   1.0000   1.0000   0.0000   0.0000   0.0000
     0.0000   0.0000   0.0000   0.0000   0.0000   0.0000   0.0000   0.0000
     0.0000   0.0000   0.0000

          k = 0.1250 0.2165 0.0000 ( 11867 PWs)   bands (ev):

   -83.6000 -53.1246 -52.8483 -52.5886 -26.2304 -26.1449 -23.6925 -22.4180
   -15.0457 -13.0818 -12.8533 -12.2956 -11.6088 -11.3088 -10.9261  -9.9738
    -9.6596  -9.5529  -9.0094  -8.3568  -6.7805  -3.3971  -3.0845  -2.7038
    -1.9046   1.0475   1.2332   2.0133   2.0273   3.4885   3.6387   4.0485
     5.0946   5.7027   6.4690

     occupation numbers 
     1.0000   1.0000   1.0000   1.0000   1.0000   1.0000   1.0000   1.0000
     1.0000   1.0000   1.0000   1.0000   1.0000   1.0000   1.0000   1.0000
     1.0000   1.0000   1.0000   1.0000   1.0000   0.0000   0.0000   0.0000
     0.0000   0.0000   0.0000   0.0000   0.0000   0.0000   0.0000   0.0000
     0.0000   0.0000   0.0000

          k = 0.1250 0.3608 0.0000 ( 11871 PWs)   bands (ev):

   -83.6026 -53.2158 -52.9539 -52.6006 -25.2710 -25.2050 -23.1383 -22.1573
   -15.4510 -14.9648 -13.7879 -12.5718 -12.2951 -11.9825 -11.6111 -10.5851
    -9.6708  -9.3285  -9.0844  -8.6310  -7.1491  -3.7611  -3.4935  -2.3499
    -1.5960   0.1374   0.3700   2.6670   2.7394   3.7949   4.1853   5.1195
     5.7511   6.1935   6.6254

     occupation numbers 
     1.0000   1.0000   1.0000   1.0000   1.0000   1.0000   1.0000   1.0000
     1.0000   1.0000   1.0000   1.0000   1.0000   1.0000   1.0000   1.0000
     1.0000   1.0000   1.0000   1.0000   1.0000   0.0000   0.0000   0.0000
     0.0000   0.0000   0.0000   0.0000   0.0000   0.0000   0.0000   0.0000
     0.0000   0.0000   0.0000

          k = 0.1250 0.5052 0.0000 ( 11841 PWs)   bands (ev):

   -83.6064 -53.1968 -52.9793 -52.7611 -24.2819 -24.2462 -22.8262 -22.0747
   -16.7278 -16.4400 -13.6155 -13.1086 -12.7150 -12.3305 -12.0355 -10.8020
    -9.9129  -9.2704  -9.0755  -8.5489  -7.2530  -4.1067  -3.4697  -2.0869
    -1.7523  -0.7231  -0.3382   2.7308   3.2511   3.9501   4.3510   5.3755
     6.2338   6.3134   7.0529

     occupation numbers 
     1.0000   1.0000   1.0000   1.0000   1.0000   1.0000   1.0000   1.0000
     1.0000   1.0000   1.0000   1.0000   1.0000   1.0000   1.0000   1.0000
     1.0000   1.0000   1.0000   1.0000   1.0000   0.0000   0.0000   0.0000
     0.0000   0.0000   0.0000   0.0000   0.0000   0.0000   0.0000   0.0000
     0.0000   0.0000   0.0000

          k = 0.2500 0.4330 0.0000 ( 11844 PWs)   bands (ev):

   -83.6137 -53.1803 -53.1210 -52.6572 -24.3245 -24.2814 -22.7975 -22.0299
   -16.1279 -15.7819 -14.0054 -13.7999 -13.2886 -11.9823 -11.8360 -11.1878
   -10.0790  -9.5778  -9.0424  -8.5243  -7.3327  -4.0041  -3.4138  -2.1496
    -1.6658   0.5053   0.7404   2.6205   3.0285   4.4548   4.7121   5.0805
     5.4754   6.1224   6.8619

     occupation numbers 
     1.0000   1.0000   1.0000   1.0000   1.0000   1.0000   1.0000   1.0000
     1.0000   1.0000   1.0000   1.0000   1.0000   1.0000   1.0000   1.0000
     1.0000   1.0000   1.0000   1.0000   1.0000   0.0000   0.0000   0.0000
     0.0000   0.0000   0.0000   0.0000   0.0000   0.0000   0.0000   0.0000
     0.0000   0.0000   0.0000

          k = 0.2500 0.5774 0.0000 ( 11800 PWs)   bands (ev):

   -83.6030 -53.2076 -53.1348 -52.6269 -23.7835 -23.7559 -22.7484 -22.0513
   -16.3800 -16.0483 -14.6479 -14.5199 -12.8143 -12.3612 -12.1085 -10.8398
   -10.5804  -9.9952  -8.9873  -8.3418  -6.9631  -4.4056  -3.2514  -2.0455
    -1.7594   0.2874   0.6864   2.8439   3.2815   4.3314   4.7380   5.2490
     5.8546   6.3478   6.4451

     occupation numbers 
     1.0000   1.0000   1.0000   1.0000   1.0000   1.0000   1.0000   1.0000
     1.0000   1.0000   1.0000   1.0000   1.0000   1.0000   1.0000   1.0000
     1.0000   1.0000   1.0000   1.0000   1.0000   0.0000   0.0000   0.0000
     0.0000   0.0000   0.0000   0.0000   0.0000   0.0000   0.0000   0.0000
     0.0000   0.0000   0.0000

          k =-0.1250 0.0722 0.0000 ( 11905 PWs)   bands (ev):

   -83.5986 -52.9344 -52.7620 -52.7324 -26.7833 -26.6893 -24.0835 -22.6116
   -15.3915 -12.6005 -11.5949 -11.5321 -10.6933 -10.6653 -10.5395 -10.2729
    -9.7547  -8.8984  -8.7575  -8.3030  -6.5871  -2.9435  -2.7404  -2.7140
    -2.3879   0.5042   0.7307   2.4394   2.4917   3.0542   3.2426   3.5282
     4.6776   4.7397   5.1339

     occupation numbers 
     1.0000   1.0000   1.0000   1.0000   1.0000   1.0000   1.0000   1.0000
     1.0000   1.0000   1.0000   1.0000   1.0000   1.0000   1.0000   1.0000
     1.0000   1.0000   1.0000   1.0000   1.0000   0.0000   0.0000   0.0000
     0.0000   0.0000   0.0000   0.0000   0.0000   0.0000   0.0000   0.0000
     0.0000   0.0000   0.0000

          k = 0.1250 0.0722 0.0000 ( 11905 PWs)   bands (ev):

   -83.5986 -52.9344 -52.7620 -52.7324 -26.7833 -26.6893 -24.0835 -22.6116
   -15.3915 -12.6005 -11.5948 -11.5320 -10.6934 -10.6654 -10.5395 -10.2729
    -9.7547  -8.8982  -8.7577  -8.3030  -6.5870  -2.9434  -2.7405  -2.7141
    -2.3878   0.5042   0.7308   2.4394   2.4917   3.0542   3.2426   3.5282
     4.6776   4.7397   5.1339

     occupation numbers 
     1.0000   1.0000   1.0000   1.0000   1.0000   1.0000   1.0000   1.0000
     1.0000   1.0000   1.0000   1.0000   1.0000   1.0000   1.0000   1.0000
     1.0000   1.0000   1.0000   1.0000   1.0000   0.0000   0.0000   0.0000
     0.0000   0.0000   0.0000   0.0000   0.0000   0.0000   0.0000   0.0000
     0.0000   0.0000   0.0000

          k =-0.2500 0.1443 0.0000 ( 11885 PWs)   bands (ev):

   -83.6091 -53.1962 -52.8332 -52.6306 -25.9782 -25.8985 -23.5235 -22.3319
   -15.0328 -13.8368 -13.4731 -12.2914 -11.5649 -11.2207 -11.2110  -9.9332
    -9.6383  -9.3533  -9.2548  -8.4990  -6.9027  -3.5595  -3.2462  -2.4599
    -1.8626   0.1115   0.3010   2.4285   2.5718   3.4915   3.9964   5.0899
     5.9021   6.1092   6.2879

     occupation numbers 
     1.0000   1.0000   1.0000   1.0000   1.0000   1.0000   1.0000   1.0000
     1.0000   1.0000   1.0000   1.0000   1.0000   1.0000   1.0000   1.0000
     1.0000   1.0000   1.0000   1.0000   1.0000   0.0000   0.0000   0.0000
     0.0000   0.0000   0.0000   0.0000   0.0000   0.0000   0.0000   0.0000
     0.0000   0.0000   0.0000

          k = 0.2500 0.1443 0.0000 ( 11885 PWs)   bands (ev):

   -83.6091 -53.1962 -52.8332 -52.6306 -25.9782 -25.8985 -23.5235 -22.3318
   -15.0328 -13.8368 -13.4730 -12.2913 -11.5649 -11.2207 -11.2110  -9.9332
    -9.6383  -9.3534  -9.2549  -8.4990  -6.9027  -3.5595  -3.2462  -2.4600
    -1.8625   0.1115   0.3010   2.4285   2.5718   3.4916   3.9964   5.0899
     5.9021   6.1092   6.2878

     occupation numbers 
     1.0000   1.0000   1.0000   1.0000   1.0000   1.0000   1.0000   1.0000
     1.0000   1.0000   1.0000   1.0000   1.0000   1.0000   1.0000   1.0000
     1.0000   1.0000   1.0000   1.0000   1.0000   0.0000   0.0000   0.0000
     0.0000   0.0000   0.0000   0.0000   0.0000   0.0000   0.0000   0.0000
     0.0000   0.0000   0.0000

          k =-0.3750 0.2165 0.0000 ( 11860 PWs)   bands (ev):

   -83.6038 -53.2498 -52.8421 -52.7459 -24.9041 -24.8504 -22.9908 -22.1110
   -16.2450 -15.9316 -13.8299 -12.6005 -12.0658 -11.7472 -11.7152 -10.4095
    -9.8222  -9.4657  -8.6993  -8.6885  -7.1320  -4.0134  -3.6252  -2.2418
    -1.4762  -1.2819  -0.7757   2.4297   2.9895   4.0198   4.2989   5.7889
     6.4122   6.6150   7.1622

     occupation numbers 
     1.0000   1.0000   1.0000   1.0000   1.0000   1.0000   1.0000   1.0000
     1.0000   1.0000   1.0000   1.0000   1.0000   1.0000   1.0000   1.0000
     1.0000   1.0000   1.0000   1.0000   1.0000   0.0000   0.0000   0.0000
     0.0000   0.0000   0.0000   0.0000   0.0000   0.0000   0.0000   0.0000
     0.0000   0.0000   0.0000

          k = 0.3750 0.2165 0.0000 ( 11860 PWs)   bands (ev):

   -83.6038 -53.2498 -52.8421 -52.7459 -24.9041 -24.8504 -22.9908 -22.1110
   -16.2449 -15.9316 -13.8299 -12.6005 -12.0658 -11.7473 -11.7153 -10.4095
    -9.8224  -9.4657  -8.6994  -8.6884  -7.1319  -4.0134  -3.6251  -2.2419
    -1.4762  -1.2819  -0.7757   2.4296   2.9895   4.0198   4.2989   5.7888
     6.4123   6.6150   7.1620

     occupation numbers 
     1.0000   1.0000   1.0000   1.0000   1.0000   1.0000   1.0000   1.0000
     1.0000   1.0000   1.0000   1.0000   1.0000   1.0000   1.0000   1.0000
     1.0000   1.0000   1.0000   1.0000   1.0000   0.0000   0.0000   0.0000
     0.0000   0.0000   0.0000   0.0000   0.0000   0.0000   0.0000   0.0000
     0.0000   0.0000   0.0000

          k = 0.5000-0.2887 0.0000 ( 11846 PWs)   bands (ev):

   -83.5997 -53.1997 -52.8624 -52.8554 -24.2398 -24.2131 -22.8611 -22.1257
   -17.1597 -16.8848 -13.5592 -13.0600 -12.1762 -11.9707 -11.9321 -10.6057
   -10.0234  -9.2227  -8.7542  -8.4431  -7.3113  -4.0108  -3.6810  -2.3876
    -1.8990  -1.3444  -1.0608   2.1456   2.7600   4.4231   5.1187   5.8258
     6.1779   6.5203   7.2570

     occupation numbers 
     1.0000   1.0000   1.0000   1.0000   1.0000   1.0000   1.0000   1.0000
     1.0000   1.0000   1.0000   1.0000   1.0000   1.0000   1.0000   1.0000
     1.0000   1.0000   1.0000   1.0000   1.0000   0.0000   0.0000   0.0000
     0.0000   0.0000   0.0000   0.0000   0.0000   0.0000   0.0000   0.0000
     0.0000   0.0000   0.0000

          k =-0.5000-0.2887 0.0000 ( 11846 PWs)   bands (ev):

   -83.5997 -53.1997 -52.8624 -52.8554 -24.2398 -24.2131 -22.8611 -22.1256
   -17.1597 -16.8848 -13.5592 -13.0601 -12.1762 -11.9708 -11.9322 -10.6057
   -10.0236  -9.2228  -8.7542  -8.4432  -7.3113  -4.0107  -3.6810  -2.3876
    -1.8990  -1.3444  -1.0608   2.1456   2.7600   4.4231   5.1187   5.8258
     6.1779   6.5203   7.2569

     occupation numbers 
     1.0000   1.0000   1.0000   1.0000   1.0000   1.0000   1.0000   1.0000
     1.0000   1.0000   1.0000   1.0000   1.0000   1.0000   1.0000   1.0000
     1.0000   1.0000   1.0000   1.0000   1.0000   0.0000   0.0000   0.0000
     0.0000   0.0000   0.0000   0.0000   0.0000   0.0000   0.0000   0.0000
     0.0000   0.0000   0.0000

          k =-0.1250 0.2165 0.0000 ( 11867 PWs)   bands (ev):

   -83.6000 -53.1246 -52.8483 -52.5886 -26.2304 -26.1449 -23.6925 -22.4180
   -15.0457 -13.0818 -12.8533 -12.2956 -11.6088 -11.3087 -10.9261  -9.9738
    -9.6596  -9.5528  -9.0095  -8.3568  -6.7805  -3.3970  -3.0845  -2.7037
    -1.9046   1.0475   1.2331   2.0133   2.0273   3.4885   3.6387   4.0485
     5.0946   5.7027   6.4690

     occupation numbers 
     1.0000   1.0000   1.0000   1.0000   1.0000   1.0000   1.0000   1.0000
     1.0000   1.0000   1.0000   1.0000   1.0000   1.0000   1.0000   1.0000
     1.0000   1.0000   1.0000   1.0000   1.0000   0.0000   0.0000   0.0000
     0.0000   0.0000   0.0000   0.0000   0.0000   0.0000   0.0000   0.0000
     0.0000   0.0000   0.0000

          k = 0.2500-0.0000 0.0000 ( 11867 PWs)   bands (ev):

   -83.6000 -53.1246 -52.8483 -52.5886 -26.2304 -26.1449 -23.6925 -22.4180
   -15.0457 -13.0818 -12.8533 -12.2956 -11.6088 -11.3087 -10.9261  -9.9738
    -9.6596  -9.5527  -9.0095  -8.3568  -6.7805  -3.3970  -3.0845  -2.7037
    -1.9046   1.0475   1.2332   2.0133   2.0273   3.4885   3.6387   4.0485
     5.0945   5.7027   6.4691

     occupation numbers 
     1.0000   1.0000   1.0000   1.0000   1.0000   1.0000   1.0000   1.0000
     1.0000   1.0000   1.0000   1.0000   1.0000   1.0000   1.0000   1.0000
     1.0000   1.0000   1.0000   1.0000   1.0000   0.0000   0.0000   0.0000
     0.0000   0.0000   0.0000   0.0000   0.0000   0.0000   0.0000   0.0000
     0.0000   0.0000   0.0000

          k =-0.1250 0.3608 0.0000 ( 11871 PWs)   bands (ev):

   -83.6026 -53.2158 -52.9539 -52.6006 -25.2710 -25.2050 -23.1383 -22.1573
   -15.4510 -14.9648 -13.7879 -12.5718 -12.2951 -11.9825 -11.6111 -10.5850
    -9.6709  -9.3285  -9.0844  -8.6310  -7.1491  -3.7611  -3.4935  -2.3500
    -1.5960   0.1374   0.3700   2.6670   2.7394   3.7949   4.1853   5.1196
     5.7511   6.1935   6.6254

     occupation numbers 
     1.0000   1.0000   1.0000   1.0000   1.0000   1.0000   1.0000   1.0000
     1.0000   1.0000   1.0000   1.0000   1.0000   1.0000   1.0000   1.0000
     1.0000   1.0000   1.0000   1.0000   1.0000   0.0000   0.0000   0.0000
     0.0000   0.0000   0.0000   0.0000   0.0000   0.0000   0.0000   0.0000
     0.0000   0.0000   0.0000

          k =-0.2500 0.2887 0.0000 ( 11871 PWs)   bands (ev):

   -83.6026 -53.2158 -52.9539 -52.6006 -25.2710 -25.2050 -23.1383 -22.1573
   -15.4510 -14.9649 -13.7879 -12.5718 -12.2950 -11.9825 -11.6111 -10.5850
    -9.6708  -9.3284  -9.0843  -8.6311  -7.1491  -3.7611  -3.4935  -2.3499
    -1.5960   0.1374   0.3700   2.6670   2.7394   3.7948   4.1853   5.1196
     5.7511   6.1935   6.6253

     occupation numbers 
     1.0000   1.0000   1.0000   1.0000   1.0000   1.0000   1.0000   1.0000
     1.0000   1.0000   1.0000   1.0000   1.0000   1.0000   1.0000   1.0000
     1.0000   1.0000   1.0000   1.0000   1.0000   0.0000   0.0000   0.0000
     0.0000   0.0000   0.0000   0.0000   0.0000   0.0000   0.0000   0.0000
     0.0000   0.0000   0.0000

          k = 0.3750 0.0722 0.0000 ( 11871 PWs)   bands (ev):

   -83.6026 -53.2158 -52.9539 -52.6006 -25.2710 -25.2050 -23.1383 -22.1573
   -15.4510 -14.9648 -13.7879 -12.5718 -12.2951 -11.9825 -11.6111 -10.5850
    -9.6709  -9.3285  -9.0844  -8.6310  -7.1491  -3.7611  -3.4935  -2.3500
    -1.5960   0.1374   0.3700   2.6670   2.7394   3.7949   4.1853   5.1196
     5.7511   6.1936   6.6254

     occupation numbers 
     1.0000   1.0000   1.0000   1.0000   1.0000   1.0000   1.0000   1.0000
     1.0000   1.0000   1.0000   1.0000   1.0000   1.0000   1.0000   1.0000
     1.0000   1.0000   1.0000   1.0000   1.0000   0.0000   0.0000   0.0000
     0.0000   0.0000   0.0000   0.0000   0.0000   0.0000   0.0000   0.0000
     0.0000   0.0000   0.0000

          k =-0.2500-0.2887 0.0000 ( 11871 PWs)   bands (ev):

   -83.6026 -53.2158 -52.9539 -52.6006 -25.2710 -25.2050 -23.1383 -22.1573
   -15.4510 -14.9648 -13.7879 -12.5718 -12.2951 -11.9825 -11.6111 -10.5851
    -9.6708  -9.3285  -9.0844  -8.6311  -7.1491  -3.7611  -3.4935  -2.3499
    -1.5960   0.1374   0.3700   2.6670   2.7394   3.7948   4.1852   5.1196
     5.7511   6.1935   6.6254

     occupation numbers 
     1.0000   1.0000   1.0000   1.0000   1.0000   1.0000   1.0000   1.0000
     1.0000   1.0000   1.0000   1.0000   1.0000   1.0000   1.0000   1.0000
     1.0000   1.0000   1.0000   1.0000   1.0000   0.0000   0.0000   0.0000
     0.0000   0.0000   0.0000   0.0000   0.0000   0.0000   0.0000   0.0000
     0.0000   0.0000   0.0000

          k = 0.3750-0.0722 0.0000 ( 11871 PWs)   bands (ev):

   -83.6026 -53.2158 -52.9539 -52.6006 -25.2710 -25.2050 -23.1383 -22.1573
   -15.4510 -14.9649 -13.7879 -12.5718 -12.2950 -11.9825 -11.6111 -10.5850
    -9.6708  -9.3284  -9.0843  -8.6311  -7.1491  -3.7611  -3.4935  -2.3499
    -1.5960   0.1374   0.3700   2.6670   2.7394   3.7948   4.1853   5.1196
     5.7511   6.1936   6.6254

     occupation numbers 
     1.0000   1.0000   1.0000   1.0000   1.0000   1.0000   1.0000   1.0000
     1.0000   1.0000   1.0000   1.0000   1.0000   1.0000   1.0000   1.0000
     1.0000   1.0000   1.0000   1.0000   1.0000   0.0000   0.0000   0.0000
     0.0000   0.0000   0.0000   0.0000   0.0000   0.0000   0.0000   0.0000
     0.0000   0.0000   0.0000

          k =-0.1250 0.5052 0.0000 ( 11841 PWs)   bands (ev):

   -83.6064 -53.1968 -52.9793 -52.7611 -24.2819 -24.2462 -22.8262 -22.0747
   -16.7278 -16.4400 -13.6155 -13.1086 -12.7150 -12.3305 -12.0355 -10.8020
    -9.9128  -9.2704  -9.0755  -8.5489  -7.2530  -4.1067  -3.4697  -2.0869
    -1.7522  -0.7230  -0.3382   2.7308   3.2511   3.9501   4.3510   5.3755
     6.2339   6.3133   7.0529

     occupation numbers 
     1.0000   1.0000   1.0000   1.0000   1.0000   1.0000   1.0000   1.0000
     1.0000   1.0000   1.0000   1.0000   1.0000   1.0000   1.0000   1.0000
     1.0000   1.0000   1.0000   1.0000   1.0000   0.0000   0.0000   0.0000
     0.0000   0.0000   0.0000   0.0000   0.0000   0.0000   0.0000   0.0000
     0.0000   0.0000   0.0000

          k =-0.3750 0.3608 0.0000 ( 11841 PWs)   bands (ev):

   -83.6064 -53.1968 -52.9793 -52.7611 -24.2819 -24.2462 -22.8262 -22.0748
   -16.7279 -16.4401 -13.6155 -13.1086 -12.7149 -12.3304 -12.0355 -10.8020
    -9.9128  -9.2703  -9.0754  -8.5489  -7.2530  -4.1067  -3.4698  -2.0869
    -1.7522  -0.7231  -0.3382   2.7309   3.2511   3.9501   4.3510   5.3755
     6.2338   6.3133   7.0530

     occupation numbers 
     1.0000   1.0000   1.0000   1.0000   1.0000   1.0000   1.0000   1.0000
     1.0000   1.0000   1.0000   1.0000   1.0000   1.0000   1.0000   1.0000
     1.0000   1.0000   1.0000   1.0000   1.0000   0.0000   0.0000   0.0000
     0.0000   0.0000   0.0000   0.0000   0.0000   0.0000   0.0000   0.0000
     0.0000   0.0000   0.0000

          k = 0.5000 0.1443 0.0000 ( 11841 PWs)   bands (ev):

   -83.6064 -53.1968 -52.9793 -52.7611 -24.2819 -24.2462 -22.8262 -22.0747
   -16.7278 -16.4401 -13.6155 -13.1086 -12.7150 -12.3305 -12.0355 -10.8021
    -9.9128  -9.2704  -9.0754  -8.5489  -7.2530  -4.1067  -3.4697  -2.0870
    -1.7522  -0.7231  -0.3382   2.7308   3.2510   3.9501   4.3510   5.3756
     6.2338   6.3134   7.0529

     occupation numbers 
     1.0000   1.0000   1.0000   1.0000   1.0000   1.0000   1.0000   1.0000
     1.0000   1.0000   1.0000   1.0000   1.0000   1.0000   1.0000   1.0000
     1.0000   1.0000   1.0000   1.0000   1.0000   0.0000   0.0000   0.0000
     0.0000   0.0000   0.0000   0.0000   0.0000   0.0000   0.0000   0.0000
     0.0000   0.0000   0.0000

          k =-0.3750-0.3608 0.0000 ( 11841 PWs)   bands (ev):

   -83.6064 -53.1968 -52.9793 -52.7611 -24.2819 -24.2462 -22.8262 -22.0747
   -16.7278 -16.4400 -13.6155 -13.1086 -12.7150 -12.3305 -12.0355 -10.8020
    -9.9129  -9.2704  -9.0755  -8.5489  -7.2530  -4.1067  -3.4697  -2.0869
    -1.7523  -0.7231  -0.3382   2.7308   3.2511   3.9501   4.3510   5.3755
     6.2338   6.3134   7.0530

     occupation numbers 
     1.0000   1.0000   1.0000   1.0000   1.0000   1.0000   1.0000   1.0000
     1.0000   1.0000   1.0000   1.0000   1.0000   1.0000   1.0000   1.0000
     1.0000   1.0000   1.0000   1.0000   1.0000   0.0000   0.0000   0.0000
     0.0000   0.0000   0.0000   0.0000   0.0000   0.0000   0.0000   0.0000
     0.0000   0.0000   0.0000

          k = 0.5000-0.1443 0.0000 ( 11841 PWs)   bands (ev):

   -83.6064 -53.1968 -52.9793 -52.7612 -24.2819 -24.2462 -22.8262 -22.0748
   -16.7279 -16.4401 -13.6155 -13.1086 -12.7149 -12.3304 -12.0355 -10.8020
    -9.9128  -9.2704  -9.0754  -8.5489  -7.2530  -4.1067  -3.4698  -2.0869
    -1.7522  -0.7231  -0.3382   2.7309   3.2511   3.9501   4.3510   5.3756
     6.2338   6.3134   7.0529

     occupation numbers 
     1.0000   1.0000   1.0000   1.0000   1.0000   1.0000   1.0000   1.0000
     1.0000   1.0000   1.0000   1.0000   1.0000   1.0000   1.0000   1.0000
     1.0000   1.0000   1.0000   1.0000   1.0000   0.0000   0.0000   0.0000
     0.0000   0.0000   0.0000   0.0000   0.0000   0.0000   0.0000   0.0000
     0.0000   0.0000   0.0000

          k =-0.2500 0.4330 0.0000 ( 11844 PWs)   bands (ev):

   -83.6137 -53.1803 -53.1210 -52.6573 -24.3245 -24.2814 -22.7975 -22.0299
   -16.1280 -15.7820 -14.0054 -13.7998 -13.2886 -11.9823 -11.8359 -11.1878
   -10.0789  -9.5778  -9.0424  -8.5243  -7.3327  -4.0042  -3.4138  -2.1497
    -1.6657   0.5054   0.7404   2.6205   3.0285   4.4548   4.7121   5.0806
     5.4753   6.1225   6.8619

     occupation numbers 
     1.0000   1.0000   1.0000   1.0000   1.0000   1.0000   1.0000   1.0000
     1.0000   1.0000   1.0000   1.0000   1.0000   1.0000   1.0000   1.0000
     1.0000   1.0000   1.0000   1.0000   1.0000   0.0000   0.0000   0.0000
     0.0000   0.0000   0.0000   0.0000   0.0000   0.0000   0.0000   0.0000
     0.0000   0.0000   0.0000

          k = 0.5000-0.0000 0.0000 ( 11844 PWs)   bands (ev):

   -83.6137 -53.1803 -53.1210 -52.6573 -24.3245 -24.2814 -22.7975 -22.0299
   -16.1280 -15.7820 -14.0054 -13.7998 -13.2886 -11.9823 -11.8359 -11.1878
   -10.0790  -9.5778  -9.0424  -8.5243  -7.3328  -4.0042  -3.4138  -2.1497
    -1.6656   0.5054   0.7404   2.6205   3.0285   4.4548   4.7120   5.0806
     5.4753   6.1225   6.8618

     occupation numbers 
     1.0000   1.0000   1.0000   1.0000   1.0000   1.0000   1.0000   1.0000
     1.0000   1.0000   1.0000   1.0000   1.0000   1.0000   1.0000   1.0000
     1.0000   1.0000   1.0000   1.0000   1.0000   0.0000   0.0000   0.0000
     0.0000   0.0000   0.0000   0.0000   0.0000   0.0000   0.0000   0.0000
     0.0000   0.0000   0.0000

          k =-0.3750 0.5052 0.0000 ( 11800 PWs)   bands (ev):

   -83.6030 -53.2076 -53.1348 -52.6269 -23.7835 -23.7559 -22.7484 -22.0513
   -16.3800 -16.0483 -14.6478 -14.5199 -12.8142 -12.3612 -12.1084 -10.8398
   -10.5804  -9.9952  -8.9873  -8.3418  -6.9632  -4.4056  -3.2514  -2.0456
    -1.7593   0.2875   0.6863   2.8439   3.2815   4.3314   4.7380   5.2490
     5.8545   6.3478   6.4452

     occupation numbers 
     1.0000   1.0000   1.0000   1.0000   1.0000   1.0000   1.0000   1.0000
     1.0000   1.0000   1.0000   1.0000   1.0000   1.0000   1.0000   1.0000
     1.0000   1.0000   1.0000   1.0000   1.0000   0.0000   0.0000   0.0000
     0.0000   0.0000   0.0000   0.0000   0.0000   0.0000   0.0000   0.0000
     0.0000   0.0000   0.0000

          k = 0.6250 0.0722 0.0000 ( 11800 PWs)   bands (ev):

   -83.6030 -53.2076 -53.1348 -52.6269 -23.7835 -23.7559 -22.7484 -22.0513
   -16.3800 -16.0483 -14.6479 -14.5199 -12.8143 -12.3612 -12.1084 -10.8398
   -10.5805  -9.9952  -8.9873  -8.3418  -6.9631  -4.4056  -3.2514  -2.0455
    -1.7594   0.2874   0.6864   2.8439   3.2815   4.3314   4.7380   5.2490
     5.8546   6.3479   6.4452

     occupation numbers 
     1.0000   1.0000   1.0000   1.0000   1.0000   1.0000   1.0000   1.0000
     1.0000   1.0000   1.0000   1.0000   1.0000   1.0000   1.0000   1.0000
     1.0000   1.0000   1.0000   1.0000   1.0000   0.0000   0.0000   0.0000
     0.0000   0.0000   0.0000   0.0000   0.0000   0.0000   0.0000   0.0000
     0.0000   0.0000   0.0000

     highest occupied, lowest unoccupied level (ev):    -6.5712   -4.4056

!    total energy              =    -263.21054278 Ry
     estimated scf accuracy    <          7.3E-14 Ry

     convergence has been achieved in   4 iterations

     Using ACE for calculation of exact exchange
     ACE projected onto    35 (nbndproj) and applied to    35 (nbnd) bands

     total energy              =    -263.21054278 Ry
     Harris-Foulkes estimate   =    -263.21054278 Ry
     est. exchange err (dexx)  =          1.0E-10 Ry
     - averaged Fock potential =      17.84088204 Ry
     + Fock energy (ACE)       =      -8.92044110 Ry

     EXX: now go back to refine exchange calculation

     total cpu time spent up to now is     9322.0 secs

     Self-consistent Calculation

     iteration #  1     ecut=    80.00 Ry     beta= 0.50
     Davidson diagonalization with overlap

---- Real-time Memory Report at c_bands before calling an iterative solver
          2135 MiB given to the printing process from OS
             0 MiB allocation reported by mallinfo(arena+hblkhd)
         12863 MiB available memory on the node where the printing process lives
------------------
     ethr =  3.17E-13,  avg # of iterations =  2.2

     Threshold (ethr) on eigenvalues was too large:
     Diagonalizing with lowered threshold

     Davidson diagonalization with overlap

---- Real-time Memory Report at c_bands before calling an iterative solver
          2135 MiB given to the printing process from OS
             0 MiB allocation reported by mallinfo(arena+hblkhd)
         12854 MiB available memory on the node where the printing process lives
------------------
     ethr =  8.86E-15,  avg # of iterations =  2.0

     total cpu time spent up to now is     9337.1 secs

     End of self-consistent calculation

          k = 0.0000 0.0000 0.0000 ( 11937 PWs)   bands (ev):

   -83.5878 -52.8393 -52.7331 -52.7331 -27.0867 -26.9889 -24.3179 -22.7306
   -15.6434 -12.7266 -10.6451 -10.4743 -10.4743 -10.4277 -10.4276  -9.9056
    -9.9055  -8.4931  -8.4927  -8.4910  -6.5712  -2.6779  -2.6777  -2.4419
    -2.4418  -0.2224   0.1109   2.3491   2.3826   2.5027   4.0139   4.0140
     4.0684   4.0684   4.2611

     occupation numbers 
     1.0000   1.0000   1.0000   1.0000   1.0000   1.0000   1.0000   1.0000
     1.0000   1.0000   1.0000   1.0000   1.0000   1.0000   1.0000   1.0000
     1.0000   1.0000   1.0000   1.0000   1.0000   0.0000   0.0000   0.0000
     0.0000   0.0000   0.0000   0.0000   0.0000   0.0000   0.0000   0.0000
     0.0000   0.0000   0.0000

          k = 0.0000 0.1443 0.0000 ( 11905 PWs)   bands (ev):

   -83.5986 -52.9344 -52.7620 -52.7324 -26.7833 -26.6893 -24.0835 -22.6116
   -15.3915 -12.6005 -11.5948 -11.5320 -10.6934 -10.6654 -10.5394 -10.2729
    -9.7547  -8.8982  -8.7577  -8.3030  -6.5871  -2.9434  -2.7405  -2.7141
    -2.3878   0.5042   0.7307   2.4394   2.4917   3.0542   3.2426   3.5282
     4.6776   4.7397   5.1339

     occupation numbers 
     1.0000   1.0000   1.0000   1.0000   1.0000   1.0000   1.0000   1.0000
     1.0000   1.0000   1.0000   1.0000   1.0000   1.0000   1.0000   1.0000
     1.0000   1.0000   1.0000   1.0000   1.0000   0.0000   0.0000   0.0000
     0.0000   0.0000   0.0000   0.0000   0.0000   0.0000   0.0000   0.0000
     0.0000   0.0000   0.0000

          k = 0.0000 0.2887 0.0000 ( 11885 PWs)   bands (ev):

   -83.6091 -53.1962 -52.8332 -52.6305 -25.9782 -25.8985 -23.5235 -22.3318
   -15.0328 -13.8368 -13.4730 -12.2913 -11.5649 -11.2207 -11.2110  -9.9332
    -9.6383  -9.3534  -9.2549  -8.4990  -6.9026  -3.5595  -3.2462  -2.4600
    -1.8625   0.1115   0.3010   2.4285   2.5718   3.4916   3.9965   5.0899
     5.9021   6.1092   6.2879

     occupation numbers 
     1.0000   1.0000   1.0000   1.0000   1.0000   1.0000   1.0000   1.0000
     1.0000   1.0000   1.0000   1.0000   1.0000   1.0000   1.0000   1.0000
     1.0000   1.0000   1.0000   1.0000   1.0000   0.0000   0.0000   0.0000
     0.0000   0.0000   0.0000   0.0000   0.0000   0.0000   0.0000   0.0000
     0.0000   0.0000   0.0000

          k = 0.0000 0.4330 0.0000 ( 11860 PWs)   bands (ev):

   -83.6038 -53.2498 -52.8421 -52.7459 -24.9041 -24.8504 -22.9908 -22.1110
   -16.2449 -15.9316 -13.8299 -12.6005 -12.0658 -11.7473 -11.7153 -10.4095
    -9.8224  -9.4658  -8.6994  -8.6884  -7.1319  -4.0134  -3.6251  -2.2419
    -1.4762  -1.2819  -0.7757   2.4296   2.9896   4.0198   4.2989   5.7888
     6.4123   6.6150   7.1621

     occupation numbers 
     1.0000   1.0000   1.0000   1.0000   1.0000   1.0000   1.0000   1.0000
     1.0000   1.0000   1.0000   1.0000   1.0000   1.0000   1.0000   1.0000
     1.0000   1.0000   1.0000   1.0000   1.0000   0.0000   0.0000   0.0000
     0.0000   0.0000   0.0000   0.0000   0.0000   0.0000   0.0000   0.0000
     0.0000   0.0000   0.0000

          k = 0.0000-0.5774 0.0000 ( 11846 PWs)   bands (ev):

   -83.5997 -53.1997 -52.8624 -52.8554 -24.2398 -24.2131 -22.8612 -22.1257
   -17.1597 -16.8848 -13.5592 -13.0601 -12.1762 -11.9708 -11.9322 -10.6057
   -10.0236  -9.2228  -8.7542  -8.4432  -7.3112  -4.0107  -3.6810  -2.3876
    -1.8990  -1.3444  -1.0608   2.1456   2.7601   4.4231   5.1187   5.8258
     6.1779   6.5203   7.2569

     occupation numbers 
     1.0000   1.0000   1.0000   1.0000   1.0000   1.0000   1.0000   1.0000
     1.0000   1.0000   1.0000   1.0000   1.0000   1.0000   1.0000   1.0000
     1.0000   1.0000   1.0000   1.0000   1.0000   0.0000   0.0000   0.0000
     0.0000   0.0000   0.0000   0.0000   0.0000   0.0000   0.0000   0.0000
     0.0000   0.0000   0.0000

          k = 0.1250 0.2165 0.0000 ( 11867 PWs)   bands (ev):

   -83.6000 -53.1246 -52.8483 -52.5886 -26.2304 -26.1449 -23.6925 -22.4180
   -15.0458 -13.0818 -12.8533 -12.2956 -11.6088 -11.3088 -10.9261  -9.9738
    -9.6597  -9.5529  -9.0094  -8.3568  -6.7805  -3.3971  -3.0845  -2.7038
    -1.9046   1.0475   1.2332   2.0133   2.0273   3.4885   3.6387   4.0485
     5.0946   5.7027   6.4690

     occupation numbers 
     1.0000   1.0000   1.0000   1.0000   1.0000   1.0000   1.0000   1.0000
     1.0000   1.0000   1.0000   1.0000   1.0000   1.0000   1.0000   1.0000
     1.0000   1.0000   1.0000   1.0000   1.0000   0.0000   0.0000   0.0000
     0.0000   0.0000   0.0000   0.0000   0.0000   0.0000   0.0000   0.0000
     0.0000   0.0000   0.0000

          k = 0.1250 0.3608 0.0000 ( 11871 PWs)   bands (ev):

   -83.6026 -53.2158 -52.9539 -52.6006 -25.2710 -25.2050 -23.1383 -22.1573
   -15.4510 -14.9648 -13.7879 -12.5718 -12.2951 -11.9825 -11.6111 -10.5851
    -9.6709  -9.3285  -9.0844  -8.6311  -7.1491  -3.7611  -3.4935  -2.3499
    -1.5960   0.1374   0.3700   2.6670   2.7394   3.7949   4.1853   5.1195
     5.7511   6.1935   6.6254

     occupation numbers 
     1.0000   1.0000   1.0000   1.0000   1.0000   1.0000   1.0000   1.0000
     1.0000   1.0000   1.0000   1.0000   1.0000   1.0000   1.0000   1.0000
     1.0000   1.0000   1.0000   1.0000   1.0000   0.0000   0.0000   0.0000
     0.0000   0.0000   0.0000   0.0000   0.0000   0.0000   0.0000   0.0000
     0.0000   0.0000   0.0000

          k = 0.1250 0.5052 0.0000 ( 11841 PWs)   bands (ev):

   -83.6064 -53.1968 -52.9793 -52.7612 -24.2819 -24.2462 -22.8262 -22.0747
   -16.7278 -16.4400 -13.6155 -13.1086 -12.7150 -12.3305 -12.0355 -10.8020
    -9.9129  -9.2704  -9.0755  -8.5489  -7.2530  -4.1067  -3.4697  -2.0869
    -1.7523  -0.7231  -0.3382   2.7308   3.2511   3.9501   4.3510   5.3755
     6.2338   6.3134   7.0529

     occupation numbers 
     1.0000   1.0000   1.0000   1.0000   1.0000   1.0000   1.0000   1.0000
     1.0000   1.0000   1.0000   1.0000   1.0000   1.0000   1.0000   1.0000
     1.0000   1.0000   1.0000   1.0000   1.0000   0.0000   0.0000   0.0000
     0.0000   0.0000   0.0000   0.0000   0.0000   0.0000   0.0000   0.0000
     0.0000   0.0000   0.0000

          k = 0.2500 0.4330 0.0000 ( 11844 PWs)   bands (ev):

   -83.6137 -53.1803 -53.1210 -52.6572 -24.3245 -24.2814 -22.7975 -22.0299
   -16.1279 -15.7819 -14.0054 -13.7999 -13.2886 -11.9823 -11.8360 -11.1878
   -10.0790  -9.5778  -9.0424  -8.5243  -7.3327  -4.0041  -3.4138  -2.1496
    -1.6658   0.5053   0.7404   2.6205   3.0285   4.4548   4.7121   5.0805
     5.4754   6.1224   6.8619

     occupation numbers 
     1.0000   1.0000   1.0000   1.0000   1.0000   1.0000   1.0000   1.0000
     1.0000   1.0000   1.0000   1.0000   1.0000   1.0000   1.0000   1.0000
     1.0000   1.0000   1.0000   1.0000   1.0000   0.0000   0.0000   0.0000
     0.0000   0.0000   0.0000   0.0000   0.0000   0.0000   0.0000   0.0000
     0.0000   0.0000   0.0000

          k = 0.2500 0.5774 0.0000 ( 11800 PWs)   bands (ev):

   -83.6030 -53.2076 -53.1348 -52.6269 -23.7835 -23.7559 -22.7484 -22.0513
   -16.3800 -16.0483 -14.6479 -14.5199 -12.8143 -12.3612 -12.1085 -10.8398
   -10.5804  -9.9952  -8.9873  -8.3418  -6.9631  -4.4056  -3.2514  -2.0455
    -1.7594   0.2874   0.6864   2.8439   3.2815   4.3314   4.7380   5.2489
     5.8546   6.3478   6.4451

     occupation numbers 
     1.0000   1.0000   1.0000   1.0000   1.0000   1.0000   1.0000   1.0000
     1.0000   1.0000   1.0000   1.0000   1.0000   1.0000   1.0000   1.0000
     1.0000   1.0000   1.0000   1.0000   1.0000   0.0000   0.0000   0.0000
     0.0000   0.0000   0.0000   0.0000   0.0000   0.0000   0.0000   0.0000
     0.0000   0.0000   0.0000

          k =-0.1250 0.0722 0.0000 ( 11905 PWs)   bands (ev):

   -83.5986 -52.9344 -52.7620 -52.7324 -26.7833 -26.6893 -24.0835 -22.6116
   -15.3915 -12.6005 -11.5949 -11.5321 -10.6933 -10.6653 -10.5395 -10.2729
    -9.7547  -8.8984  -8.7575  -8.3031  -6.5871  -2.9435  -2.7404  -2.7140
    -2.3879   0.5042   0.7307   2.4394   2.4917   3.0542   3.2426   3.5282
     4.6776   4.7397   5.1339

     occupation numbers 
     1.0000   1.0000   1.0000   1.0000   1.0000   1.0000   1.0000   1.0000
     1.0000   1.0000   1.0000   1.0000   1.0000   1.0000   1.0000   1.0000
     1.0000   1.0000   1.0000   1.0000   1.0000   0.0000   0.0000   0.0000
     0.0000   0.0000   0.0000   0.0000   0.0000   0.0000   0.0000   0.0000
     0.0000   0.0000   0.0000

          k = 0.1250 0.0722 0.0000 ( 11905 PWs)   bands (ev):

   -83.5986 -52.9344 -52.7620 -52.7324 -26.7833 -26.6893 -24.0835 -22.6116
   -15.3915 -12.6005 -11.5948 -11.5320 -10.6934 -10.6654 -10.5395 -10.2729
    -9.7547  -8.8982  -8.7577  -8.3030  -6.5871  -2.9434  -2.7405  -2.7141
    -2.3878   0.5042   0.7308   2.4394   2.4917   3.0542   3.2426   3.5282
     4.6776   4.7396   5.1339

     occupation numbers 
     1.0000   1.0000   1.0000   1.0000   1.0000   1.0000   1.0000   1.0000
     1.0000   1.0000   1.0000   1.0000   1.0000   1.0000   1.0000   1.0000
     1.0000   1.0000   1.0000   1.0000   1.0000   0.0000   0.0000   0.0000
     0.0000   0.0000   0.0000   0.0000   0.0000   0.0000   0.0000   0.0000
     0.0000   0.0000   0.0000

          k =-0.2500 0.1443 0.0000 ( 11885 PWs)   bands (ev):

   -83.6091 -53.1962 -52.8332 -52.6305 -25.9782 -25.8985 -23.5235 -22.3319
   -15.0328 -13.8368 -13.4731 -12.2914 -11.5649 -11.2207 -11.2110  -9.9332
    -9.6383  -9.3533  -9.2548  -8.4990  -6.9027  -3.5595  -3.2462  -2.4599
    -1.8626   0.1115   0.3010   2.4285   2.5718   3.4915   3.9964   5.0899
     5.9021   6.1092   6.2879

     occupation numbers 
     1.0000   1.0000   1.0000   1.0000   1.0000   1.0000   1.0000   1.0000
     1.0000   1.0000   1.0000   1.0000   1.0000   1.0000   1.0000   1.0000
     1.0000   1.0000   1.0000   1.0000   1.0000   0.0000   0.0000   0.0000
     0.0000   0.0000   0.0000   0.0000   0.0000   0.0000   0.0000   0.0000
     0.0000   0.0000   0.0000

          k = 0.2500 0.1443 0.0000 ( 11885 PWs)   bands (ev):

   -83.6091 -53.1962 -52.8332 -52.6305 -25.9782 -25.8985 -23.5235 -22.3318
   -15.0328 -13.8368 -13.4730 -12.2913 -11.5649 -11.2207 -11.2110  -9.9332
    -9.6383  -9.3534  -9.2549  -8.4990  -6.9026  -3.5595  -3.2462  -2.4600
    -1.8625   0.1115   0.3010   2.4285   2.5718   3.4916   3.9964   5.0899
     5.9021   6.1092   6.2878

     occupation numbers 
     1.0000   1.0000   1.0000   1.0000   1.0000   1.0000   1.0000   1.0000
     1.0000   1.0000   1.0000   1.0000   1.0000   1.0000   1.0000   1.0000
     1.0000   1.0000   1.0000   1.0000   1.0000   0.0000   0.0000   0.0000
     0.0000   0.0000   0.0000   0.0000   0.0000   0.0000   0.0000   0.0000
     0.0000   0.0000   0.0000

          k =-0.3750 0.2165 0.0000 ( 11860 PWs)   bands (ev):

   -83.6038 -53.2498 -52.8421 -52.7459 -24.9041 -24.8504 -22.9908 -22.1110
   -16.2450 -15.9316 -13.8299 -12.6005 -12.0658 -11.7472 -11.7152 -10.4095
    -9.8222  -9.4657  -8.6993  -8.6885  -7.1320  -4.0134  -3.6251  -2.2418
    -1.4762  -1.2819  -0.7757   2.4297   2.9895   4.0198   4.2989   5.7889
     6.4122   6.6150   7.1622

     occupation numbers 
     1.0000   1.0000   1.0000   1.0000   1.0000   1.0000   1.0000   1.0000
     1.0000   1.0000   1.0000   1.0000   1.0000   1.0000   1.0000   1.0000
     1.0000   1.0000   1.0000   1.0000   1.0000   0.0000   0.0000   0.0000
     0.0000   0.0000   0.0000   0.0000   0.0000   0.0000   0.0000   0.0000
     0.0000   0.0000   0.0000

          k = 0.3750 0.2165 0.0000 ( 11860 PWs)   bands (ev):

   -83.6038 -53.2498 -52.8421 -52.7459 -24.9041 -24.8504 -22.9908 -22.1110
   -16.2449 -15.9316 -13.8299 -12.6005 -12.0658 -11.7473 -11.7153 -10.4095
    -9.8224  -9.4657  -8.6994  -8.6884  -7.1319  -4.0134  -3.6251  -2.2419
    -1.4762  -1.2819  -0.7757   2.4296   2.9895   4.0198   4.2989   5.7888
     6.4123   6.6150   7.1620

     occupation numbers 
     1.0000   1.0000   1.0000   1.0000   1.0000   1.0000   1.0000   1.0000
     1.0000   1.0000   1.0000   1.0000   1.0000   1.0000   1.0000   1.0000
     1.0000   1.0000   1.0000   1.0000   1.0000   0.0000   0.0000   0.0000
     0.0000   0.0000   0.0000   0.0000   0.0000   0.0000   0.0000   0.0000
     0.0000   0.0000   0.0000

          k = 0.5000-0.2887 0.0000 ( 11846 PWs)   bands (ev):

   -83.5997 -53.1997 -52.8624 -52.8554 -24.2398 -24.2131 -22.8611 -22.1257
   -17.1597 -16.8848 -13.5592 -13.0600 -12.1762 -11.9707 -11.9321 -10.6057
   -10.0234  -9.2227  -8.7542  -8.4431  -7.3113  -4.0108  -3.6810  -2.3876
    -1.8990  -1.3444  -1.0608   2.1456   2.7600   4.4231   5.1187   5.8258
     6.1779   6.5203   7.2570

     occupation numbers 
     1.0000   1.0000   1.0000   1.0000   1.0000   1.0000   1.0000   1.0000
     1.0000   1.0000   1.0000   1.0000   1.0000   1.0000   1.0000   1.0000
     1.0000   1.0000   1.0000   1.0000   1.0000   0.0000   0.0000   0.0000
     0.0000   0.0000   0.0000   0.0000   0.0000   0.0000   0.0000   0.0000
     0.0000   0.0000   0.0000

          k =-0.5000-0.2887 0.0000 ( 11846 PWs)   bands (ev):

   -83.5997 -53.1997 -52.8624 -52.8554 -24.2398 -24.2131 -22.8611 -22.1256
   -17.1597 -16.8848 -13.5592 -13.0601 -12.1762 -11.9708 -11.9322 -10.6057
   -10.0236  -9.2228  -8.7542  -8.4432  -7.3113  -4.0107  -3.6810  -2.3876
    -1.8990  -1.3444  -1.0608   2.1456   2.7600   4.4231   5.1187   5.8258
     6.1779   6.5203   7.2569

     occupation numbers 
     1.0000   1.0000   1.0000   1.0000   1.0000   1.0000   1.0000   1.0000
     1.0000   1.0000   1.0000   1.0000   1.0000   1.0000   1.0000   1.0000
     1.0000   1.0000   1.0000   1.0000   1.0000   0.0000   0.0000   0.0000
     0.0000   0.0000   0.0000   0.0000   0.0000   0.0000   0.0000   0.0000
     0.0000   0.0000   0.0000

          k =-0.1250 0.2165 0.0000 ( 11867 PWs)   bands (ev):

   -83.6000 -53.1246 -52.8483 -52.5886 -26.2304 -26.1449 -23.6925 -22.4180
   -15.0458 -13.0818 -12.8533 -12.2956 -11.6088 -11.3087 -10.9261  -9.9738
    -9.6596  -9.5528  -9.0095  -8.3568  -6.7805  -3.3971  -3.0845  -2.7037
    -1.9046   1.0475   1.2331   2.0133   2.0273   3.4885   3.6387   4.0485
     5.0946   5.7027   6.4690

     occupation numbers 
     1.0000   1.0000   1.0000   1.0000   1.0000   1.0000   1.0000   1.0000
     1.0000   1.0000   1.0000   1.0000   1.0000   1.0000   1.0000   1.0000
     1.0000   1.0000   1.0000   1.0000   1.0000   0.0000   0.0000   0.0000
     0.0000   0.0000   0.0000   0.0000   0.0000   0.0000   0.0000   0.0000
     0.0000   0.0000   0.0000

          k = 0.2500-0.0000 0.0000 ( 11867 PWs)   bands (ev):

   -83.6000 -53.1246 -52.8483 -52.5886 -26.2304 -26.1449 -23.6925 -22.4180
   -15.0457 -13.0818 -12.8533 -12.2956 -11.6088 -11.3087 -10.9261  -9.9738
    -9.6596  -9.5527  -9.0095  -8.3568  -6.7805  -3.3970  -3.0845  -2.7037
    -1.9046   1.0475   1.2332   2.0133   2.0273   3.4885   3.6387   4.0485
     5.0945   5.7027   6.4691

     occupation numbers 
     1.0000   1.0000   1.0000   1.0000   1.0000   1.0000   1.0000   1.0000
     1.0000   1.0000   1.0000   1.0000   1.0000   1.0000   1.0000   1.0000
     1.0000   1.0000   1.0000   1.0000   1.0000   0.0000   0.0000   0.0000
     0.0000   0.0000   0.0000   0.0000   0.0000   0.0000   0.0000   0.0000
     0.0000   0.0000   0.0000

          k =-0.1250 0.3608 0.0000 ( 11871 PWs)   bands (ev):

   -83.6026 -53.2158 -52.9538 -52.6006 -25.2710 -25.2050 -23.1383 -22.1573
   -15.4510 -14.9648 -13.7879 -12.5718 -12.2951 -11.9825 -11.6111 -10.5850
    -9.6709  -9.3285  -9.0844  -8.6310  -7.1491  -3.7611  -3.4935  -2.3500
    -1.5960   0.1374   0.3700   2.6670   2.7394   3.7949   4.1853   5.1196
     5.7511   6.1935   6.6254

     occupation numbers 
     1.0000   1.0000   1.0000   1.0000   1.0000   1.0000   1.0000   1.0000
     1.0000   1.0000   1.0000   1.0000   1.0000   1.0000   1.0000   1.0000
     1.0000   1.0000   1.0000   1.0000   1.0000   0.0000   0.0000   0.0000
     0.0000   0.0000   0.0000   0.0000   0.0000   0.0000   0.0000   0.0000
     0.0000   0.0000   0.0000

          k =-0.2500 0.2887 0.0000 ( 11871 PWs)   bands (ev):

   -83.6026 -53.2158 -52.9538 -52.6006 -25.2710 -25.2050 -23.1383 -22.1573
   -15.4510 -14.9649 -13.7879 -12.5718 -12.2950 -11.9825 -11.6111 -10.5850
    -9.6708  -9.3284  -9.0843  -8.6311  -7.1491  -3.7611  -3.4935  -2.3499
    -1.5960   0.1374   0.3700   2.6670   2.7394   3.7948   4.1852   5.1196
     5.7511   6.1935   6.6253

     occupation numbers 
     1.0000   1.0000   1.0000   1.0000   1.0000   1.0000   1.0000   1.0000
     1.0000   1.0000   1.0000   1.0000   1.0000   1.0000   1.0000   1.0000
     1.0000   1.0000   1.0000   1.0000   1.0000   0.0000   0.0000   0.0000
     0.0000   0.0000   0.0000   0.0000   0.0000   0.0000   0.0000   0.0000
     0.0000   0.0000   0.0000

          k = 0.3750 0.0722 0.0000 ( 11871 PWs)   bands (ev):

   -83.6026 -53.2158 -52.9538 -52.6006 -25.2710 -25.2050 -23.1383 -22.1573
   -15.4510 -14.9648 -13.7879 -12.5718 -12.2951 -11.9825 -11.6111 -10.5850
    -9.6709  -9.3285  -9.0844  -8.6310  -7.1491  -3.7611  -3.4935  -2.3500
    -1.5960   0.1374   0.3700   2.6670   2.7394   3.7949   4.1853   5.1196
     5.7511   6.1936   6.6254

     occupation numbers 
     1.0000   1.0000   1.0000   1.0000   1.0000   1.0000   1.0000   1.0000
     1.0000   1.0000   1.0000   1.0000   1.0000   1.0000   1.0000   1.0000
     1.0000   1.0000   1.0000   1.0000   1.0000   0.0000   0.0000   0.0000
     0.0000   0.0000   0.0000   0.0000   0.0000   0.0000   0.0000   0.0000
     0.0000   0.0000   0.0000

          k =-0.2500-0.2887 0.0000 ( 11871 PWs)   bands (ev):

   -83.6026 -53.2158 -52.9539 -52.6006 -25.2710 -25.2050 -23.1383 -22.1573
   -15.4510 -14.9648 -13.7879 -12.5718 -12.2951 -11.9825 -11.6111 -10.5851
    -9.6708  -9.3285  -9.0844  -8.6311  -7.1491  -3.7611  -3.4935  -2.3499
    -1.5960   0.1374   0.3700   2.6670   2.7394   3.7948   4.1852   5.1196
     5.7511   6.1935   6.6254

     occupation numbers 
     1.0000   1.0000   1.0000   1.0000   1.0000   1.0000   1.0000   1.0000
     1.0000   1.0000   1.0000   1.0000   1.0000   1.0000   1.0000   1.0000
     1.0000   1.0000   1.0000   1.0000   1.0000   0.0000   0.0000   0.0000
     0.0000   0.0000   0.0000   0.0000   0.0000   0.0000   0.0000   0.0000
     0.0000   0.0000   0.0000

          k = 0.3750-0.0722 0.0000 ( 11871 PWs)   bands (ev):

   -83.6026 -53.2158 -52.9538 -52.6006 -25.2710 -25.2050 -23.1383 -22.1573
   -15.4510 -14.9649 -13.7879 -12.5718 -12.2950 -11.9825 -11.6111 -10.5850
    -9.6708  -9.3284  -9.0843  -8.6311  -7.1491  -3.7611  -3.4935  -2.3499
    -1.5960   0.1374   0.3700   2.6670   2.7394   3.7948   4.1853   5.1196
     5.7511   6.1936   6.6253

     occupation numbers 
     1.0000   1.0000   1.0000   1.0000   1.0000   1.0000   1.0000   1.0000
     1.0000   1.0000   1.0000   1.0000   1.0000   1.0000   1.0000   1.0000
     1.0000   1.0000   1.0000   1.0000   1.0000   0.0000   0.0000   0.0000
     0.0000   0.0000   0.0000   0.0000   0.0000   0.0000   0.0000   0.0000
     0.0000   0.0000   0.0000

          k =-0.1250 0.5052 0.0000 ( 11841 PWs)   bands (ev):

   -83.6064 -53.1968 -52.9793 -52.7612 -24.2819 -24.2462 -22.8262 -22.0747
   -16.7278 -16.4400 -13.6155 -13.1086 -12.7150 -12.3305 -12.0355 -10.8020
    -9.9128  -9.2704  -9.0755  -8.5489  -7.2530  -4.1067  -3.4697  -2.0869
    -1.7522  -0.7230  -0.3382   2.7308   3.2511   3.9501   4.3510   5.3755
     6.2339   6.3133   7.0529

     occupation numbers 
     1.0000   1.0000   1.0000   1.0000   1.0000   1.0000   1.0000   1.0000
     1.0000   1.0000   1.0000   1.0000   1.0000   1.0000   1.0000   1.0000
     1.0000   1.0000   1.0000   1.0000   1.0000   0.0000   0.0000   0.0000
     0.0000   0.0000   0.0000   0.0000   0.0000   0.0000   0.0000   0.0000
     0.0000   0.0000   0.0000

          k =-0.3750 0.3608 0.0000 ( 11841 PWs)   bands (ev):

   -83.6064 -53.1968 -52.9793 -52.7612 -24.2819 -24.2462 -22.8262 -22.0748
   -16.7279 -16.4401 -13.6155 -13.1086 -12.7149 -12.3304 -12.0355 -10.8020
    -9.9128  -9.2703  -9.0754  -8.5489  -7.2530  -4.1067  -3.4697  -2.0869
    -1.7522  -0.7231  -0.3382   2.7309   3.2511   3.9501   4.3510   5.3755
     6.2338   6.3133   7.0530

     occupation numbers 
     1.0000   1.0000   1.0000   1.0000   1.0000   1.0000   1.0000   1.0000
     1.0000   1.0000   1.0000   1.0000   1.0000   1.0000   1.0000   1.0000
     1.0000   1.0000   1.0000   1.0000   1.0000   0.0000   0.0000   0.0000
     0.0000   0.0000   0.0000   0.0000   0.0000   0.0000   0.0000   0.0000
     0.0000   0.0000   0.0000

          k = 0.5000 0.1443 0.0000 ( 11841 PWs)   bands (ev):

   -83.6064 -53.1968 -52.9793 -52.7612 -24.2819 -24.2462 -22.8262 -22.0747
   -16.7278 -16.4401 -13.6155 -13.1086 -12.7150 -12.3305 -12.0355 -10.8021
    -9.9128  -9.2704  -9.0754  -8.5489  -7.2530  -4.1067  -3.4697  -2.0870
    -1.7522  -0.7231  -0.3382   2.7308   3.2510   3.9501   4.3510   5.3756
     6.2338   6.3134   7.0529

     occupation numbers 
     1.0000   1.0000   1.0000   1.0000   1.0000   1.0000   1.0000   1.0000
     1.0000   1.0000   1.0000   1.0000   1.0000   1.0000   1.0000   1.0000
     1.0000   1.0000   1.0000   1.0000   1.0000   0.0000   0.0000   0.0000
     0.0000   0.0000   0.0000   0.0000   0.0000   0.0000   0.0000   0.0000
     0.0000   0.0000   0.0000

          k =-0.3750-0.3608 0.0000 ( 11841 PWs)   bands (ev):

   -83.6064 -53.1968 -52.9793 -52.7612 -24.2819 -24.2462 -22.8262 -22.0747
   -16.7278 -16.4401 -13.6155 -13.1086 -12.7150 -12.3305 -12.0355 -10.8020
    -9.9129  -9.2704  -9.0755  -8.5489  -7.2530  -4.1067  -3.4697  -2.0869
    -1.7523  -0.7231  -0.3382   2.7308   3.2511   3.9501   4.3510   5.3755
     6.2338   6.3134   7.0530

     occupation numbers 
     1.0000   1.0000   1.0000   1.0000   1.0000   1.0000   1.0000   1.0000
     1.0000   1.0000   1.0000   1.0000   1.0000   1.0000   1.0000   1.0000
     1.0000   1.0000   1.0000   1.0000   1.0000   0.0000   0.0000   0.0000
     0.0000   0.0000   0.0000   0.0000   0.0000   0.0000   0.0000   0.0000
     0.0000   0.0000   0.0000

          k = 0.5000-0.1443 0.0000 ( 11841 PWs)   bands (ev):

   -83.6064 -53.1968 -52.9793 -52.7612 -24.2819 -24.2462 -22.8262 -22.0748
   -16.7279 -16.4401 -13.6155 -13.1086 -12.7149 -12.3304 -12.0355 -10.8020
    -9.9128  -9.2704  -9.0754  -8.5489  -7.2530  -4.1067  -3.4698  -2.0869
    -1.7522  -0.7231  -0.3382   2.7308   3.2511   3.9501   4.3510   5.3756
     6.2338   6.3133   7.0529

     occupation numbers 
     1.0000   1.0000   1.0000   1.0000   1.0000   1.0000   1.0000   1.0000
     1.0000   1.0000   1.0000   1.0000   1.0000   1.0000   1.0000   1.0000
     1.0000   1.0000   1.0000   1.0000   1.0000   0.0000   0.0000   0.0000
     0.0000   0.0000   0.0000   0.0000   0.0000   0.0000   0.0000   0.0000
     0.0000   0.0000   0.0000

          k =-0.2500 0.4330 0.0000 ( 11844 PWs)   bands (ev):

   -83.6137 -53.1803 -53.1210 -52.6572 -24.3245 -24.2814 -22.7975 -22.0299
   -16.1280 -15.7820 -14.0054 -13.7998 -13.2886 -11.9823 -11.8359 -11.1878
   -10.0789  -9.5778  -9.0424  -8.5243  -7.3327  -4.0041  -3.4138  -2.1497
    -1.6657   0.5054   0.7404   2.6205   3.0285   4.4548   4.7121   5.0806
     5.4753   6.1225   6.8619

     occupation numbers 
     1.0000   1.0000   1.0000   1.0000   1.0000   1.0000   1.0000   1.0000
     1.0000   1.0000   1.0000   1.0000   1.0000   1.0000   1.0000   1.0000
     1.0000   1.0000   1.0000   1.0000   1.0000   0.0000   0.0000   0.0000
     0.0000   0.0000   0.0000   0.0000   0.0000   0.0000   0.0000   0.0000
     0.0000   0.0000   0.0000

          k = 0.5000-0.0000 0.0000 ( 11844 PWs)   bands (ev):

   -83.6137 -53.1803 -53.1210 -52.6572 -24.3245 -24.2814 -22.7975 -22.0299
   -16.1280 -15.7820 -14.0054 -13.7998 -13.2886 -11.9823 -11.8359 -11.1878
   -10.0790  -9.5778  -9.0424  -8.5243  -7.3327  -4.0041  -3.4138  -2.1497
    -1.6656   0.5054   0.7404   2.6205   3.0285   4.4548   4.7120   5.0806
     5.4753   6.1225   6.8618

     occupation numbers 
     1.0000   1.0000   1.0000   1.0000   1.0000   1.0000   1.0000   1.0000
     1.0000   1.0000   1.0000   1.0000   1.0000   1.0000   1.0000   1.0000
     1.0000   1.0000   1.0000   1.0000   1.0000   0.0000   0.0000   0.0000
     0.0000   0.0000   0.0000   0.0000   0.0000   0.0000   0.0000   0.0000
     0.0000   0.0000   0.0000

          k =-0.3750 0.5052 0.0000 ( 11800 PWs)   bands (ev):

   -83.6030 -53.2076 -53.1348 -52.6269 -23.7835 -23.7559 -22.7484 -22.0513
   -16.3800 -16.0483 -14.6478 -14.5199 -12.8143 -12.3612 -12.1084 -10.8398
   -10.5804  -9.9952  -8.9873  -8.3418  -6.9632  -4.4056  -3.2514  -2.0456
    -1.7593   0.2874   0.6863   2.8439   3.2815   4.3314   4.7380   5.2490
     5.8545   6.3478   6.4452

     occupation numbers 
     1.0000   1.0000   1.0000   1.0000   1.0000   1.0000   1.0000   1.0000
     1.0000   1.0000   1.0000   1.0000   1.0000   1.0000   1.0000   1.0000
     1.0000   1.0000   1.0000   1.0000   1.0000   0.0000   0.0000   0.0000
     0.0000   0.0000   0.0000   0.0000   0.0000   0.0000   0.0000   0.0000
     0.0000   0.0000   0.0000

          k = 0.6250 0.0722 0.0000 ( 11800 PWs)   bands (ev):

   -83.6030 -53.2076 -53.1348 -52.6269 -23.7835 -23.7559 -22.7484 -22.0513
   -16.3800 -16.0483 -14.6479 -14.5199 -12.8143 -12.3612 -12.1084 -10.8398
   -10.5805  -9.9952  -8.9873  -8.3418  -6.9631  -4.4056  -3.2514  -2.0455
    -1.7594   0.2874   0.6864   2.8439   3.2815   4.3314   4.7380   5.2490
     5.8546   6.3479   6.4452

     occupation numbers 
     1.0000   1.0000   1.0000   1.0000   1.0000   1.0000   1.0000   1.0000
     1.0000   1.0000   1.0000   1.0000   1.0000   1.0000   1.0000   1.0000
     1.0000   1.0000   1.0000   1.0000   1.0000   0.0000   0.0000   0.0000
     0.0000   0.0000   0.0000   0.0000   0.0000   0.0000   0.0000   0.0000
     0.0000   0.0000   0.0000

     highest occupied, lowest unoccupied level (ev):    -6.5712   -4.4056

!    total energy              =    -263.21054278 Ry
     estimated scf accuracy    <          3.9E-12 Ry

     convergence has been achieved in   1 iterations

     Using ACE for calculation of exact exchange
     ACE projected onto    35 (nbndproj) and applied to    35 (nbnd) bands

!!   total energy              =    -263.21054278 Ry
     Harris-Foulkes estimate   =    -263.21054278 Ry
     est. exchange err (dexx)  =          6.0E-11 Ry
     - averaged Fock potential =      17.84088253 Ry
     + Fock energy (ACE)       =      -8.92044143 Ry

     EXX self-consistency reached

     Writing all to output data dir ./tmp/crsi2n4.save/ :
     XML data file, charge density, pseudopotentials, collected wavefunctions

     init_run     :      2.61s CPU      2.72s WALL (       1 calls)
     electrons    :   1122.28s CPU   1147.58s WALL (      25 calls)

     Called by init_run:
     aceinit0     :      0.00s CPU      0.00s WALL (       1 calls)
     wfcinit      :      2.10s CPU      2.21s WALL (       1 calls)
     wfcinit:atom :      0.03s CPU      0.04s WALL (      34 calls)
     wfcinit:wfcr :      2.01s CPU      2.09s WALL (      34 calls)
     potinit      :      0.14s CPU      0.14s WALL (       1 calls)
     hinit0       :      0.35s CPU      0.35s WALL (       1 calls)

     Called by electrons:
     c_bands      :   1051.44s CPU   1072.27s WALL (     142 calls)
     sum_band     :     63.11s CPU     67.35s WALL (     142 calls)
     v_of_rho     :      6.78s CPU      6.93s WALL (     143 calls)
     v_h          :      0.21s CPU      0.22s WALL (     143 calls)
     v_xc         :      6.57s CPU      6.71s WALL (     143 calls)
     mix_rho      :      0.53s CPU      0.55s WALL (     142 calls)

     Called by c_bands:
     init_us_2    :     13.05s CPU     13.18s WALL (    9690 calls)
     cegterg      :   1027.15s CPU   1047.86s WALL (    4828 calls)

     Called by sum_band:
     sum_band:wei :      0.00s CPU      0.00s WALL (     142 calls)
     sum_band:loo :     62.88s CPU     67.10s WALL (     142 calls)
     sum_band:buf :      1.83s CPU      1.92s WALL (    4828 calls)
     sum_band:ini :      6.42s CPU      6.48s WALL (    4828 calls)

     Called by *egterg:
     cdiaghg      :     26.65s CPU     26.69s WALL (   17385 calls)
     cegterg:over :    124.33s CPU    124.60s WALL (   13407 calls)
     cegterg:upda :     77.04s CPU     77.11s WALL (   13407 calls)
     cegterg:last :    165.58s CPU    165.62s WALL (   10338 calls)
     h_psi        :    578.15s CPU    598.34s WALL (   18269 calls)
     g_psi        :      2.09s CPU      2.10s WALL (   13407 calls)

     Called by h_psi:
     h_psi:calbec :    113.04s CPU    113.92s WALL (   18269 calls)
     vloc_psi     :    238.94s CPU    257.85s WALL (   18269 calls)
     add_vuspsi   :    112.67s CPU    112.78s WALL (   18269 calls)

     General routines
     calbec       :    188.07s CPU    189.27s WALL (   37614 calls)
     fft          :      3.31s CPU      3.44s WALL (    1663 calls)
     ffts         :      0.23s CPU      0.25s WALL (     285 calls)
     fftw         :    234.13s CPU    252.56s WALL (  979688 calls)
     fftc         :   4573.58s CPU   5095.29s WALL ( 8330000 calls)
     fftcw        :     24.07s CPU     30.13s WALL (   89250 calls)
     interpolate  :      0.33s CPU      0.35s WALL (     143 calls)

     Parallel routines

     EXX routines
     exx_grid     :      0.00s CPU      0.00s WALL (       1 calls)
     exxinit      :     73.02s CPU     92.39s WALL (      25 calls)
     vexx         :   7803.15s CPU   8401.25s WALL (     850 calls)
     matcalc      :     75.12s CPU     75.43s WALL (   19345 calls)
     aceupdate    :      2.28s CPU      2.28s WALL (     850 calls)
     vexxace      :    135.02s CPU    135.34s WALL (   16829 calls)
     aceinit      :   7810.01s CPU   8408.16s WALL (     850 calls)

     PWSCF        :      2h30m CPU      2h41m WALL


   This run was terminated on:  18:49: 2   5Jan2026            

=------------------------------------------------------------------------------=
   JOB DONE.
=------------------------------------------------------------------------------=
