
     Program PWSCF v.7.4.1 starts on 13Mar2026 at  3: 9:57 

     This program is part of the open-source Quantum ESPRESSO suite
     for quantum simulation of materials; please cite
         "P. Giannozzi et al., J. Phys.:Condens. Matter 21 395502 (2009);
         "P. Giannozzi et al., J. Phys.:Condens. Matter 29 465901 (2017);
         "P. Giannozzi et al., J. Chem. Phys. 152 154105 (2020);
          URL http://www.quantum-espresso.org", 
     in publications or presentations arising from this work. More details at
     http://www.quantum-espresso.org/quote

     Parallel version (MPI), running on     1 processors

     MPI processes distributed on     1 nodes
     4085 MiB available memory on the printing compute node when the environment starts
 
     Reading input from scf.in

     Current dimensions of program PWSCF are:
     Max number of different atomic species (ntypx) = 10
     Max number of k-points (npk) =  40000
     Max angular momentum in pseudopotentials (lmaxx) =  4
     Message from routine setup:
     no reason to have ecutrho>4*ecutwfc
 
     Subspace diagonalization in iterative solution of the eigenvalue problem:
     a serial algorithm will be used

 
     G-vector sticks info
     --------------------
     sticks:   dense  smooth     PW     G-vecs:    dense   smooth      PW
     Sum         817     649    199               135261    96835   15427
 
     Using Slab Decomposition
 


     bravais-lattice index     =            4
     lattice parameter (alat)  =       5.4281  a.u.
     unit-cell volume          =    1001.3459 (a.u.)^3
     number of atoms/cell      =            7
     number of atomic types    =            3
     number of electrons       =        42.00
     number of Kohn-Sham states=           21
     kinetic-energy cutoff     =      80.0000  Ry
     charge density cutoff     =     400.0000  Ry
     scf convergence threshold =      1.0E-10
     mixing beta               =       0.5000
     number of iterations used =            8  plain     mixing
     Exchange-correlation= PBE
                           (   1   4   3   4   0   0   0)

     GPU acceleration is ACTIVE.  1 visible GPUs per MPI rank
     GPU-aware MPI enabled


     GPU used by master process:

        Device Number: 0
        Device name: NVIDIA RTX A2000 12GB
        Compute capability : 86
        Ratio of single to double precision performance  : 64
        Memory Clock Rate (KHz): 6001000
        Memory Bus Width (bits): 192
        Peak Memory Bandwidth (GB/s): 288.05

     celldm(1)=   5.428125  celldm(2)=   0.000000  celldm(3)=   7.229429
     celldm(4)=   0.000000  celldm(5)=   0.000000  celldm(6)=   0.000000

     crystal axes: (cart. coord. in units of alat)
               a(1) = (   1.000000   0.000000   0.000000 )  
               a(2) = (  -0.500000   0.866025   0.000000 )  
               a(3) = (   0.000000   0.000000   7.229429 )  

     reciprocal axes: (cart. coord. in units 2 pi/alat)
               b(1) = (  1.000000  0.577350 -0.000000 )  
               b(2) = (  0.000000  1.154701  0.000000 )  
               b(3) = (  0.000000 -0.000000  0.138324 )  


     PseudoPot. # 1 for Cr read from file:
     /home/rao/Desktop/pseudo/ONCVPSP/sg15/Cr_ONCV_PBE_sr.upf
     MD5 check sum: 8c25700f94aee329d8014e8d8708abb4
     Pseudo is Norm-conserving, Zval = 14.0
     Generated using ONCVPSP code by D. R. Hamann
     Using radial grid of 1490 points,  6 beta functions with: 
                l(1) =   0
                l(2) =   0
                l(3) =   1
                l(4) =   1
                l(5) =   2
                l(6) =   2

     PseudoPot. # 2 for Si read from file:
     /home/rao/Desktop/pseudo/ONCVPSP/sg15/Si_ONCV_PBE_sr.upf
     MD5 check sum: 8553c464762ac42b85b1eed164b4d029
     Pseudo is Norm-conserving, Zval =  4.0
     Generated using ONCVPSP code by D. R. Hamann
     Using radial grid of 1510 points,  4 beta functions with: 
                l(1) =   0
                l(2) =   0
                l(3) =   1
                l(4) =   1

     PseudoPot. # 3 for N  read from file:
     /home/rao/Desktop/pseudo/ONCVPSP/sg15/N_ONCV_PBE_sr.upf
     MD5 check sum: 584dff68b02d160f04ff099e3496afa1
     Pseudo is Norm-conserving, Zval =  5.0
     Generated using ONCVPSP code by D. R. Hamann
     Using radial grid of 1058 points,  4 beta functions with: 
                l(1) =   0
                l(2) =   0
                l(3) =   1
                l(4) =   1

     atomic species   valence    mass     pseudopotential
     Cr               14.00    51.99600     Cr( 1.00)
     Si                4.00    28.08600     Si( 1.00)
     N                 5.00    14.00700     N ( 1.00)

     No symmetry found


                                    s                        frac. trans.

      isym =  1     identity                                     

 cryst.   s( 1) = (     1          0          0      )
                  (     0          1          0      )
                  (     0          0          1      )

 cart.    s( 1) = (  1.0000000  0.0000000  0.0000000 )
                  (  0.0000000  1.0000000  0.0000000 )
                  (  0.0000000  0.0000000  1.0000000 )


     point group C_1 (1)    
     there are  1 classes
     the character table:

       E    
A      1.00

     the symmetry operations in each class and the name of the first element:

     E        1
          identity                                               

   Cartesian axes

     site n.     atom                  positions (alat units)
         1        Cr     tau(   1) = (   0.7857138   0.1237083   3.0925906  )
         2        N      tau(   2) = (   0.2856744   0.4124073   2.6951636  )
         3        N      tau(   3) = (   0.2856922   0.4123947   3.4953861  )
         4        N      tau(   4) = (   0.7857248   0.1236935   4.2941203  )
         5        N      tau(   5) = (  -0.2142869   0.7010640   1.9042883  )
         6        Si     tau(   6) = (   0.2857211   0.4123842   2.0863348  )
         7        Si     tau(   7) = (   0.2857276   0.4123672   4.1085750  )

   Crystallographic axes

     site n.     atom                  positions (cryst. coord.)
         1        Cr     tau(   1) = (  0.8571368  0.1428460  0.4277780  )
         2        N      tau(   2) = (  0.5237778  0.4762069  0.3728045  )
         3        N      tau(   3) = (  0.5237884  0.4761924  0.4834941  )
         4        N      tau(   4) = (  0.8571393  0.1428289  0.5939778  )
         5        N      tau(   5) = (  0.1904725  0.8095189  0.2634078  )
         6        Si     tau(   6) = (  0.5238112  0.4761802  0.2885892  )
         7        Si     tau(   7) = (  0.5238079  0.4761606  0.5683125  )

     number of k points=    61
                       cart. coord. in units 2pi/alat
        k(    1) = (   0.0000000   0.0000000   0.0000000), wk =   0.0165289
        k(    2) = (   0.0000000   0.1049728   0.0000000), wk =   0.0330579
        k(    3) = (   0.0000000   0.2099456   0.0000000), wk =   0.0330579
        k(    4) = (   0.0000000   0.3149183   0.0000000), wk =   0.0330579
        k(    5) = (   0.0000000   0.4198911   0.0000000), wk =   0.0330579
        k(    6) = (   0.0000000   0.5248639   0.0000000), wk =   0.0330579
        k(    7) = (   0.0909091   0.1574592   0.0000000), wk =   0.0330579
        k(    8) = (   0.0909091   0.2624319   0.0000000), wk =   0.0330579
        k(    9) = (   0.0909091   0.3674047   0.0000000), wk =   0.0330579
        k(   10) = (   0.0909091   0.4723775   0.0000000), wk =   0.0330579
        k(   11) = (   0.0909091   0.5773503   0.0000000), wk =   0.0330579
        k(   12) = (   0.1818182   0.3149183   0.0000000), wk =   0.0330579
        k(   13) = (   0.1818182   0.4198911   0.0000000), wk =   0.0330579
        k(   14) = (   0.1818182   0.5248639   0.0000000), wk =   0.0330579
        k(   15) = (   0.2727273   0.4723775   0.0000000), wk =   0.0330579
        k(   16) = (   0.2727273   0.5773503   0.0000000), wk =   0.0330579
        k(   17) = (  -0.0909091   0.0524864   0.0000000), wk =   0.0330579
        k(   18) = (   0.0909091   0.0524864   0.0000000), wk =   0.0330579
        k(   19) = (  -0.1818182   0.1049728   0.0000000), wk =   0.0330579
        k(   20) = (   0.1818182   0.1049728   0.0000000), wk =   0.0330579
        k(   21) = (  -0.2727273   0.1574592   0.0000000), wk =   0.0330579
        k(   22) = (   0.2727273   0.1574592   0.0000000), wk =   0.0330579
        k(   23) = (  -0.3636364   0.2099456   0.0000000), wk =   0.0330579
        k(   24) = (   0.3636364   0.2099456   0.0000000), wk =   0.0330579
        k(   25) = (  -0.4545455   0.2624319   0.0000000), wk =   0.0330579
        k(   26) = (   0.4545455   0.2624319   0.0000000), wk =   0.0330579
        k(   27) = (  -0.0909091   0.1574592   0.0000000), wk =   0.0330579
        k(   28) = (   0.1818182   0.0000000   0.0000000), wk =   0.0330579
        k(   29) = (  -0.0909091   0.2624319   0.0000000), wk =   0.0330579
        k(   30) = (  -0.1818182   0.2099456   0.0000000), wk =   0.0330579
        k(   31) = (   0.2727273   0.0524864   0.0000000), wk =   0.0330579
        k(   32) = (  -0.1818182  -0.2099456   0.0000000), wk =   0.0330579
        k(   33) = (   0.2727273  -0.0524864   0.0000000), wk =   0.0330579
        k(   34) = (  -0.0909091   0.3674047   0.0000000), wk =   0.0330579
        k(   35) = (  -0.2727273   0.2624319   0.0000000), wk =   0.0330579
        k(   36) = (   0.3636364   0.1049728   0.0000000), wk =   0.0330579
        k(   37) = (  -0.2727273  -0.2624319   0.0000000), wk =   0.0330579
        k(   38) = (   0.3636364  -0.1049728   0.0000000), wk =   0.0330579
        k(   39) = (  -0.0909091   0.4723775   0.0000000), wk =   0.0330579
        k(   40) = (  -0.3636364   0.3149183   0.0000000), wk =   0.0330579
        k(   41) = (   0.4545455   0.1574592   0.0000000), wk =   0.0330579
        k(   42) = (  -0.3636364  -0.3149183   0.0000000), wk =   0.0330579
        k(   43) = (   0.4545455  -0.1574592   0.0000000), wk =   0.0330579
        k(   44) = (  -0.4545455   0.3674047   0.0000000), wk =   0.0330579
        k(   45) = (   0.5454545   0.2099456   0.0000000), wk =   0.0330579
        k(   46) = (  -0.1818182   0.3149183   0.0000000), wk =   0.0330579
        k(   47) = (   0.3636364   0.0000000   0.0000000), wk =   0.0330579
        k(   48) = (  -0.1818182   0.4198911   0.0000000), wk =   0.0330579
        k(   49) = (  -0.2727273   0.3674047   0.0000000), wk =   0.0330579
        k(   50) = (   0.4545455   0.0524864   0.0000000), wk =   0.0330579
        k(   51) = (  -0.2727273  -0.3674047   0.0000000), wk =   0.0330579
        k(   52) = (   0.4545455  -0.0524864   0.0000000), wk =   0.0330579
        k(   53) = (  -0.1818182   0.5248639   0.0000000), wk =   0.0330579
        k(   54) = (  -0.3636364   0.4198911   0.0000000), wk =   0.0330579
        k(   55) = (   0.5454545   0.1049728   0.0000000), wk =   0.0330579
        k(   56) = (  -0.3636364  -0.4198911   0.0000000), wk =   0.0330579
        k(   57) = (   0.5454545  -0.1049728   0.0000000), wk =   0.0330579
        k(   58) = (  -0.2727273   0.4723775   0.0000000), wk =   0.0330579
        k(   59) = (   0.5454545  -0.0000000   0.0000000), wk =   0.0330579
        k(   60) = (  -0.3636364   0.5248639   0.0000000), wk =   0.0330579
        k(   61) = (   0.6363636   0.0524864   0.0000000), wk =   0.0330579

                       cryst. coord.
        k(    1) = (   0.0000000   0.0000000   0.0000000), wk =   0.0165289
        k(    2) = (   0.0000000   0.0909091   0.0000000), wk =   0.0330579
        k(    3) = (   0.0000000   0.1818182   0.0000000), wk =   0.0330579
        k(    4) = (   0.0000000   0.2727273   0.0000000), wk =   0.0330579
        k(    5) = (   0.0000000   0.3636364   0.0000000), wk =   0.0330579
        k(    6) = (   0.0000000   0.4545455   0.0000000), wk =   0.0330579
        k(    7) = (   0.0909091   0.0909091   0.0000000), wk =   0.0330579
        k(    8) = (   0.0909091   0.1818182   0.0000000), wk =   0.0330579
        k(    9) = (   0.0909091   0.2727273   0.0000000), wk =   0.0330579
        k(   10) = (   0.0909091   0.3636364   0.0000000), wk =   0.0330579
        k(   11) = (   0.0909091   0.4545455   0.0000000), wk =   0.0330579
        k(   12) = (   0.1818182   0.1818182   0.0000000), wk =   0.0330579
        k(   13) = (   0.1818182   0.2727273   0.0000000), wk =   0.0330579
        k(   14) = (   0.1818182   0.3636364   0.0000000), wk =   0.0330579
        k(   15) = (   0.2727273   0.2727273   0.0000000), wk =   0.0330579
        k(   16) = (   0.2727273   0.3636364   0.0000000), wk =   0.0330579
        k(   17) = (  -0.0909091   0.0909091   0.0000000), wk =   0.0330579
        k(   18) = (   0.0909091   0.0000000   0.0000000), wk =   0.0330579
        k(   19) = (  -0.1818182   0.1818182   0.0000000), wk =   0.0330579
        k(   20) = (   0.1818182   0.0000000   0.0000000), wk =   0.0330579
        k(   21) = (  -0.2727273   0.2727273   0.0000000), wk =   0.0330579
        k(   22) = (   0.2727273  -0.0000000   0.0000000), wk =   0.0330579
        k(   23) = (  -0.3636364   0.3636364   0.0000000), wk =   0.0330579
        k(   24) = (   0.3636364   0.0000000   0.0000000), wk =   0.0330579
        k(   25) = (  -0.4545455   0.4545455   0.0000000), wk =   0.0330579
        k(   26) = (   0.4545455   0.0000000   0.0000000), wk =   0.0330579
        k(   27) = (  -0.0909091   0.1818182   0.0000000), wk =   0.0330579
        k(   28) = (   0.1818182  -0.0909091   0.0000000), wk =   0.0330579
        k(   29) = (  -0.0909091   0.2727273   0.0000000), wk =   0.0330579
        k(   30) = (  -0.1818182   0.2727273   0.0000000), wk =   0.0330579
        k(   31) = (   0.2727273  -0.0909091   0.0000000), wk =   0.0330579
        k(   32) = (  -0.1818182  -0.0909091   0.0000000), wk =   0.0330579
        k(   33) = (   0.2727273  -0.1818182   0.0000000), wk =   0.0330579
        k(   34) = (  -0.0909091   0.3636364   0.0000000), wk =   0.0330579
        k(   35) = (  -0.2727273   0.3636364   0.0000000), wk =   0.0330579
        k(   36) = (   0.3636364  -0.0909091   0.0000000), wk =   0.0330579
        k(   37) = (  -0.2727273  -0.0909091   0.0000000), wk =   0.0330579
        k(   38) = (   0.3636364  -0.2727273   0.0000000), wk =   0.0330579
        k(   39) = (  -0.0909091   0.4545455   0.0000000), wk =   0.0330579
        k(   40) = (  -0.3636364   0.4545455   0.0000000), wk =   0.0330579
        k(   41) = (   0.4545455  -0.0909091   0.0000000), wk =   0.0330579
        k(   42) = (  -0.3636364  -0.0909091   0.0000000), wk =   0.0330579
        k(   43) = (   0.4545455  -0.3636364   0.0000000), wk =   0.0330579
        k(   44) = (  -0.4545455   0.5454545   0.0000000), wk =   0.0330579
        k(   45) = (   0.5454545  -0.0909091   0.0000000), wk =   0.0330579
        k(   46) = (  -0.1818182   0.3636364   0.0000000), wk =   0.0330579
        k(   47) = (   0.3636364  -0.1818182   0.0000000), wk =   0.0330579
        k(   48) = (  -0.1818182   0.4545455   0.0000000), wk =   0.0330579
        k(   49) = (  -0.2727273   0.4545455   0.0000000), wk =   0.0330579
        k(   50) = (   0.4545455  -0.1818182   0.0000000), wk =   0.0330579
        k(   51) = (  -0.2727273  -0.1818182   0.0000000), wk =   0.0330579
        k(   52) = (   0.4545455  -0.2727273   0.0000000), wk =   0.0330579
        k(   53) = (  -0.1818182   0.5454545   0.0000000), wk =   0.0330579
        k(   54) = (  -0.3636364   0.5454545   0.0000000), wk =   0.0330579
        k(   55) = (   0.5454545  -0.1818182   0.0000000), wk =   0.0330579
        k(   56) = (  -0.3636364  -0.1818182   0.0000000), wk =   0.0330579
        k(   57) = (   0.5454545  -0.3636364   0.0000000), wk =   0.0330579
        k(   58) = (  -0.2727273   0.5454545   0.0000000), wk =   0.0330579
        k(   59) = (   0.5454545  -0.2727273   0.0000000), wk =   0.0330579
        k(   60) = (  -0.3636364   0.6363636   0.0000000), wk =   0.0330579
        k(   61) = (   0.6363636  -0.2727273   0.0000000), wk =   0.0330579

     Dense  grid:   135261 G-vectors     FFT dimensions: (  36,  36, 250)

     Smooth grid:    96835 G-vectors     FFT dimensions: (  32,  32, 225)

     Dynamical RAM for                 wfc:       3.88 MB

     Dynamical RAM for     wfc (w. buffer):     240.39 MB

     Dynamical RAM for           str. fact:       6.19 MB

     Dynamical RAM for           local pot:       0.00 MB

     Dynamical RAM for          nlocal pot:      12.19 MB

     Dynamical RAM for                qrad:       4.82 MB

     Dynamical RAM for          rho,v,vnew:      13.61 MB

     Dynamical RAM for               rhoin:       4.54 MB

     Dynamical RAM for            rho*nmix:      33.02 MB

     Dynamical RAM for           G-vectors:       8.48 MB

     Dynamical RAM for          h,s,v(r/c):       0.08 MB

     Dynamical RAM for          <psi|beta>:       0.02 MB

     Dynamical RAM for                 psi:       7.75 MB

     Dynamical RAM for                hpsi:       7.75 MB

     Dynamical RAM for      wfcinit/wfcrot:       7.76 MB

     Estimated static dynamical RAM per process >     310.82 MB

     Estimated max dynamical RAM per process >     359.45 MB
 ----2D----2D----2D----2D----2D----2D----2D----2D----2D----2D----2D----2D
  The code is running with the 2D cutoff
  Please refer to:
  Sohier, T., Calandra, M., & Mauri, F. (2017), 
  Density functional perturbation theory for gated two-dimensional heterostructures:
  Theoretical developments and application to flexural phonons in graphene.
  Physical Review B, 96(7), 75448. https://doi.org/10.1103/PhysRevB.96.075448
 ----2D----2D----2D----2D----2D----2D----2D----2D----2D----2D----2D----2D

     Initial potential from superposition of free atoms

     starting charge      41.9980, renormalised to      42.0000

     negative rho (up, down):  1.068E-06 0.000E+00
     Starting wfcs are   34 randomized atomic wfcs

     total cpu time spent up to now is        4.0 secs

     Self-consistent Calculation
[tb_dev] Currently allocated     1.51E+00 Mbytes, locked:    0 /   5
[tb_pin] Currently allocated     0.00E+00 Mbytes, locked:    0 /   0

     iteration #  1     ecut=    80.00 Ry     beta= 0.50
     Davidson diagonalization with overlap

---- Real-time Memory Report at c_bands before calling an iterative solver
           920 MiB given to the printing process from OS
             0 MiB allocation reported by mallinfo(arena+hblkhd)
          3320 MiB available memory on the node where the printing process lives
     GPU memory used/free/total (MiB): 2047 / 9867 / 11914
------------------
     ethr =  1.00E-02,  avg # of iterations =  2.0

     total cpu time spent up to now is        8.8 secs

     total energy              =    -262.47942858 Ry
     estimated scf accuracy    <       2.28125368 Ry
[tb_dev] Currently allocated     2.67E-05 Mbytes, locked:    0 /   1
[tb_pin] Currently allocated     0.00E+00 Mbytes, locked:    0 /   0

     iteration #  2     ecut=    80.00 Ry     beta= 0.50
     Davidson diagonalization with overlap

---- Real-time Memory Report at c_bands before calling an iterative solver
           933 MiB given to the printing process from OS
             0 MiB allocation reported by mallinfo(arena+hblkhd)
          2910 MiB available memory on the node where the printing process lives
     GPU memory used/free/total (MiB): 2067 / 9847 / 11914
------------------
     ethr =  5.43E-03,  avg # of iterations =  6.9

     total cpu time spent up to now is       17.4 secs

     total energy              =    -262.42773408 Ry
     estimated scf accuracy    <       4.87857356 Ry
[tb_dev] Currently allocated     2.67E-05 Mbytes, locked:    0 /   1
[tb_pin] Currently allocated     0.00E+00 Mbytes, locked:    0 /   0

     iteration #  3     ecut=    80.00 Ry     beta= 0.50
     Davidson diagonalization with overlap

---- Real-time Memory Report at c_bands before calling an iterative solver
           956 MiB given to the printing process from OS
             0 MiB allocation reported by mallinfo(arena+hblkhd)
          2897 MiB available memory on the node where the printing process lives
     GPU memory used/free/total (MiB): 2067 / 9847 / 11914
------------------
     ethr =  5.43E-03,  avg # of iterations =  5.2

     total cpu time spent up to now is       23.7 secs

     total energy              =    -263.22825265 Ry
     estimated scf accuracy    <       0.80790155 Ry
[tb_dev] Currently allocated     2.67E-05 Mbytes, locked:    0 /   1
[tb_pin] Currently allocated     0.00E+00 Mbytes, locked:    0 /   0

     iteration #  4     ecut=    80.00 Ry     beta= 0.50
     Davidson diagonalization with overlap

---- Real-time Memory Report at c_bands before calling an iterative solver
           959 MiB given to the printing process from OS
             0 MiB allocation reported by mallinfo(arena+hblkhd)
          2894 MiB available memory on the node where the printing process lives
     GPU memory used/free/total (MiB): 2067 / 9847 / 11914
------------------
     ethr =  1.92E-03,  avg # of iterations =  2.9

     total cpu time spent up to now is       28.8 secs

     total energy              =    -263.30888637 Ry
     estimated scf accuracy    <       0.14020625 Ry
[tb_dev] Currently allocated     2.67E-05 Mbytes, locked:    0 /   1
[tb_pin] Currently allocated     0.00E+00 Mbytes, locked:    0 /   0

     iteration #  5     ecut=    80.00 Ry     beta= 0.50
     Davidson diagonalization with overlap

---- Real-time Memory Report at c_bands before calling an iterative solver
           962 MiB given to the printing process from OS
             0 MiB allocation reported by mallinfo(arena+hblkhd)
          2889 MiB available memory on the node where the printing process lives
     GPU memory used/free/total (MiB): 2067 / 9847 / 11914
------------------
     ethr =  3.34E-04,  avg # of iterations =  4.0

     total cpu time spent up to now is       34.4 secs

     total energy              =    -263.33771742 Ry
     estimated scf accuracy    <       0.01306805 Ry
[tb_dev] Currently allocated     2.67E-05 Mbytes, locked:    0 /   1
[tb_pin] Currently allocated     0.00E+00 Mbytes, locked:    0 /   0

     iteration #  6     ecut=    80.00 Ry     beta= 0.50
     Davidson diagonalization with overlap

---- Real-time Memory Report at c_bands before calling an iterative solver
           967 MiB given to the printing process from OS
             0 MiB allocation reported by mallinfo(arena+hblkhd)
          2886 MiB available memory on the node where the printing process lives
     GPU memory used/free/total (MiB): 2067 / 9847 / 11914
------------------
     ethr =  3.11E-05,  avg # of iterations =  7.5

     total cpu time spent up to now is       43.0 secs

     total energy              =    -263.34286345 Ry
     estimated scf accuracy    <       0.03470806 Ry
[tb_dev] Currently allocated     2.67E-05 Mbytes, locked:    0 /   1
[tb_pin] Currently allocated     0.00E+00 Mbytes, locked:    0 /   0

     iteration #  7     ecut=    80.00 Ry     beta= 0.50
     Davidson diagonalization with overlap

---- Real-time Memory Report at c_bands before calling an iterative solver
           971 MiB given to the printing process from OS
             0 MiB allocation reported by mallinfo(arena+hblkhd)
          2879 MiB available memory on the node where the printing process lives
     GPU memory used/free/total (MiB): 2069 / 9845 / 11914
------------------
     ethr =  3.11E-05,  avg # of iterations =  5.3

     total cpu time spent up to now is       49.7 secs

     total energy              =    -263.34421805 Ry
     estimated scf accuracy    <       0.01224202 Ry
[tb_dev] Currently allocated     2.67E-05 Mbytes, locked:    0 /   1
[tb_pin] Currently allocated     0.00E+00 Mbytes, locked:    0 /   0

     iteration #  8     ecut=    80.00 Ry     beta= 0.50
     Davidson diagonalization with overlap

---- Real-time Memory Report at c_bands before calling an iterative solver
           976 MiB given to the printing process from OS
             0 MiB allocation reported by mallinfo(arena+hblkhd)
          2873 MiB available memory on the node where the printing process lives
     GPU memory used/free/total (MiB): 2069 / 9845 / 11914
------------------
     ethr =  2.91E-05,  avg # of iterations =  2.4

     total cpu time spent up to now is       54.2 secs

     total energy              =    -263.34398059 Ry
     estimated scf accuracy    <       0.00440994 Ry
[tb_dev] Currently allocated     2.67E-05 Mbytes, locked:    0 /   1
[tb_pin] Currently allocated     0.00E+00 Mbytes, locked:    0 /   0

     iteration #  9     ecut=    80.00 Ry     beta= 0.50
     Davidson diagonalization with overlap

---- Real-time Memory Report at c_bands before calling an iterative solver
           980 MiB given to the printing process from OS
             0 MiB allocation reported by mallinfo(arena+hblkhd)
          2866 MiB available memory on the node where the printing process lives
     GPU memory used/free/total (MiB): 2069 / 9845 / 11914
------------------
     ethr =  1.05E-05,  avg # of iterations =  5.3

     total cpu time spent up to now is       60.7 secs

     total energy              =    -263.34502450 Ry
     estimated scf accuracy    <       0.00128950 Ry
[tb_dev] Currently allocated     2.67E-05 Mbytes, locked:    0 /   1
[tb_pin] Currently allocated     0.00E+00 Mbytes, locked:    0 /   0

     iteration # 10     ecut=    80.00 Ry     beta= 0.50
     Davidson diagonalization with overlap

---- Real-time Memory Report at c_bands before calling an iterative solver
           984 MiB given to the printing process from OS
             0 MiB allocation reported by mallinfo(arena+hblkhd)
          2863 MiB available memory on the node where the printing process lives
     GPU memory used/free/total (MiB): 2069 / 9845 / 11914
------------------
     ethr =  3.07E-06,  avg # of iterations =  3.8

     total cpu time spent up to now is       66.2 secs

     total energy              =    -263.34516820 Ry
     estimated scf accuracy    <       0.00020299 Ry
[tb_dev] Currently allocated     2.67E-05 Mbytes, locked:    0 /   1
[tb_pin] Currently allocated     0.00E+00 Mbytes, locked:    0 /   0

     iteration # 11     ecut=    80.00 Ry     beta= 0.50
     Davidson diagonalization with overlap

---- Real-time Memory Report at c_bands before calling an iterative solver
           984 MiB given to the printing process from OS
             0 MiB allocation reported by mallinfo(arena+hblkhd)
          2863 MiB available memory on the node where the printing process lives
     GPU memory used/free/total (MiB): 2069 / 9845 / 11914
------------------
     ethr =  4.83E-07,  avg # of iterations =  5.6

     total cpu time spent up to now is       73.3 secs

     total energy              =    -263.34522309 Ry
     estimated scf accuracy    <       0.00003609 Ry
[tb_dev] Currently allocated     2.67E-05 Mbytes, locked:    0 /   1
[tb_pin] Currently allocated     0.00E+00 Mbytes, locked:    0 /   0

     iteration # 12     ecut=    80.00 Ry     beta= 0.50
     Davidson diagonalization with overlap

---- Real-time Memory Report at c_bands before calling an iterative solver
           984 MiB given to the printing process from OS
             0 MiB allocation reported by mallinfo(arena+hblkhd)
          2866 MiB available memory on the node where the printing process lives
     GPU memory used/free/total (MiB): 2069 / 9845 / 11914
------------------
     ethr =  8.59E-08,  avg # of iterations =  6.9

     total cpu time spent up to now is       81.2 secs

     total energy              =    -263.34523468 Ry
     estimated scf accuracy    <       0.00001994 Ry
[tb_dev] Currently allocated     2.67E-05 Mbytes, locked:    0 /   1
[tb_pin] Currently allocated     0.00E+00 Mbytes, locked:    0 /   0

     iteration # 13     ecut=    80.00 Ry     beta= 0.50
     Davidson diagonalization with overlap

---- Real-time Memory Report at c_bands before calling an iterative solver
           985 MiB given to the printing process from OS
             0 MiB allocation reported by mallinfo(arena+hblkhd)
          2867 MiB available memory on the node where the printing process lives
     GPU memory used/free/total (MiB): 2069 / 9845 / 11914
------------------
     ethr =  4.75E-08,  avg # of iterations =  4.9

     total cpu time spent up to now is       87.4 secs

     total energy              =    -263.34523776 Ry
     estimated scf accuracy    <       0.00000086 Ry
[tb_dev] Currently allocated     2.67E-05 Mbytes, locked:    0 /   1
[tb_pin] Currently allocated     0.00E+00 Mbytes, locked:    0 /   0

     iteration # 14     ecut=    80.00 Ry     beta= 0.50
     Davidson diagonalization with overlap

---- Real-time Memory Report at c_bands before calling an iterative solver
           985 MiB given to the printing process from OS
             0 MiB allocation reported by mallinfo(arena+hblkhd)
          2864 MiB available memory on the node where the printing process lives
     GPU memory used/free/total (MiB): 2069 / 9845 / 11914
------------------
     ethr =  2.05E-09,  avg # of iterations =  8.0

     total cpu time spent up to now is       97.3 secs

     total energy              =    -263.34523790 Ry
     estimated scf accuracy    <       0.00000356 Ry
[tb_dev] Currently allocated     2.67E-05 Mbytes, locked:    0 /   1
[tb_pin] Currently allocated     0.00E+00 Mbytes, locked:    0 /   0

     iteration # 15     ecut=    80.00 Ry     beta= 0.50
     Davidson diagonalization with overlap

---- Real-time Memory Report at c_bands before calling an iterative solver
           985 MiB given to the printing process from OS
             0 MiB allocation reported by mallinfo(arena+hblkhd)
          4479 MiB available memory on the node where the printing process lives
     GPU memory used/free/total (MiB): 2069 / 9845 / 11914
------------------
     ethr =  2.05E-09,  avg # of iterations =  6.2

     total cpu time spent up to now is      104.9 secs

     total energy              =    -263.34523832 Ry
     estimated scf accuracy    <       0.00000001 Ry
[tb_dev] Currently allocated     2.67E-05 Mbytes, locked:    0 /   1
[tb_pin] Currently allocated     0.00E+00 Mbytes, locked:    0 /   0

     iteration # 16     ecut=    80.00 Ry     beta= 0.50
     Davidson diagonalization with overlap

---- Real-time Memory Report at c_bands before calling an iterative solver
           985 MiB given to the printing process from OS
             0 MiB allocation reported by mallinfo(arena+hblkhd)
          4477 MiB available memory on the node where the printing process lives
     GPU memory used/free/total (MiB): 2069 / 9845 / 11914
------------------
     ethr =  2.97E-11,  avg # of iterations =  9.8

     total cpu time spent up to now is      117.0 secs

     total energy              =    -263.34523834 Ry
     estimated scf accuracy    <       0.00000008 Ry
[tb_dev] Currently allocated     2.67E-05 Mbytes, locked:    0 /   1
[tb_pin] Currently allocated     0.00E+00 Mbytes, locked:    0 /   0

     iteration # 17     ecut=    80.00 Ry     beta= 0.50
     Davidson diagonalization with overlap

---- Real-time Memory Report at c_bands before calling an iterative solver
           985 MiB given to the printing process from OS
             0 MiB allocation reported by mallinfo(arena+hblkhd)
          3594 MiB available memory on the node where the printing process lives
     GPU memory used/free/total (MiB): 2069 / 9845 / 11914
------------------
     ethr =  2.97E-11,  avg # of iterations =  6.8

     total cpu time spent up to now is      124.5 secs

     total energy              =    -263.34523834 Ry
     estimated scf accuracy    <          4.0E-09 Ry
[tb_dev] Currently allocated     2.67E-05 Mbytes, locked:    0 /   1
[tb_pin] Currently allocated     0.00E+00 Mbytes, locked:    0 /   0

     iteration # 18     ecut=    80.00 Ry     beta= 0.50
     Davidson diagonalization with overlap

---- Real-time Memory Report at c_bands before calling an iterative solver
           985 MiB given to the printing process from OS
             0 MiB allocation reported by mallinfo(arena+hblkhd)
          3446 MiB available memory on the node where the printing process lives
     GPU memory used/free/total (MiB): 2069 / 9845 / 11914
------------------
     ethr =  9.54E-12,  avg # of iterations =  5.9

     total cpu time spent up to now is      131.4 secs

     total energy              =    -263.34523834 Ry
     estimated scf accuracy    <          2.3E-09 Ry
[tb_dev] Currently allocated     2.67E-05 Mbytes, locked:    0 /   1
[tb_pin] Currently allocated     0.00E+00 Mbytes, locked:    0 /   0

     iteration # 19     ecut=    80.00 Ry     beta= 0.50
     Davidson diagonalization with overlap

---- Real-time Memory Report at c_bands before calling an iterative solver
           986 MiB given to the printing process from OS
             0 MiB allocation reported by mallinfo(arena+hblkhd)
          3453 MiB available memory on the node where the printing process lives
     GPU memory used/free/total (MiB): 2069 / 9845 / 11914
------------------
     ethr =  5.57E-12,  avg # of iterations =  5.1

     total cpu time spent up to now is      138.2 secs

     total energy              =    -263.34523834 Ry
     estimated scf accuracy    <          5.1E-10 Ry
[tb_dev] Currently allocated     2.67E-05 Mbytes, locked:    0 /   1
[tb_pin] Currently allocated     0.00E+00 Mbytes, locked:    0 /   0

     iteration # 20     ecut=    80.00 Ry     beta= 0.50
     Davidson diagonalization with overlap

---- Real-time Memory Report at c_bands before calling an iterative solver
           986 MiB given to the printing process from OS
             0 MiB allocation reported by mallinfo(arena+hblkhd)
          3451 MiB available memory on the node where the printing process lives
     GPU memory used/free/total (MiB): 2069 / 9845 / 11914
------------------
     ethr =  1.20E-12,  avg # of iterations =  6.0

     total cpu time spent up to now is      145.1 secs

     total energy              =    -263.34523834 Ry
     estimated scf accuracy    <          1.9E-10 Ry
[tb_dev] Currently allocated     2.67E-05 Mbytes, locked:    0 /   1
[tb_pin] Currently allocated     0.00E+00 Mbytes, locked:    0 /   0

     iteration # 21     ecut=    80.00 Ry     beta= 0.50
     Davidson diagonalization with overlap

---- Real-time Memory Report at c_bands before calling an iterative solver
           986 MiB given to the printing process from OS
             0 MiB allocation reported by mallinfo(arena+hblkhd)
          3259 MiB available memory on the node where the printing process lives
     GPU memory used/free/total (MiB): 2069 / 9845 / 11914
------------------
     ethr =  4.62E-13,  avg # of iterations =  2.4

     total cpu time spent up to now is      149.6 secs

     End of self-consistent calculation

          k = 0.0000 0.0000 0.0000 ( 12189 PWs)   bands (ev):

   -77.7615 -48.9806 -48.9806 -48.9032 -24.2584 -24.1685 -21.5557 -20.1537
   -13.7697 -11.1114  -9.2102  -9.2101  -9.2042  -9.1529  -9.1528  -8.7442
    -8.7440  -7.4536  -7.4527  -7.3160  -5.2634

     occupation numbers 
     1.0000   1.0000   1.0000   1.0000   1.0000   1.0000   1.0000   1.0000
     1.0000   1.0000   1.0000   1.0000   1.0000   1.0000   1.0000   1.0000
     1.0000   1.0000   1.0000   1.0000   1.0000

          k = 0.0000 0.1050 0.0000 ( 12153 PWs)   bands (ev):

   -77.7591 -49.0000 -48.9850 -48.8997 -24.1203 -24.0323 -21.4522 -20.0986
   -13.6630 -11.0638  -9.8726  -9.7983  -9.3377  -9.2915  -9.0466  -8.9604
    -8.6589  -7.6801  -7.5908  -7.1655  -5.3712

     occupation numbers 
     1.0000   1.0000   1.0000   1.0000   1.0000   1.0000   1.0000   1.0000
     1.0000   1.0000   1.0000   1.0000   1.0000   1.0000   1.0000   1.0000
     1.0000   1.0000   1.0000   1.0000   1.0000

          k = 0.0000 0.2099 0.0000 ( 12103 PWs)   bands (ev):

   -77.7526 -49.0520 -48.9969 -48.8904 -23.7177 -23.6350 -21.1683 -19.9506
   -13.4115 -11.3151 -11.1395 -10.8428  -9.6672  -9.6330  -9.5926  -8.7802
    -8.4087  -8.0624  -7.9217  -7.2505  -5.7326

     occupation numbers 
     1.0000   1.0000   1.0000   1.0000   1.0000   1.0000   1.0000   1.0000
     1.0000   1.0000   1.0000   1.0000   1.0000   1.0000   1.0000   1.0000
     1.0000   1.0000   1.0000   1.0000   1.0000

          k = 0.0000 0.3149 0.0000 ( 12067 PWs)   bands (ev):

   -77.7440 -49.1194 -49.0124 -48.8782 -23.0926 -23.0178 -20.7883 -19.7666
   -13.4881 -12.8511 -12.2089 -10.7750 -10.2421 -10.0612 -10.0250  -8.6631
    -8.4601  -8.3084  -8.0401  -7.4246  -6.1079

     occupation numbers 
     1.0000   1.0000   1.0000   1.0000   1.0000   1.0000   1.0000   1.0000
     1.0000   1.0000   1.0000   1.0000   1.0000   1.0000   1.0000   1.0000
     1.0000   1.0000   1.0000   1.0000   1.0000

          k = 0.0000 0.4199 0.0000 ( 12086 PWs)   bands (ev):

   -77.7362 -49.1809 -49.0266 -48.8669 -22.3465 -22.2813 -20.4617 -19.6474
   -14.5179 -14.2254 -12.1982 -11.0305 -10.5775 -10.3887 -10.3453  -9.0670
    -8.6103  -8.2336  -7.6843  -7.5058  -6.2320

     occupation numbers 
     1.0000   1.0000   1.0000   1.0000   1.0000   1.0000   1.0000   1.0000
     1.0000   1.0000   1.0000   1.0000   1.0000   1.0000   1.0000   1.0000
     1.0000   1.0000   1.0000   1.0000   1.0000

          k = 0.0000 0.5249 0.0000 ( 12090 PWs)   bands (ev):

   -77.7316 -49.2172 -49.0350 -48.8602 -21.7330 -21.6766 -20.3440 -19.6672
   -15.3161 -15.0513 -12.0240 -11.4187 -10.7028 -10.5697 -10.5218  -9.2158
    -8.7780  -7.9989  -7.5226  -7.4531  -6.1946

     occupation numbers 
     1.0000   1.0000   1.0000   1.0000   1.0000   1.0000   1.0000   1.0000
     1.0000   1.0000   1.0000   1.0000   1.0000   1.0000   1.0000   1.0000
     1.0000   1.0000   1.0000   1.0000   1.0000

          k = 0.0909 0.1575 0.0000 ( 12091 PWs)   bands (ev):

   -77.7546 -49.0346 -48.9943 -48.8933 -23.8498 -23.7654 -21.2583 -19.9967
   -13.4802 -11.0401 -10.7246 -10.6653  -9.7435  -9.6331  -9.2876  -8.8419
    -8.5169  -7.9716  -7.8157  -7.1597  -5.6154

     occupation numbers 
     1.0000   1.0000   1.0000   1.0000   1.0000   1.0000   1.0000   1.0000
     1.0000   1.0000   1.0000   1.0000   1.0000   1.0000   1.0000   1.0000
     1.0000   1.0000   1.0000   1.0000   1.0000

          k = 0.0909 0.2624 0.0000 ( 12077 PWs)   bands (ev):

   -77.7471 -49.0913 -49.0109 -48.8825 -23.3343 -23.2565 -20.9245 -19.8284
   -13.3161 -12.1639 -11.8343 -10.7809 -10.3580 -10.1579  -9.7641  -8.6553
    -8.5596  -8.2458  -7.9511  -7.3314  -5.9965

     occupation numbers 
     1.0000   1.0000   1.0000   1.0000   1.0000   1.0000   1.0000   1.0000
     1.0000   1.0000   1.0000   1.0000   1.0000   1.0000   1.0000   1.0000
     1.0000   1.0000   1.0000   1.0000   1.0000

          k = 0.0909 0.3674 0.0000 ( 12083 PWs)   bands (ev):

   -77.7389 -49.1525 -49.0291 -48.8708 -22.6403 -22.5711 -20.5656 -19.6709
   -13.9428 -13.5653 -12.2184 -10.9835 -10.7148 -10.5256 -10.2745  -9.1703
    -8.4172  -8.1579  -7.9556  -7.4787  -6.2278

     occupation numbers 
     1.0000   1.0000   1.0000   1.0000   1.0000   1.0000   1.0000   1.0000
     1.0000   1.0000   1.0000   1.0000   1.0000   1.0000   1.0000   1.0000
     1.0000   1.0000   1.0000   1.0000   1.0000

          k = 0.0909 0.4724 0.0000 ( 12114 PWs)   bands (ev):

   -77.7327 -49.1988 -49.0430 -48.8618 -21.9267 -21.8672 -20.3471 -19.6268
   -14.9203 -14.6491 -12.0610 -11.3743 -10.9808 -10.7353 -10.5763  -9.3705
    -8.6096  -8.0559  -7.8073  -7.4398  -6.2046

     occupation numbers 
     1.0000   1.0000   1.0000   1.0000   1.0000   1.0000   1.0000   1.0000
     1.0000   1.0000   1.0000   1.0000   1.0000   1.0000   1.0000   1.0000
     1.0000   1.0000   1.0000   1.0000   1.0000

          k = 0.0909 0.5774 0.0000 ( 12090 PWs)   bands (ev):

   -77.7303 -49.2160 -49.0481 -48.8584 -21.5711 -21.5158 -20.3205 -19.6656
   -15.3303 -15.0643 -11.9616 -11.5477 -11.0227 -10.9594 -10.6579  -9.3220
    -8.7970  -7.9403  -7.7387  -7.4086  -6.1432

     occupation numbers 
     1.0000   1.0000   1.0000   1.0000   1.0000   1.0000   1.0000   1.0000
     1.0000   1.0000   1.0000   1.0000   1.0000   1.0000   1.0000   1.0000
     1.0000   1.0000   1.0000   1.0000   1.0000

          k = 0.1818 0.3149 0.0000 ( 12078 PWs)   bands (ev):

   -77.7399 -49.1364 -49.0355 -48.8722 -22.7446 -22.6740 -20.6072 -19.6813
   -13.6342 -13.1361 -12.1167 -11.2573 -11.0994 -10.5501 -10.1112  -9.3005
    -8.4243  -8.2181  -7.7955  -7.5396  -6.2284

     occupation numbers 
     1.0000   1.0000   1.0000   1.0000   1.0000   1.0000   1.0000   1.0000
     1.0000   1.0000   1.0000   1.0000   1.0000   1.0000   1.0000   1.0000
     1.0000   1.0000   1.0000   1.0000   1.0000

          k = 0.1818 0.4199 0.0000 ( 12116 PWs)   bands (ev):

   -77.7333 -49.1744 -49.0613 -48.8627 -22.0531 -21.9911 -20.3496 -19.5934
   -14.3829 -14.0718 -12.1205 -11.8897 -11.7009 -10.5526 -10.4420  -9.6897
    -8.4596  -8.3152  -7.8814  -7.4773  -6.2262

     occupation numbers 
     1.0000   1.0000   1.0000   1.0000   1.0000   1.0000   1.0000   1.0000
     1.0000   1.0000   1.0000   1.0000   1.0000   1.0000   1.0000   1.0000
     1.0000   1.0000   1.0000   1.0000   1.0000

          k = 0.1818 0.5249 0.0000 ( 12106 PWs)   bands (ev):

   -77.7294 -49.1959 -49.0775 -48.8571 -21.4999 -21.4441 -20.2701 -19.6150
   -14.9647 -14.6892 -12.3977 -12.2283 -11.4839 -10.9345 -10.6745  -9.5057
    -8.8037  -8.4576  -7.8263  -7.3142  -6.0769

     occupation numbers 
     1.0000   1.0000   1.0000   1.0000   1.0000   1.0000   1.0000   1.0000
     1.0000   1.0000   1.0000   1.0000   1.0000   1.0000   1.0000   1.0000
     1.0000   1.0000   1.0000   1.0000   1.0000

          k = 0.2727 0.4724 0.0000 ( 12092 PWs)   bands (ev):

   -77.7291 -49.1787 -49.0983 -48.8566 -21.4869 -21.4308 -20.2424 -19.5835
   -14.6115 -14.3014 -12.9635 -12.8274 -11.5335 -10.7289 -10.5266  -9.6895
    -9.0914  -8.5259  -7.8391  -7.2949  -6.0481

     occupation numbers 
     1.0000   1.0000   1.0000   1.0000   1.0000   1.0000   1.0000   1.0000
     1.0000   1.0000   1.0000   1.0000   1.0000   1.0000   1.0000   1.0000
     1.0000   1.0000   1.0000   1.0000   1.0000

          k = 0.2727 0.5774 0.0000 ( 12086 PWs)   bands (ev):

   -77.7275 -49.1742 -49.1182 -48.8543 -21.2268 -21.1683 -20.2409 -19.6066
   -14.6499 -14.3274 -13.3696 -13.2767 -11.2606 -10.8906 -10.5786  -9.6689
    -9.2404  -8.8235  -7.7745  -7.1982  -5.9153

     occupation numbers 
     1.0000   1.0000   1.0000   1.0000   1.0000   1.0000   1.0000   1.0000
     1.0000   1.0000   1.0000   1.0000   1.0000   1.0000   1.0000   1.0000
     1.0000   1.0000   1.0000   1.0000   1.0000

          k =-0.0909 0.0525 0.0000 ( 12153 PWs)   bands (ev):

   -77.7591 -49.0001 -48.9850 -48.8997 -24.1203 -24.0323 -21.4522 -20.0986
   -13.6630 -11.0638  -9.8727  -9.7983  -9.3376  -9.2915  -9.0467  -8.9605
    -8.6588  -7.6795  -7.5914  -7.1656  -5.3711

     occupation numbers 
     1.0000   1.0000   1.0000   1.0000   1.0000   1.0000   1.0000   1.0000
     1.0000   1.0000   1.0000   1.0000   1.0000   1.0000   1.0000   1.0000
     1.0000   1.0000   1.0000   1.0000   1.0000

          k = 0.0909 0.0525 0.0000 ( 12153 PWs)   bands (ev):

   -77.7591 -49.0000 -48.9850 -48.8997 -24.1203 -24.0323 -21.4522 -20.0986
   -13.6630 -11.0638  -9.8726  -9.7983  -9.3377  -9.2915  -9.0466  -8.9604
    -8.6589  -7.6801  -7.5908  -7.1655  -5.3712

     occupation numbers 
     1.0000   1.0000   1.0000   1.0000   1.0000   1.0000   1.0000   1.0000
     1.0000   1.0000   1.0000   1.0000   1.0000   1.0000   1.0000   1.0000
     1.0000   1.0000   1.0000   1.0000   1.0000

          k =-0.1818 0.1050 0.0000 ( 12103 PWs)   bands (ev):

   -77.7526 -49.0520 -48.9969 -48.8904 -23.7177 -23.6350 -21.1684 -19.9506
   -13.4115 -11.3151 -11.1396 -10.8428  -9.6671  -9.6331  -9.5928  -8.7802
    -8.4086  -8.0620  -7.9221  -7.2507  -5.7324

     occupation numbers 
     1.0000   1.0000   1.0000   1.0000   1.0000   1.0000   1.0000   1.0000
     1.0000   1.0000   1.0000   1.0000   1.0000   1.0000   1.0000   1.0000
     1.0000   1.0000   1.0000   1.0000   1.0000

          k = 0.1818 0.1050 0.0000 ( 12103 PWs)   bands (ev):

   -77.7526 -49.0520 -48.9969 -48.8904 -23.7177 -23.6350 -21.1683 -19.9506
   -13.4115 -11.3151 -11.1395 -10.8428  -9.6672  -9.6330  -9.5926  -8.7802
    -8.4087  -8.0624  -7.9217  -7.2505  -5.7326

     occupation numbers 
     1.0000   1.0000   1.0000   1.0000   1.0000   1.0000   1.0000   1.0000
     1.0000   1.0000   1.0000   1.0000   1.0000   1.0000   1.0000   1.0000
     1.0000   1.0000   1.0000   1.0000   1.0000

          k =-0.2727 0.1575 0.0000 ( 12067 PWs)   bands (ev):

   -77.7440 -49.1194 -49.0124 -48.8782 -23.0926 -23.0178 -20.7883 -19.7665
   -13.4882 -12.8511 -12.2089 -10.7749 -10.2421 -10.0611 -10.0250  -8.6631
    -8.4600  -8.3088  -8.0400  -7.4247  -6.1076

     occupation numbers 
     1.0000   1.0000   1.0000   1.0000   1.0000   1.0000   1.0000   1.0000
     1.0000   1.0000   1.0000   1.0000   1.0000   1.0000   1.0000   1.0000
     1.0000   1.0000   1.0000   1.0000   1.0000

          k = 0.2727 0.1575 0.0000 ( 12067 PWs)   bands (ev):

   -77.7440 -49.1194 -49.0124 -48.8782 -23.0926 -23.0178 -20.7883 -19.7666
   -13.4881 -12.8511 -12.2089 -10.7750 -10.2421 -10.0612 -10.0250  -8.6631
    -8.4601  -8.3084  -8.0401  -7.4246  -6.1079

     occupation numbers 
     1.0000   1.0000   1.0000   1.0000   1.0000   1.0000   1.0000   1.0000
     1.0000   1.0000   1.0000   1.0000   1.0000   1.0000   1.0000   1.0000
     1.0000   1.0000   1.0000   1.0000   1.0000

          k =-0.3636 0.2099 0.0000 ( 12086 PWs)   bands (ev):

   -77.7362 -49.1809 -49.0266 -48.8669 -22.3466 -22.2813 -20.4617 -19.6474
   -14.5180 -14.2254 -12.1983 -11.0306 -10.5773 -10.3886 -10.3453  -9.0670
    -8.6106  -8.2335  -7.6843  -7.5059  -6.2318

     occupation numbers 
     1.0000   1.0000   1.0000   1.0000   1.0000   1.0000   1.0000   1.0000
     1.0000   1.0000   1.0000   1.0000   1.0000   1.0000   1.0000   1.0000
     1.0000   1.0000   1.0000   1.0000   1.0000

          k = 0.3636 0.2099 0.0000 ( 12086 PWs)   bands (ev):

   -77.7362 -49.1809 -49.0266 -48.8669 -22.3466 -22.2813 -20.4617 -19.6474
   -14.5179 -14.2254 -12.1982 -11.0305 -10.5775 -10.3887 -10.3453  -9.0670
    -8.6103  -8.2335  -7.6843  -7.5058  -6.2320

     occupation numbers 
     1.0000   1.0000   1.0000   1.0000   1.0000   1.0000   1.0000   1.0000
     1.0000   1.0000   1.0000   1.0000   1.0000   1.0000   1.0000   1.0000
     1.0000   1.0000   1.0000   1.0000   1.0000

          k =-0.4545 0.2624 0.0000 ( 12090 PWs)   bands (ev):

   -77.7316 -49.2172 -49.0350 -48.8602 -21.7330 -21.6765 -20.3441 -19.6671
   -15.3162 -15.0512 -12.0243 -11.4186 -10.7028 -10.5697 -10.5218  -9.2157
    -8.7782  -7.9988  -7.5229  -7.4531  -6.1943

     occupation numbers 
     1.0000   1.0000   1.0000   1.0000   1.0000   1.0000   1.0000   1.0000
     1.0000   1.0000   1.0000   1.0000   1.0000   1.0000   1.0000   1.0000
     1.0000   1.0000   1.0000   1.0000   1.0000

          k = 0.4545 0.2624 0.0000 ( 12090 PWs)   bands (ev):

   -77.7316 -49.2172 -49.0350 -48.8602 -21.7330 -21.6766 -20.3440 -19.6672
   -15.3161 -15.0513 -12.0241 -11.4187 -10.7028 -10.5697 -10.5218  -9.2158
    -8.7780  -7.9989  -7.5226  -7.4531  -6.1946

     occupation numbers 
     1.0000   1.0000   1.0000   1.0000   1.0000   1.0000   1.0000   1.0000
     1.0000   1.0000   1.0000   1.0000   1.0000   1.0000   1.0000   1.0000
     1.0000   1.0000   1.0000   1.0000   1.0000

          k =-0.0909 0.1575 0.0000 ( 12091 PWs)   bands (ev):

   -77.7546 -49.0346 -48.9943 -48.8933 -23.8498 -23.7654 -21.2583 -19.9967
   -13.4802 -11.0400 -10.7247 -10.6653  -9.7435  -9.6331  -9.2877  -8.8419
    -8.5168  -7.9720  -7.8152  -7.1600  -5.6153

     occupation numbers 
     1.0000   1.0000   1.0000   1.0000   1.0000   1.0000   1.0000   1.0000
     1.0000   1.0000   1.0000   1.0000   1.0000   1.0000   1.0000   1.0000
     1.0000   1.0000   1.0000   1.0000   1.0000

          k = 0.1818 0.0000 0.0000 ( 12091 PWs)   bands (ev):

   -77.7546 -49.0346 -48.9943 -48.8933 -23.8498 -23.7654 -21.2583 -19.9967
   -13.4802 -11.0400 -10.7247 -10.6653  -9.7435  -9.6331  -9.2877  -8.8419
    -8.5168  -7.9719  -7.8152  -7.1600  -5.6153

     occupation numbers 
     1.0000   1.0000   1.0000   1.0000   1.0000   1.0000   1.0000   1.0000
     1.0000   1.0000   1.0000   1.0000   1.0000   1.0000   1.0000   1.0000
     1.0000   1.0000   1.0000   1.0000   1.0000

          k =-0.0909 0.2624 0.0000 ( 12077 PWs)   bands (ev):

   -77.7471 -49.0913 -49.0109 -48.8825 -23.3343 -23.2565 -20.9245 -19.8284
   -13.3161 -12.1639 -11.8343 -10.7808 -10.3581 -10.1579  -9.7642  -8.6554
    -8.5597  -8.2457  -7.9507  -7.3318  -5.9964

     occupation numbers 
     1.0000   1.0000   1.0000   1.0000   1.0000   1.0000   1.0000   1.0000
     1.0000   1.0000   1.0000   1.0000   1.0000   1.0000   1.0000   1.0000
     1.0000   1.0000   1.0000   1.0000   1.0000

          k =-0.1818 0.2099 0.0000 ( 12077 PWs)   bands (ev):

   -77.7471 -49.0913 -49.0109 -48.8825 -23.3343 -23.2565 -20.9245 -19.8284
   -13.3162 -12.1639 -11.8343 -10.7808 -10.3581 -10.1579  -9.7642  -8.6554
    -8.5597  -8.2457  -7.9509  -7.3318  -5.9963

     occupation numbers 
     1.0000   1.0000   1.0000   1.0000   1.0000   1.0000   1.0000   1.0000
     1.0000   1.0000   1.0000   1.0000   1.0000   1.0000   1.0000   1.0000
     1.0000   1.0000   1.0000   1.0000   1.0000

          k = 0.2727 0.0525 0.0000 ( 12077 PWs)   bands (ev):

   -77.7471 -49.0913 -49.0109 -48.8825 -23.3343 -23.2565 -20.9245 -19.8284
   -13.3161 -12.1639 -11.8343 -10.7808 -10.3581 -10.1579  -9.7642  -8.6555
    -8.5597  -8.2457  -7.9507  -7.3318  -5.9964

     occupation numbers 
     1.0000   1.0000   1.0000   1.0000   1.0000   1.0000   1.0000   1.0000
     1.0000   1.0000   1.0000   1.0000   1.0000   1.0000   1.0000   1.0000
     1.0000   1.0000   1.0000   1.0000   1.0000

          k =-0.1818-0.2099 0.0000 ( 12077 PWs)   bands (ev):

   -77.7471 -49.0913 -49.0109 -48.8825 -23.3343 -23.2565 -20.9245 -19.8284
   -13.3161 -12.1639 -11.8343 -10.7809 -10.3580 -10.1579  -9.7641  -8.6553
    -8.5596  -8.2458  -7.9511  -7.3314  -5.9965

     occupation numbers 
     1.0000   1.0000   1.0000   1.0000   1.0000   1.0000   1.0000   1.0000
     1.0000   1.0000   1.0000   1.0000   1.0000   1.0000   1.0000   1.0000
     1.0000   1.0000   1.0000   1.0000   1.0000

          k = 0.2727-0.0525 0.0000 ( 12077 PWs)   bands (ev):

   -77.7471 -49.0913 -49.0109 -48.8825 -23.3343 -23.2565 -20.9245 -19.8284
   -13.3162 -12.1639 -11.8343 -10.7808 -10.3581 -10.1579  -9.7642  -8.6554
    -8.5597  -8.2456  -7.9509  -7.3318  -5.9963

     occupation numbers 
     1.0000   1.0000   1.0000   1.0000   1.0000   1.0000   1.0000   1.0000
     1.0000   1.0000   1.0000   1.0000   1.0000   1.0000   1.0000   1.0000
     1.0000   1.0000   1.0000   1.0000   1.0000

          k =-0.0909 0.3674 0.0000 ( 12083 PWs)   bands (ev):

   -77.7389 -49.1525 -49.0291 -48.8708 -22.6403 -22.5711 -20.5656 -19.6709
   -13.9428 -13.5653 -12.2184 -10.9836 -10.7148 -10.5256 -10.2745  -9.1702
    -8.4172  -8.1580  -7.9557  -7.4788  -6.2276

     occupation numbers 
     1.0000   1.0000   1.0000   1.0000   1.0000   1.0000   1.0000   1.0000
     1.0000   1.0000   1.0000   1.0000   1.0000   1.0000   1.0000   1.0000
     1.0000   1.0000   1.0000   1.0000   1.0000

          k =-0.2727 0.2624 0.0000 ( 12083 PWs)   bands (ev):

   -77.7389 -49.1525 -49.0291 -48.8708 -22.6403 -22.5711 -20.5656 -19.6708
   -13.9429 -13.5652 -12.2185 -10.9836 -10.7148 -10.5254 -10.2745  -9.1704
    -8.4172  -8.1580  -7.9556  -7.4789  -6.2274

     occupation numbers 
     1.0000   1.0000   1.0000   1.0000   1.0000   1.0000   1.0000   1.0000
     1.0000   1.0000   1.0000   1.0000   1.0000   1.0000   1.0000   1.0000
     1.0000   1.0000   1.0000   1.0000   1.0000

          k = 0.3636 0.1050 0.0000 ( 12083 PWs)   bands (ev):

   -77.7389 -49.1525 -49.0291 -48.8708 -22.6403 -22.5711 -20.5656 -19.6709
   -13.9428 -13.5653 -12.2184 -10.9836 -10.7148 -10.5256 -10.2745  -9.1702
    -8.4172  -8.1580  -7.9557  -7.4788  -6.2276

     occupation numbers 
     1.0000   1.0000   1.0000   1.0000   1.0000   1.0000   1.0000   1.0000
     1.0000   1.0000   1.0000   1.0000   1.0000   1.0000   1.0000   1.0000
     1.0000   1.0000   1.0000   1.0000   1.0000

          k =-0.2727-0.2624 0.0000 ( 12083 PWs)   bands (ev):

   -77.7389 -49.1525 -49.0291 -48.8708 -22.6403 -22.5711 -20.5656 -19.6709
   -13.9428 -13.5653 -12.2184 -10.9835 -10.7148 -10.5256 -10.2745  -9.1703
    -8.4172  -8.1579  -7.9556  -7.4787  -6.2278

     occupation numbers 
     1.0000   1.0000   1.0000   1.0000   1.0000   1.0000   1.0000   1.0000
     1.0000   1.0000   1.0000   1.0000   1.0000   1.0000   1.0000   1.0000
     1.0000   1.0000   1.0000   1.0000   1.0000

          k = 0.3636-0.1050 0.0000 ( 12083 PWs)   bands (ev):

   -77.7389 -49.1525 -49.0291 -48.8708 -22.6403 -22.5711 -20.5656 -19.6708
   -13.9429 -13.5652 -12.2185 -10.9836 -10.7148 -10.5254 -10.2745  -9.1704
    -8.4172  -8.1580  -7.9556  -7.4789  -6.2274

     occupation numbers 
     1.0000   1.0000   1.0000   1.0000   1.0000   1.0000   1.0000   1.0000
     1.0000   1.0000   1.0000   1.0000   1.0000   1.0000   1.0000   1.0000
     1.0000   1.0000   1.0000   1.0000   1.0000

          k =-0.0909 0.4724 0.0000 ( 12114 PWs)   bands (ev):

   -77.7327 -49.1988 -49.0430 -48.8618 -21.9268 -21.8672 -20.3471 -19.6268
   -14.9203 -14.6491 -12.0610 -11.3744 -10.9807 -10.7353 -10.5763  -9.3701
    -8.6099  -8.0559  -7.8074  -7.4397  -6.2045

     occupation numbers 
     1.0000   1.0000   1.0000   1.0000   1.0000   1.0000   1.0000   1.0000
     1.0000   1.0000   1.0000   1.0000   1.0000   1.0000   1.0000   1.0000
     1.0000   1.0000   1.0000   1.0000   1.0000

          k =-0.3636 0.3149 0.0000 ( 12114 PWs)   bands (ev):

   -77.7327 -49.1988 -49.0429 -48.8618 -21.9268 -21.8672 -20.3471 -19.6267
   -14.9203 -14.6491 -12.0611 -11.3743 -10.9807 -10.7353 -10.5762  -9.3704
    -8.6099  -8.0558  -7.8074  -7.4399  -6.2043

     occupation numbers 
     1.0000   1.0000   1.0000   1.0000   1.0000   1.0000   1.0000   1.0000
     1.0000   1.0000   1.0000   1.0000   1.0000   1.0000   1.0000   1.0000
     1.0000   1.0000   1.0000   1.0000   1.0000

          k = 0.4545 0.1575 0.0000 ( 12114 PWs)   bands (ev):

   -77.7327 -49.1988 -49.0430 -48.8618 -21.9268 -21.8672 -20.3471 -19.6267
   -14.9203 -14.6491 -12.0610 -11.3744 -10.9807 -10.7353 -10.5763  -9.3701
    -8.6099  -8.0559  -7.8074  -7.4397  -6.2045

     occupation numbers 
     1.0000   1.0000   1.0000   1.0000   1.0000   1.0000   1.0000   1.0000
     1.0000   1.0000   1.0000   1.0000   1.0000   1.0000   1.0000   1.0000
     1.0000   1.0000   1.0000   1.0000   1.0000

          k =-0.3636-0.3149 0.0000 ( 12114 PWs)   bands (ev):

   -77.7327 -49.1988 -49.0430 -48.8618 -21.9268 -21.8672 -20.3471 -19.6268
   -14.9203 -14.6491 -12.0610 -11.3743 -10.9808 -10.7353 -10.5763  -9.3705
    -8.6096  -8.0559  -7.8073  -7.4398  -6.2046

     occupation numbers 
     1.0000   1.0000   1.0000   1.0000   1.0000   1.0000   1.0000   1.0000
     1.0000   1.0000   1.0000   1.0000   1.0000   1.0000   1.0000   1.0000
     1.0000   1.0000   1.0000   1.0000   1.0000

          k = 0.4545-0.1575 0.0000 ( 12114 PWs)   bands (ev):

   -77.7327 -49.1988 -49.0429 -48.8618 -21.9268 -21.8672 -20.3471 -19.6267
   -14.9203 -14.6491 -12.0611 -11.3743 -10.9807 -10.7353 -10.5762  -9.3704
    -8.6099  -8.0558  -7.8074  -7.4399  -6.2043

     occupation numbers 
     1.0000   1.0000   1.0000   1.0000   1.0000   1.0000   1.0000   1.0000
     1.0000   1.0000   1.0000   1.0000   1.0000   1.0000   1.0000   1.0000
     1.0000   1.0000   1.0000   1.0000   1.0000

          k =-0.4545 0.3674 0.0000 ( 12090 PWs)   bands (ev):

   -77.7303 -49.2160 -49.0481 -48.8584 -21.5711 -21.5158 -20.3206 -19.6655
   -15.3304 -15.0643 -11.9619 -11.5476 -11.0226 -10.9594 -10.6579  -9.3220
    -8.7970  -7.9403  -7.7388  -7.4088  -6.1430

     occupation numbers 
     1.0000   1.0000   1.0000   1.0000   1.0000   1.0000   1.0000   1.0000
     1.0000   1.0000   1.0000   1.0000   1.0000   1.0000   1.0000   1.0000
     1.0000   1.0000   1.0000   1.0000   1.0000

          k = 0.5455 0.2099 0.0000 ( 12090 PWs)   bands (ev):

   -77.7303 -49.2160 -49.0481 -48.8584 -21.5711 -21.5158 -20.3205 -19.6656
   -15.3303 -15.0644 -11.9616 -11.5477 -11.0227 -10.9594 -10.6579  -9.3220
    -8.7969  -7.9403  -7.7387  -7.4086  -6.1432

     occupation numbers 
     1.0000   1.0000   1.0000   1.0000   1.0000   1.0000   1.0000   1.0000
     1.0000   1.0000   1.0000   1.0000   1.0000   1.0000   1.0000   1.0000
     1.0000   1.0000   1.0000   1.0000   1.0000

          k =-0.1818 0.3149 0.0000 ( 12078 PWs)   bands (ev):

   -77.7399 -49.1364 -49.0355 -48.8722 -22.7447 -22.6740 -20.6072 -19.6812
   -13.6343 -13.1361 -12.1168 -11.2573 -11.0994 -10.5500 -10.1113  -9.3006
    -8.4243  -8.2179  -7.7953  -7.5400  -6.2282

     occupation numbers 
     1.0000   1.0000   1.0000   1.0000   1.0000   1.0000   1.0000   1.0000
     1.0000   1.0000   1.0000   1.0000   1.0000   1.0000   1.0000   1.0000
     1.0000   1.0000   1.0000   1.0000   1.0000

          k = 0.3636 0.0000 0.0000 ( 12078 PWs)   bands (ev):

   -77.7399 -49.1364 -49.0355 -48.8722 -22.7447 -22.6740 -20.6072 -19.6812
   -13.6343 -13.1361 -12.1168 -11.2573 -11.0994 -10.5500 -10.1113  -9.3006
    -8.4243  -8.2179  -7.7953  -7.5400  -6.2282

     occupation numbers 
     1.0000   1.0000   1.0000   1.0000   1.0000   1.0000   1.0000   1.0000
     1.0000   1.0000   1.0000   1.0000   1.0000   1.0000   1.0000   1.0000
     1.0000   1.0000   1.0000   1.0000   1.0000

          k =-0.1818 0.4199 0.0000 ( 12116 PWs)   bands (ev):

   -77.7333 -49.1744 -49.0613 -48.8627 -22.0531 -21.9911 -20.3496 -19.5933
   -14.3830 -14.0718 -12.1205 -11.8896 -11.7009 -10.5527 -10.4422  -9.6894
    -8.4596  -8.3153  -7.8817  -7.4772  -6.2260

     occupation numbers 
     1.0000   1.0000   1.0000   1.0000   1.0000   1.0000   1.0000   1.0000
     1.0000   1.0000   1.0000   1.0000   1.0000   1.0000   1.0000   1.0000
     1.0000   1.0000   1.0000   1.0000   1.0000

          k =-0.2727 0.3674 0.0000 ( 12116 PWs)   bands (ev):

   -77.7333 -49.1744 -49.0613 -48.8627 -22.0531 -21.9911 -20.3496 -19.5933
   -14.3830 -14.0718 -12.1205 -11.8896 -11.7009 -10.5527 -10.4421  -9.6896
    -8.4595  -8.3153  -7.8817  -7.4773  -6.2260

     occupation numbers 
     1.0000   1.0000   1.0000   1.0000   1.0000   1.0000   1.0000   1.0000
     1.0000   1.0000   1.0000   1.0000   1.0000   1.0000   1.0000   1.0000
     1.0000   1.0000   1.0000   1.0000   1.0000

          k = 0.4545 0.0525 0.0000 ( 12116 PWs)   bands (ev):

   -77.7333 -49.1744 -49.0613 -48.8627 -22.0531 -21.9911 -20.3496 -19.5933
   -14.3830 -14.0718 -12.1205 -11.8896 -11.7009 -10.5527 -10.4422  -9.6894
    -8.4596  -8.3153  -7.8817  -7.4772  -6.2260

     occupation numbers 
     1.0000   1.0000   1.0000   1.0000   1.0000   1.0000   1.0000   1.0000
     1.0000   1.0000   1.0000   1.0000   1.0000   1.0000   1.0000   1.0000
     1.0000   1.0000   1.0000   1.0000   1.0000

          k =-0.2727-0.3674 0.0000 ( 12116 PWs)   bands (ev):

   -77.7333 -49.1744 -49.0613 -48.8627 -22.0531 -21.9911 -20.3496 -19.5934
   -14.3829 -14.0718 -12.1205 -11.8897 -11.7009 -10.5526 -10.4420  -9.6897
    -8.4596  -8.3152  -7.8814  -7.4773  -6.2262

     occupation numbers 
     1.0000   1.0000   1.0000   1.0000   1.0000   1.0000   1.0000   1.0000
     1.0000   1.0000   1.0000   1.0000   1.0000   1.0000   1.0000   1.0000
     1.0000   1.0000   1.0000   1.0000   1.0000

          k = 0.4545-0.0525 0.0000 ( 12116 PWs)   bands (ev):

   -77.7333 -49.1744 -49.0613 -48.8627 -22.0532 -21.9911 -20.3496 -19.5933
   -14.3830 -14.0718 -12.1205 -11.8896 -11.7009 -10.5527 -10.4421  -9.6896
    -8.4595  -8.3153  -7.8817  -7.4773  -6.2260

     occupation numbers 
     1.0000   1.0000   1.0000   1.0000   1.0000   1.0000   1.0000   1.0000
     1.0000   1.0000   1.0000   1.0000   1.0000   1.0000   1.0000   1.0000
     1.0000   1.0000   1.0000   1.0000   1.0000

          k =-0.1818 0.5249 0.0000 ( 12106 PWs)   bands (ev):

   -77.7294 -49.1959 -49.0775 -48.8571 -21.4999 -21.4441 -20.2701 -19.6150
   -14.9647 -14.6892 -12.3977 -12.2283 -11.4839 -10.9345 -10.6746  -9.5053
    -8.8039  -8.4577  -7.8263  -7.3141  -6.0769

     occupation numbers 
     1.0000   1.0000   1.0000   1.0000   1.0000   1.0000   1.0000   1.0000
     1.0000   1.0000   1.0000   1.0000   1.0000   1.0000   1.0000   1.0000
     1.0000   1.0000   1.0000   1.0000   1.0000

          k =-0.3636 0.4199 0.0000 ( 12106 PWs)   bands (ev):

   -77.7294 -49.1959 -49.0775 -48.8571 -21.4999 -21.4441 -20.2702 -19.6149
   -14.9647 -14.6892 -12.3977 -12.2283 -11.4840 -10.9345 -10.6746  -9.5055
    -8.8037  -8.4576  -7.8264  -7.3142  -6.0768

     occupation numbers 
     1.0000   1.0000   1.0000   1.0000   1.0000   1.0000   1.0000   1.0000
     1.0000   1.0000   1.0000   1.0000   1.0000   1.0000   1.0000   1.0000
     1.0000   1.0000   1.0000   1.0000   1.0000

          k = 0.5455 0.1050 0.0000 ( 12106 PWs)   bands (ev):

   -77.7294 -49.1959 -49.0775 -48.8571 -21.4999 -21.4441 -20.2701 -19.6150
   -14.9647 -14.6893 -12.3978 -12.2283 -11.4839 -10.9345 -10.6746  -9.5054
    -8.8039  -8.4577  -7.8263  -7.3141  -6.0769

     occupation numbers 
     1.0000   1.0000   1.0000   1.0000   1.0000   1.0000   1.0000   1.0000
     1.0000   1.0000   1.0000   1.0000   1.0000   1.0000   1.0000   1.0000
     1.0000   1.0000   1.0000   1.0000   1.0000

          k =-0.3636-0.4199 0.0000 ( 12106 PWs)   bands (ev):

   -77.7294 -49.1959 -49.0775 -48.8571 -21.4999 -21.4441 -20.2701 -19.6150
   -14.9647 -14.6893 -12.3977 -12.2283 -11.4839 -10.9345 -10.6745  -9.5057
    -8.8037  -8.4576  -7.8262  -7.3142  -6.0769

     occupation numbers 
     1.0000   1.0000   1.0000   1.0000   1.0000   1.0000   1.0000   1.0000
     1.0000   1.0000   1.0000   1.0000   1.0000   1.0000   1.0000   1.0000
     1.0000   1.0000   1.0000   1.0000   1.0000

          k = 0.5455-0.1050 0.0000 ( 12106 PWs)   bands (ev):

   -77.7294 -49.1959 -49.0775 -48.8571 -21.4999 -21.4441 -20.2702 -19.6149
   -14.9647 -14.6892 -12.3978 -12.2283 -11.4840 -10.9345 -10.6746  -9.5055
    -8.8037  -8.4576  -7.8264  -7.3142  -6.0768

     occupation numbers 
     1.0000   1.0000   1.0000   1.0000   1.0000   1.0000   1.0000   1.0000
     1.0000   1.0000   1.0000   1.0000   1.0000   1.0000   1.0000   1.0000
     1.0000   1.0000   1.0000   1.0000   1.0000

          k =-0.2727 0.4724 0.0000 ( 12092 PWs)   bands (ev):

   -77.7291 -49.1787 -49.0983 -48.8566 -21.4869 -21.4308 -20.2425 -19.5834
   -14.6115 -14.3014 -12.9635 -12.8274 -11.5335 -10.7291 -10.5267  -9.6892
    -9.0912  -8.5261  -7.8393  -7.2949  -6.0480

     occupation numbers 
     1.0000   1.0000   1.0000   1.0000   1.0000   1.0000   1.0000   1.0000
     1.0000   1.0000   1.0000   1.0000   1.0000   1.0000   1.0000   1.0000
     1.0000   1.0000   1.0000   1.0000   1.0000

          k = 0.5455-0.0000 0.0000 ( 12092 PWs)   bands (ev):

   -77.7291 -49.1787 -49.0983 -48.8566 -21.4869 -21.4308 -20.2425 -19.5834
   -14.6115 -14.3014 -12.9635 -12.8274 -11.5335 -10.7291 -10.5267  -9.6892
    -9.0912  -8.5261  -7.8393  -7.2949  -6.0480

     occupation numbers 
     1.0000   1.0000   1.0000   1.0000   1.0000   1.0000   1.0000   1.0000
     1.0000   1.0000   1.0000   1.0000   1.0000   1.0000   1.0000   1.0000
     1.0000   1.0000   1.0000   1.0000   1.0000

          k =-0.3636 0.5249 0.0000 ( 12086 PWs)   bands (ev):

   -77.7275 -49.1742 -49.1182 -48.8543 -21.2269 -21.1683 -20.2409 -19.6066
   -14.6499 -14.3274 -13.3696 -13.2767 -11.2607 -10.8907 -10.5787  -9.6688
    -9.2403  -8.8235  -7.7745  -7.1982  -5.9153

     occupation numbers 
     1.0000   1.0000   1.0000   1.0000   1.0000   1.0000   1.0000   1.0000
     1.0000   1.0000   1.0000   1.0000   1.0000   1.0000   1.0000   1.0000
     1.0000   1.0000   1.0000   1.0000   1.0000

          k = 0.6364 0.0525 0.0000 ( 12086 PWs)   bands (ev):

   -77.7275 -49.1742 -49.1182 -48.8543 -21.2268 -21.1683 -20.2409 -19.6066
   -14.6499 -14.3274 -13.3696 -13.2767 -11.2606 -10.8906 -10.5786  -9.6689
    -9.2404  -8.8235  -7.7745  -7.1982  -5.9153

     occupation numbers 
     1.0000   1.0000   1.0000   1.0000   1.0000   1.0000   1.0000   1.0000
     1.0000   1.0000   1.0000   1.0000   1.0000   1.0000   1.0000   1.0000
     1.0000   1.0000   1.0000   1.0000   1.0000

     highest occupied level (ev):    -5.2634

!    total energy              =    -263.34523834 Ry
     estimated scf accuracy    <          6.8E-11 Ry

     The total energy is the sum of the following terms:
     one-electron contribution =   -4432.97029569 Ry
     hartree contribution      =    2213.23190922 Ry
     xc contribution           =     -44.63801965 Ry
     ewald contribution        =    2001.03116777 Ry

     convergence has been achieved in  21 iterations

     Writing all to output data dir ./tmp/crsi2n4.save/ :
     XML data file, charge density, pseudopotentials, collected wavefunctions
 
     init_run     :      3.61s CPU      3.84s WALL (       1 calls)
     electrons    :    144.67s CPU    145.58s WALL (       1 calls)

     Called by init_run:
     wfcinit      :      2.45s CPU      2.60s WALL (       1 calls)
     wfcinit:atom :      0.05s CPU      0.05s WALL (      61 calls)
     wfcinit:wfcr :      2.26s CPU      2.32s WALL (      61 calls)
     potinit      :      0.74s CPU      0.78s WALL (       1 calls)
     hinit0       :      0.29s CPU      0.30s WALL (       1 calls)

     Called by electrons:
     c_bands      :    133.29s CPU    134.14s WALL (      21 calls)
     sum_band     :     10.16s CPU     10.20s WALL (      21 calls)
     v_of_rho     :      0.33s CPU      0.37s WALL (      22 calls)
     v_h          :      0.09s CPU      0.10s WALL (      22 calls)
     v_xc         :      0.24s CPU      0.27s WALL (      22 calls)
     mix_rho      :      0.49s CPU      0.50s WALL (      21 calls)

     Called by c_bands:
     init_us_2    :      1.84s CPU      1.86s WALL (    2623 calls)
     cegterg      :    126.32s CPU    127.14s WALL (    1281 calls)

     Called by sum_band:
     sum_band:wei :      0.00s CPU      0.00s WALL (      21 calls)
     sum_band:loo :     10.07s CPU     10.11s WALL (      21 calls)
     sum_band:buf :      1.79s CPU      1.80s WALL (    1281 calls)
     sum_band:ini :      0.90s CPU      0.91s WALL (    1281 calls)

     Called by *egterg:
     cdiaghg      :     17.28s CPU     17.45s WALL (    8173 calls)
                                       17.40s GPU  (    8173 calls)
     cegterg:over :     24.68s CPU     24.73s WALL (    6892 calls)
     cegterg:upda :      6.90s CPU      6.93s WALL (    6892 calls)
     cegterg:last :      5.53s CPU      5.54s WALL (    3426 calls)
     h_psi        :     68.90s CPU     69.68s WALL (    8234 calls)
                                       69.62s GPU  (    8234 calls)
     g_psi        :      0.06s CPU      0.61s WALL (    6892 calls)
                                        0.58s GPU  (    6892 calls)

     Called by h_psi:
     h_psi:calbec :      0.66s CPU     11.94s WALL (    8234 calls)
                                       11.88s GPU  (    8234 calls)
     vloc_psi     :     45.55s CPU     46.22s WALL (    8234 calls)
                                       46.17s GPU  (    8234 calls)
     add_vuspsi   :      2.41s CPU     10.81s WALL (    8234 calls)
                                       10.76s GPU  (    8234 calls)

     General routines
     calbec       :      0.62s CPU      0.67s WALL (    8234 calls)
     fft          :      0.47s CPU      0.56s WALL (     261 calls)
                                        0.10s GPU  (     239 calls)
     ffts         :      0.41s CPU      0.42s WALL (      43 calls)
                                        0.01s GPU  (      21 calls)
     fftw         :      0.76s CPU     43.70s WALL (   24700 calls)
                                       43.56s GPU  (   24700 calls)
     interpolate  :      0.94s CPU      0.94s WALL (      22 calls)
 
     Parallel routines
 
     PWSCF        :   2m28.63s CPU   2m29.99s WALL

 
   This run was terminated on:   3:12:27  13Mar2026            

=------------------------------------------------------------------------------=
   JOB DONE.
=------------------------------------------------------------------------------=
