
     Program PWSCF v.7.4.1 starts on 13Mar2026 at  3:20:52 

     This program is part of the open-source Quantum ESPRESSO suite
     for quantum simulation of materials; please cite
         "P. Giannozzi et al., J. Phys.:Condens. Matter 21 395502 (2009);
         "P. Giannozzi et al., J. Phys.:Condens. Matter 29 465901 (2017);
         "P. Giannozzi et al., J. Chem. Phys. 152 154105 (2020);
          URL http://www.quantum-espresso.org", 
     in publications or presentations arising from this work. More details at
     http://www.quantum-espresso.org/quote

     Parallel version (MPI), running on     1 processors

     MPI processes distributed on     1 nodes
     3227 MiB available memory on the printing compute node when the environment starts
 
     Reading input from bands.in

     Current dimensions of program PWSCF are:
     Max number of different atomic species (ntypx) = 10
     Max number of k-points (npk) =  40000
     Max angular momentum in pseudopotentials (lmaxx) =  4

     Atomic positions and unit cell read from directory:
     ./tmp/crsi2n4.save/
 
     Message from routine setup:
     no reason to have ecutrho>4*ecutwfc
 
     Subspace diagonalization in iterative solution of the eigenvalue problem:
     a serial algorithm will be used

 
     G-vector sticks info
     --------------------
     sticks:   dense  smooth     PW     G-vecs:    dense   smooth      PW
     Sum         817     649    199               135261    96835   15679
 
     Using Slab Decomposition
 


     bravais-lattice index     =            4
     lattice parameter (alat)  =       5.4281  a.u.
     unit-cell volume          =    1001.3459 (a.u.)^3
     number of atoms/cell      =            7
     number of atomic types    =            3
     number of electrons       =        42.00
     number of Kohn-Sham states=           35
     kinetic-energy cutoff     =      80.0000  Ry
     charge density cutoff     =     400.0000  Ry
     Exchange-correlation= PBE
                           (   1   4   3   4   0   0   0)

     GPU acceleration is ACTIVE.  1 visible GPUs per MPI rank
     GPU-aware MPI enabled


     GPU used by master process:

        Device Number: 0
        Device name: NVIDIA RTX A2000 12GB
        Compute capability : 86
        Ratio of single to double precision performance  : 64
        Memory Clock Rate (KHz): 6001000
        Memory Bus Width (bits): 192
        Peak Memory Bandwidth (GB/s): 288.05

     celldm(1)=   5.428125  celldm(2)=   0.000000  celldm(3)=   7.229429
     celldm(4)=   0.000000  celldm(5)=   0.000000  celldm(6)=   0.000000

     crystal axes: (cart. coord. in units of alat)
               a(1) = (   1.000000   0.000000   0.000000 )  
               a(2) = (  -0.500000   0.866025   0.000000 )  
               a(3) = (   0.000000   0.000000   7.229429 )  

     reciprocal axes: (cart. coord. in units 2 pi/alat)
               b(1) = (  1.000000  0.577350 -0.000000 )  
               b(2) = (  0.000000  1.154701  0.000000 )  
               b(3) = (  0.000000 -0.000000  0.138324 )  


     PseudoPot. # 1 for Cr read from file:
     /home/rao/Desktop/pseudo/ONCVPSP/sg15/Cr_ONCV_PBE_sr.upf
     MD5 check sum: 8c25700f94aee329d8014e8d8708abb4
     Pseudo is Norm-conserving, Zval = 14.0
     Generated using ONCVPSP code by D. R. Hamann
     Using radial grid of 1490 points,  6 beta functions with: 
                l(1) =   0
                l(2) =   0
                l(3) =   1
                l(4) =   1
                l(5) =   2
                l(6) =   2

     PseudoPot. # 2 for Si read from file:
     /home/rao/Desktop/pseudo/ONCVPSP/sg15/Si_ONCV_PBE_sr.upf
     MD5 check sum: 8553c464762ac42b85b1eed164b4d029
     Pseudo is Norm-conserving, Zval =  4.0
     Generated using ONCVPSP code by D. R. Hamann
     Using radial grid of 1510 points,  4 beta functions with: 
                l(1) =   0
                l(2) =   0
                l(3) =   1
                l(4) =   1

     PseudoPot. # 3 for N  read from file:
     /home/rao/Desktop/pseudo/ONCVPSP/sg15/N_ONCV_PBE_sr.upf
     MD5 check sum: 584dff68b02d160f04ff099e3496afa1
     Pseudo is Norm-conserving, Zval =  5.0
     Generated using ONCVPSP code by D. R. Hamann
     Using radial grid of 1058 points,  4 beta functions with: 
                l(1) =   0
                l(2) =   0
                l(3) =   1
                l(4) =   1

     atomic species   valence    mass     pseudopotential
     Cr               14.00    51.99600     Cr( 1.00)
     Si                4.00    28.08600     Si( 1.00)
     N                 5.00    14.00700     N ( 1.00)

     No symmetry found


                                    s                        frac. trans.

      isym =  1     identity                                     

 cryst.   s( 1) = (     1          0          0      )
                  (     0          1          0      )
                  (     0          0          1      )

 cart.    s( 1) = (  1.0000000  0.0000000  0.0000000 )
                  (  0.0000000  1.0000000  0.0000000 )
                  (  0.0000000  0.0000000  1.0000000 )


     point group C_1 (1)    
     there are  1 classes
     the character table:

       E    
A      1.00

     the symmetry operations in each class and the name of the first element:

     E        1
          identity                                               

   Cartesian axes

     site n.     atom                  positions (alat units)
         1        Cr     tau(   1) = (   0.7857138   0.1237083   3.0925906  )
         2        N      tau(   2) = (   0.2856744   0.4124073   2.6951636  )
         3        N      tau(   3) = (   0.2856922   0.4123947   3.4953861  )
         4        N      tau(   4) = (   0.7857248   0.1236935   4.2941203  )
         5        N      tau(   5) = (  -0.2142869   0.7010640   1.9042883  )
         6        Si     tau(   6) = (   0.2857211   0.4123842   2.0863348  )
         7        Si     tau(   7) = (   0.2857276   0.4123672   4.1085750  )

   Crystallographic axes

     site n.     atom                  positions (cryst. coord.)
         1        Cr     tau(   1) = (  0.8571368  0.1428460  0.4277780  )
         2        N      tau(   2) = (  0.5237778  0.4762069  0.3728045  )
         3        N      tau(   3) = (  0.5237884  0.4761924  0.4834941  )
         4        N      tau(   4) = (  0.8571393  0.1428289  0.5939778  )
         5        N      tau(   5) = (  0.1904725  0.8095189  0.2634078  )
         6        Si     tau(   6) = (  0.5238112  0.4761802  0.2885892  )
         7        Si     tau(   7) = (  0.5238079  0.4761606  0.5683125  )

     number of k points=   261
                       cart. coord. in units 2pi/alat
        k(    1) = (   0.0000000   0.0000000   0.0000000), wk =   0.0076628
        k(    2) = (   0.0033333   0.0057735   0.0000000), wk =   0.0076628
        k(    3) = (   0.0066667   0.0115470   0.0000000), wk =   0.0076628
        k(    4) = (   0.0100000   0.0173205   0.0000000), wk =   0.0076628
        k(    5) = (   0.0133333   0.0230940   0.0000000), wk =   0.0076628
        k(    6) = (   0.0166667   0.0288675   0.0000000), wk =   0.0076628
        k(    7) = (   0.0200000   0.0346410   0.0000000), wk =   0.0076628
        k(    8) = (   0.0233333   0.0404145   0.0000000), wk =   0.0076628
        k(    9) = (   0.0266667   0.0461880   0.0000000), wk =   0.0076628
        k(   10) = (   0.0300000   0.0519615   0.0000000), wk =   0.0076628
        k(   11) = (   0.0333333   0.0577350   0.0000000), wk =   0.0076628
        k(   12) = (   0.0366667   0.0635085   0.0000000), wk =   0.0076628
        k(   13) = (   0.0400000   0.0692820   0.0000000), wk =   0.0076628
        k(   14) = (   0.0433333   0.0750555   0.0000000), wk =   0.0076628
        k(   15) = (   0.0466667   0.0808290   0.0000000), wk =   0.0076628
        k(   16) = (   0.0500000   0.0866025   0.0000000), wk =   0.0076628
        k(   17) = (   0.0533333   0.0923760   0.0000000), wk =   0.0076628
        k(   18) = (   0.0566667   0.0981495   0.0000000), wk =   0.0076628
        k(   19) = (   0.0600000   0.1039230   0.0000000), wk =   0.0076628
        k(   20) = (   0.0633333   0.1096966   0.0000000), wk =   0.0076628
        k(   21) = (   0.0666667   0.1154701   0.0000000), wk =   0.0076628
        k(   22) = (   0.0700000   0.1212436   0.0000000), wk =   0.0076628
        k(   23) = (   0.0733333   0.1270171   0.0000000), wk =   0.0076628
        k(   24) = (   0.0766667   0.1327906   0.0000000), wk =   0.0076628
        k(   25) = (   0.0800000   0.1385641   0.0000000), wk =   0.0076628
        k(   26) = (   0.0833333   0.1443376   0.0000000), wk =   0.0076628
        k(   27) = (   0.0866667   0.1501111   0.0000000), wk =   0.0076628
        k(   28) = (   0.0900000   0.1558846   0.0000000), wk =   0.0076628
        k(   29) = (   0.0933333   0.1616581   0.0000000), wk =   0.0076628
        k(   30) = (   0.0966667   0.1674316   0.0000000), wk =   0.0076628
        k(   31) = (   0.1000000   0.1732051   0.0000000), wk =   0.0076628
        k(   32) = (   0.1033333   0.1789786   0.0000000), wk =   0.0076628
        k(   33) = (   0.1066667   0.1847521   0.0000000), wk =   0.0076628
        k(   34) = (   0.1100000   0.1905256   0.0000000), wk =   0.0076628
        k(   35) = (   0.1133333   0.1962991   0.0000000), wk =   0.0076628
        k(   36) = (   0.1166667   0.2020726   0.0000000), wk =   0.0076628
        k(   37) = (   0.1200000   0.2078461   0.0000000), wk =   0.0076628
        k(   38) = (   0.1233333   0.2136196   0.0000000), wk =   0.0076628
        k(   39) = (   0.1266667   0.2193931   0.0000000), wk =   0.0076628
        k(   40) = (   0.1300000   0.2251666   0.0000000), wk =   0.0076628
        k(   41) = (   0.1333333   0.2309401   0.0000000), wk =   0.0076628
        k(   42) = (   0.1366667   0.2367136   0.0000000), wk =   0.0076628
        k(   43) = (   0.1400000   0.2424871   0.0000000), wk =   0.0076628
        k(   44) = (   0.1433333   0.2482606   0.0000000), wk =   0.0076628
        k(   45) = (   0.1466667   0.2540341   0.0000000), wk =   0.0076628
        k(   46) = (   0.1500000   0.2598076   0.0000000), wk =   0.0076628
        k(   47) = (   0.1533333   0.2655811   0.0000000), wk =   0.0076628
        k(   48) = (   0.1566667   0.2713546   0.0000000), wk =   0.0076628
        k(   49) = (   0.1600000   0.2771281   0.0000000), wk =   0.0076628
        k(   50) = (   0.1633333   0.2829016   0.0000000), wk =   0.0076628
        k(   51) = (   0.1666667   0.2886751   0.0000000), wk =   0.0076628
        k(   52) = (   0.1700000   0.2944486   0.0000000), wk =   0.0076628
        k(   53) = (   0.1733333   0.3002221   0.0000000), wk =   0.0076628
        k(   54) = (   0.1766667   0.3059956   0.0000000), wk =   0.0076628
        k(   55) = (   0.1800000   0.3117691   0.0000000), wk =   0.0076628
        k(   56) = (   0.1833333   0.3175426   0.0000000), wk =   0.0076628
        k(   57) = (   0.1866667   0.3233162   0.0000000), wk =   0.0076628
        k(   58) = (   0.1900000   0.3290897   0.0000000), wk =   0.0076628
        k(   59) = (   0.1933333   0.3348632   0.0000000), wk =   0.0076628
        k(   60) = (   0.1966667   0.3406367   0.0000000), wk =   0.0076628
        k(   61) = (   0.2000000   0.3464102   0.0000000), wk =   0.0076628
        k(   62) = (   0.2033333   0.3521837   0.0000000), wk =   0.0076628
        k(   63) = (   0.2066667   0.3579572   0.0000000), wk =   0.0076628
        k(   64) = (   0.2100000   0.3637307   0.0000000), wk =   0.0076628
        k(   65) = (   0.2133333   0.3695042   0.0000000), wk =   0.0076628
        k(   66) = (   0.2166667   0.3752777   0.0000000), wk =   0.0076628
        k(   67) = (   0.2200000   0.3810512   0.0000000), wk =   0.0076628
        k(   68) = (   0.2233333   0.3868247   0.0000000), wk =   0.0076628
        k(   69) = (   0.2266667   0.3925982   0.0000000), wk =   0.0076628
        k(   70) = (   0.2300000   0.3983717   0.0000000), wk =   0.0076628
        k(   71) = (   0.2333333   0.4041452   0.0000000), wk =   0.0076628
        k(   72) = (   0.2366667   0.4099187   0.0000000), wk =   0.0076628
        k(   73) = (   0.2400000   0.4156922   0.0000000), wk =   0.0076628
        k(   74) = (   0.2433333   0.4214657   0.0000000), wk =   0.0076628
        k(   75) = (   0.2466667   0.4272392   0.0000000), wk =   0.0076628
        k(   76) = (   0.2500000   0.4330127   0.0000000), wk =   0.0076628
        k(   77) = (   0.2533333   0.4387862   0.0000000), wk =   0.0076628
        k(   78) = (   0.2566667   0.4445597   0.0000000), wk =   0.0076628
        k(   79) = (   0.2600000   0.4503332   0.0000000), wk =   0.0076628
        k(   80) = (   0.2633333   0.4561067   0.0000000), wk =   0.0076628
        k(   81) = (   0.2666667   0.4618802   0.0000000), wk =   0.0076628
        k(   82) = (   0.2700000   0.4676537   0.0000000), wk =   0.0076628
        k(   83) = (   0.2733333   0.4734272   0.0000000), wk =   0.0076628
        k(   84) = (   0.2766667   0.4792007   0.0000000), wk =   0.0076628
        k(   85) = (   0.2800000   0.4849742   0.0000000), wk =   0.0076628
        k(   86) = (   0.2833333   0.4907477   0.0000000), wk =   0.0076628
        k(   87) = (   0.2866667   0.4965212   0.0000000), wk =   0.0076628
        k(   88) = (   0.2900000   0.5022947   0.0000000), wk =   0.0076628
        k(   89) = (   0.2933333   0.5080682   0.0000000), wk =   0.0076628
        k(   90) = (   0.2966667   0.5138417   0.0000000), wk =   0.0076628
        k(   91) = (   0.3000000   0.5196152   0.0000000), wk =   0.0076628
        k(   92) = (   0.3033333   0.5253887   0.0000000), wk =   0.0076628
        k(   93) = (   0.3066667   0.5311622   0.0000000), wk =   0.0076628
        k(   94) = (   0.3100000   0.5369358   0.0000000), wk =   0.0076628
        k(   95) = (   0.3133333   0.5427093   0.0000000), wk =   0.0076628
        k(   96) = (   0.3166667   0.5484828   0.0000000), wk =   0.0076628
        k(   97) = (   0.3200000   0.5542563   0.0000000), wk =   0.0076628
        k(   98) = (   0.3233333   0.5600298   0.0000000), wk =   0.0076628
        k(   99) = (   0.3266667   0.5658033   0.0000000), wk =   0.0076628
        k(  100) = (   0.3300000   0.5715768   0.0000000), wk =   0.0076628
        k(  101) = (   0.3333333   0.5773503   0.0000000), wk =   0.0076628
        k(  102) = (   0.3361111   0.5725390   0.0000000), wk =   0.0076628
        k(  103) = (   0.3388889   0.5677278   0.0000000), wk =   0.0076628
        k(  104) = (   0.3416667   0.5629165   0.0000000), wk =   0.0076628
        k(  105) = (   0.3444444   0.5581053   0.0000000), wk =   0.0076628
        k(  106) = (   0.3472222   0.5532940   0.0000000), wk =   0.0076628
        k(  107) = (   0.3500000   0.5484828   0.0000000), wk =   0.0076628
        k(  108) = (   0.3527778   0.5436715   0.0000000), wk =   0.0076628
        k(  109) = (   0.3555556   0.5388603   0.0000000), wk =   0.0076628
        k(  110) = (   0.3583333   0.5340490   0.0000000), wk =   0.0076628
        k(  111) = (   0.3611111   0.5292377   0.0000000), wk =   0.0076628
        k(  112) = (   0.3638889   0.5244265   0.0000000), wk =   0.0076628
        k(  113) = (   0.3666667   0.5196152   0.0000000), wk =   0.0076628
        k(  114) = (   0.3694444   0.5148040   0.0000000), wk =   0.0076628
        k(  115) = (   0.3722222   0.5099927   0.0000000), wk =   0.0076628
        k(  116) = (   0.3750000   0.5051815   0.0000000), wk =   0.0076628
        k(  117) = (   0.3777778   0.5003702   0.0000000), wk =   0.0076628
        k(  118) = (   0.3805556   0.4955590   0.0000000), wk =   0.0076628
        k(  119) = (   0.3833333   0.4907477   0.0000000), wk =   0.0076628
        k(  120) = (   0.3861111   0.4859365   0.0000000), wk =   0.0076628
        k(  121) = (   0.3888889   0.4811252   0.0000000), wk =   0.0076628
        k(  122) = (   0.3916667   0.4763140   0.0000000), wk =   0.0076628
        k(  123) = (   0.3944444   0.4715027   0.0000000), wk =   0.0076628
        k(  124) = (   0.3972222   0.4666915   0.0000000), wk =   0.0076628
        k(  125) = (   0.4000000   0.4618802   0.0000000), wk =   0.0076628
        k(  126) = (   0.4027778   0.4570690   0.0000000), wk =   0.0076628
        k(  127) = (   0.4055556   0.4522577   0.0000000), wk =   0.0076628
        k(  128) = (   0.4083333   0.4474465   0.0000000), wk =   0.0076628
        k(  129) = (   0.4111111   0.4426352   0.0000000), wk =   0.0076628
        k(  130) = (   0.4138889   0.4378240   0.0000000), wk =   0.0076628
        k(  131) = (   0.4166667   0.4330127   0.0000000), wk =   0.0076628
        k(  132) = (   0.4194444   0.4282014   0.0000000), wk =   0.0076628
        k(  133) = (   0.4222222   0.4233902   0.0000000), wk =   0.0076628
        k(  134) = (   0.4250000   0.4185789   0.0000000), wk =   0.0076628
        k(  135) = (   0.4277778   0.4137677   0.0000000), wk =   0.0076628
        k(  136) = (   0.4305556   0.4089564   0.0000000), wk =   0.0076628
        k(  137) = (   0.4333333   0.4041452   0.0000000), wk =   0.0076628
        k(  138) = (   0.4361111   0.3993339   0.0000000), wk =   0.0076628
        k(  139) = (   0.4388889   0.3945227   0.0000000), wk =   0.0076628
        k(  140) = (   0.4416667   0.3897114   0.0000000), wk =   0.0076628
        k(  141) = (   0.4444444   0.3849002   0.0000000), wk =   0.0076628
        k(  142) = (   0.4472222   0.3800889   0.0000000), wk =   0.0076628
        k(  143) = (   0.4500000   0.3752777   0.0000000), wk =   0.0076628
        k(  144) = (   0.4527778   0.3704664   0.0000000), wk =   0.0076628
        k(  145) = (   0.4555556   0.3656552   0.0000000), wk =   0.0076628
        k(  146) = (   0.4583333   0.3608439   0.0000000), wk =   0.0076628
        k(  147) = (   0.4611111   0.3560327   0.0000000), wk =   0.0076628
        k(  148) = (   0.4638889   0.3512214   0.0000000), wk =   0.0076628
        k(  149) = (   0.4666667   0.3464102   0.0000000), wk =   0.0076628
        k(  150) = (   0.4694444   0.3415989   0.0000000), wk =   0.0076628
        k(  151) = (   0.4722222   0.3367877   0.0000000), wk =   0.0076628
        k(  152) = (   0.4750000   0.3319764   0.0000000), wk =   0.0076628
        k(  153) = (   0.4777778   0.3271652   0.0000000), wk =   0.0076628
        k(  154) = (   0.4805556   0.3223539   0.0000000), wk =   0.0076628
        k(  155) = (   0.4833333   0.3175426   0.0000000), wk =   0.0076628
        k(  156) = (   0.4861111   0.3127314   0.0000000), wk =   0.0076628
        k(  157) = (   0.4888889   0.3079201   0.0000000), wk =   0.0076628
        k(  158) = (   0.4916667   0.3031089   0.0000000), wk =   0.0076628
        k(  159) = (   0.4944444   0.2982976   0.0000000), wk =   0.0076628
        k(  160) = (   0.4972222   0.2934864   0.0000000), wk =   0.0076628
        k(  161) = (   0.5000000   0.2886751   0.0000000), wk =   0.0076628
        k(  162) = (   0.4950000   0.2857884   0.0000000), wk =   0.0076628
        k(  163) = (   0.4900000   0.2829016   0.0000000), wk =   0.0076628
        k(  164) = (   0.4850000   0.2800149   0.0000000), wk =   0.0076628
        k(  165) = (   0.4800000   0.2771281   0.0000000), wk =   0.0076628
        k(  166) = (   0.4750000   0.2742414   0.0000000), wk =   0.0076628
        k(  167) = (   0.4700000   0.2713546   0.0000000), wk =   0.0076628
        k(  168) = (   0.4650000   0.2684679   0.0000000), wk =   0.0076628
        k(  169) = (   0.4600000   0.2655811   0.0000000), wk =   0.0076628
        k(  170) = (   0.4550000   0.2626944   0.0000000), wk =   0.0076628
        k(  171) = (   0.4500000   0.2598076   0.0000000), wk =   0.0076628
        k(  172) = (   0.4450000   0.2569209   0.0000000), wk =   0.0076628
        k(  173) = (   0.4400000   0.2540341   0.0000000), wk =   0.0076628
        k(  174) = (   0.4350000   0.2511474   0.0000000), wk =   0.0076628
        k(  175) = (   0.4300000   0.2482606   0.0000000), wk =   0.0076628
        k(  176) = (   0.4250000   0.2453739   0.0000000), wk =   0.0076628
        k(  177) = (   0.4200000   0.2424871   0.0000000), wk =   0.0076628
        k(  178) = (   0.4150000   0.2396004   0.0000000), wk =   0.0076628
        k(  179) = (   0.4100000   0.2367136   0.0000000), wk =   0.0076628
        k(  180) = (   0.4050000   0.2338269   0.0000000), wk =   0.0076628
        k(  181) = (   0.4000000   0.2309401   0.0000000), wk =   0.0076628
        k(  182) = (   0.3950000   0.2280534   0.0000000), wk =   0.0076628
        k(  183) = (   0.3900000   0.2251666   0.0000000), wk =   0.0076628
        k(  184) = (   0.3850000   0.2222799   0.0000000), wk =   0.0076628
        k(  185) = (   0.3800000   0.2193931   0.0000000), wk =   0.0076628
        k(  186) = (   0.3750000   0.2165064   0.0000000), wk =   0.0076628
        k(  187) = (   0.3700000   0.2136196   0.0000000), wk =   0.0076628
        k(  188) = (   0.3650000   0.2107328   0.0000000), wk =   0.0076628
        k(  189) = (   0.3600000   0.2078461   0.0000000), wk =   0.0076628
        k(  190) = (   0.3550000   0.2049593   0.0000000), wk =   0.0076628
        k(  191) = (   0.3500000   0.2020726   0.0000000), wk =   0.0076628
        k(  192) = (   0.3450000   0.1991858   0.0000000), wk =   0.0076628
        k(  193) = (   0.3400000   0.1962991   0.0000000), wk =   0.0076628
        k(  194) = (   0.3350000   0.1934123   0.0000000), wk =   0.0076628
        k(  195) = (   0.3300000   0.1905256   0.0000000), wk =   0.0076628
        k(  196) = (   0.3250000   0.1876388   0.0000000), wk =   0.0076628
        k(  197) = (   0.3200000   0.1847521   0.0000000), wk =   0.0076628
        k(  198) = (   0.3150000   0.1818653   0.0000000), wk =   0.0076628
        k(  199) = (   0.3100000   0.1789786   0.0000000), wk =   0.0076628
        k(  200) = (   0.3050000   0.1760918   0.0000000), wk =   0.0076628
        k(  201) = (   0.3000000   0.1732051   0.0000000), wk =   0.0076628
        k(  202) = (   0.2950000   0.1703183   0.0000000), wk =   0.0076628
        k(  203) = (   0.2900000   0.1674316   0.0000000), wk =   0.0076628
        k(  204) = (   0.2850000   0.1645448   0.0000000), wk =   0.0076628
        k(  205) = (   0.2800000   0.1616581   0.0000000), wk =   0.0076628
        k(  206) = (   0.2750000   0.1587713   0.0000000), wk =   0.0076628
        k(  207) = (   0.2700000   0.1558846   0.0000000), wk =   0.0076628
        k(  208) = (   0.2650000   0.1529978   0.0000000), wk =   0.0076628
        k(  209) = (   0.2600000   0.1501111   0.0000000), wk =   0.0076628
        k(  210) = (   0.2550000   0.1472243   0.0000000), wk =   0.0076628
        k(  211) = (   0.2500000   0.1443376   0.0000000), wk =   0.0076628
        k(  212) = (   0.2450000   0.1414508   0.0000000), wk =   0.0076628
        k(  213) = (   0.2400000   0.1385641   0.0000000), wk =   0.0076628
        k(  214) = (   0.2350000   0.1356773   0.0000000), wk =   0.0076628
        k(  215) = (   0.2300000   0.1327906   0.0000000), wk =   0.0076628
        k(  216) = (   0.2250000   0.1299038   0.0000000), wk =   0.0076628
        k(  217) = (   0.2200000   0.1270171   0.0000000), wk =   0.0076628
        k(  218) = (   0.2150000   0.1241303   0.0000000), wk =   0.0076628
        k(  219) = (   0.2100000   0.1212436   0.0000000), wk =   0.0076628
        k(  220) = (   0.2050000   0.1183568   0.0000000), wk =   0.0076628
        k(  221) = (   0.2000000   0.1154701   0.0000000), wk =   0.0076628
        k(  222) = (   0.1950000   0.1125833   0.0000000), wk =   0.0076628
        k(  223) = (   0.1900000   0.1096966   0.0000000), wk =   0.0076628
        k(  224) = (   0.1850000   0.1068098   0.0000000), wk =   0.0076628
        k(  225) = (   0.1800000   0.1039230   0.0000000), wk =   0.0076628
        k(  226) = (   0.1750000   0.1010363   0.0000000), wk =   0.0076628
        k(  227) = (   0.1700000   0.0981495   0.0000000), wk =   0.0076628
        k(  228) = (   0.1650000   0.0952628   0.0000000), wk =   0.0076628
        k(  229) = (   0.1600000   0.0923760   0.0000000), wk =   0.0076628
        k(  230) = (   0.1550000   0.0894893   0.0000000), wk =   0.0076628
        k(  231) = (   0.1500000   0.0866025   0.0000000), wk =   0.0076628
        k(  232) = (   0.1450000   0.0837158   0.0000000), wk =   0.0076628
        k(  233) = (   0.1400000   0.0808290   0.0000000), wk =   0.0076628
        k(  234) = (   0.1350000   0.0779423   0.0000000), wk =   0.0076628
        k(  235) = (   0.1300000   0.0750555   0.0000000), wk =   0.0076628
        k(  236) = (   0.1250000   0.0721688   0.0000000), wk =   0.0076628
        k(  237) = (   0.1200000   0.0692820   0.0000000), wk =   0.0076628
        k(  238) = (   0.1150000   0.0663953   0.0000000), wk =   0.0076628
        k(  239) = (   0.1100000   0.0635085   0.0000000), wk =   0.0076628
        k(  240) = (   0.1050000   0.0606218   0.0000000), wk =   0.0076628
        k(  241) = (   0.1000000   0.0577350   0.0000000), wk =   0.0076628
        k(  242) = (   0.0950000   0.0548483   0.0000000), wk =   0.0076628
        k(  243) = (   0.0900000   0.0519615   0.0000000), wk =   0.0076628
        k(  244) = (   0.0850000   0.0490748   0.0000000), wk =   0.0076628
        k(  245) = (   0.0800000   0.0461880   0.0000000), wk =   0.0076628
        k(  246) = (   0.0750000   0.0433013   0.0000000), wk =   0.0076628
        k(  247) = (   0.0700000   0.0404145   0.0000000), wk =   0.0076628
        k(  248) = (   0.0650000   0.0375278   0.0000000), wk =   0.0076628
        k(  249) = (   0.0600000   0.0346410   0.0000000), wk =   0.0076628
        k(  250) = (   0.0550000   0.0317543   0.0000000), wk =   0.0076628
        k(  251) = (   0.0500000   0.0288675   0.0000000), wk =   0.0076628
        k(  252) = (   0.0450000   0.0259808   0.0000000), wk =   0.0076628
        k(  253) = (   0.0400000   0.0230940   0.0000000), wk =   0.0076628
        k(  254) = (   0.0350000   0.0202073   0.0000000), wk =   0.0076628
        k(  255) = (   0.0300000   0.0173205   0.0000000), wk =   0.0076628
        k(  256) = (   0.0250000   0.0144338   0.0000000), wk =   0.0076628
        k(  257) = (   0.0200000   0.0115470   0.0000000), wk =   0.0076628
        k(  258) = (   0.0150000   0.0086603   0.0000000), wk =   0.0076628
        k(  259) = (   0.0100000   0.0057735   0.0000000), wk =   0.0076628
        k(  260) = (   0.0050000   0.0028868   0.0000000), wk =   0.0076628
        k(  261) = (   0.0000000   0.0000000   0.0000000), wk =   0.0076628

                       cryst. coord.
        k(    1) = (   0.0000000   0.0000000   0.0000000), wk =   0.0076628
        k(    2) = (   0.0033333   0.0033333   0.0000000), wk =   0.0076628
        k(    3) = (   0.0066667   0.0066667   0.0000000), wk =   0.0076628
        k(    4) = (   0.0100000   0.0100000   0.0000000), wk =   0.0076628
        k(    5) = (   0.0133333   0.0133333   0.0000000), wk =   0.0076628
        k(    6) = (   0.0166667   0.0166667   0.0000000), wk =   0.0076628
        k(    7) = (   0.0200000   0.0200000   0.0000000), wk =   0.0076628
        k(    8) = (   0.0233333   0.0233333   0.0000000), wk =   0.0076628
        k(    9) = (   0.0266667   0.0266667   0.0000000), wk =   0.0076628
        k(   10) = (   0.0300000   0.0300000   0.0000000), wk =   0.0076628
        k(   11) = (   0.0333333   0.0333333   0.0000000), wk =   0.0076628
        k(   12) = (   0.0366667   0.0366667   0.0000000), wk =   0.0076628
        k(   13) = (   0.0400000   0.0400000   0.0000000), wk =   0.0076628
        k(   14) = (   0.0433333   0.0433333   0.0000000), wk =   0.0076628
        k(   15) = (   0.0466667   0.0466667   0.0000000), wk =   0.0076628
        k(   16) = (   0.0500000   0.0500000   0.0000000), wk =   0.0076628
        k(   17) = (   0.0533333   0.0533333   0.0000000), wk =   0.0076628
        k(   18) = (   0.0566667   0.0566667   0.0000000), wk =   0.0076628
        k(   19) = (   0.0600000   0.0600000   0.0000000), wk =   0.0076628
        k(   20) = (   0.0633333   0.0633333   0.0000000), wk =   0.0076628
        k(   21) = (   0.0666667   0.0666667   0.0000000), wk =   0.0076628
        k(   22) = (   0.0700000   0.0700000   0.0000000), wk =   0.0076628
        k(   23) = (   0.0733333   0.0733333   0.0000000), wk =   0.0076628
        k(   24) = (   0.0766667   0.0766667   0.0000000), wk =   0.0076628
        k(   25) = (   0.0800000   0.0800000   0.0000000), wk =   0.0076628
        k(   26) = (   0.0833333   0.0833333   0.0000000), wk =   0.0076628
        k(   27) = (   0.0866667   0.0866667   0.0000000), wk =   0.0076628
        k(   28) = (   0.0900000   0.0900000   0.0000000), wk =   0.0076628
        k(   29) = (   0.0933333   0.0933333   0.0000000), wk =   0.0076628
        k(   30) = (   0.0966667   0.0966667   0.0000000), wk =   0.0076628
        k(   31) = (   0.1000000   0.1000000   0.0000000), wk =   0.0076628
        k(   32) = (   0.1033333   0.1033333   0.0000000), wk =   0.0076628
        k(   33) = (   0.1066667   0.1066667   0.0000000), wk =   0.0076628
        k(   34) = (   0.1100000   0.1100000   0.0000000), wk =   0.0076628
        k(   35) = (   0.1133333   0.1133333   0.0000000), wk =   0.0076628
        k(   36) = (   0.1166667   0.1166667   0.0000000), wk =   0.0076628
        k(   37) = (   0.1200000   0.1200000   0.0000000), wk =   0.0076628
        k(   38) = (   0.1233333   0.1233333   0.0000000), wk =   0.0076628
        k(   39) = (   0.1266667   0.1266667   0.0000000), wk =   0.0076628
        k(   40) = (   0.1300000   0.1300000   0.0000000), wk =   0.0076628
        k(   41) = (   0.1333333   0.1333333   0.0000000), wk =   0.0076628
        k(   42) = (   0.1366667   0.1366667   0.0000000), wk =   0.0076628
        k(   43) = (   0.1400000   0.1400000   0.0000000), wk =   0.0076628
        k(   44) = (   0.1433333   0.1433333   0.0000000), wk =   0.0076628
        k(   45) = (   0.1466667   0.1466667   0.0000000), wk =   0.0076628
        k(   46) = (   0.1500000   0.1500000   0.0000000), wk =   0.0076628
        k(   47) = (   0.1533333   0.1533333   0.0000000), wk =   0.0076628
        k(   48) = (   0.1566667   0.1566667   0.0000000), wk =   0.0076628
        k(   49) = (   0.1600000   0.1600000   0.0000000), wk =   0.0076628
        k(   50) = (   0.1633333   0.1633333   0.0000000), wk =   0.0076628
        k(   51) = (   0.1666667   0.1666667   0.0000000), wk =   0.0076628
        k(   52) = (   0.1700000   0.1700000   0.0000000), wk =   0.0076628
        k(   53) = (   0.1733333   0.1733333   0.0000000), wk =   0.0076628
        k(   54) = (   0.1766667   0.1766667   0.0000000), wk =   0.0076628
        k(   55) = (   0.1800000   0.1800000   0.0000000), wk =   0.0076628
        k(   56) = (   0.1833333   0.1833333   0.0000000), wk =   0.0076628
        k(   57) = (   0.1866667   0.1866667   0.0000000), wk =   0.0076628
        k(   58) = (   0.1900000   0.1900000   0.0000000), wk =   0.0076628
        k(   59) = (   0.1933333   0.1933333   0.0000000), wk =   0.0076628
        k(   60) = (   0.1966667   0.1966667   0.0000000), wk =   0.0076628
        k(   61) = (   0.2000000   0.2000000   0.0000000), wk =   0.0076628
        k(   62) = (   0.2033333   0.2033333   0.0000000), wk =   0.0076628
        k(   63) = (   0.2066667   0.2066667   0.0000000), wk =   0.0076628
        k(   64) = (   0.2100000   0.2100000   0.0000000), wk =   0.0076628
        k(   65) = (   0.2133333   0.2133333   0.0000000), wk =   0.0076628
        k(   66) = (   0.2166667   0.2166667   0.0000000), wk =   0.0076628
        k(   67) = (   0.2200000   0.2200000   0.0000000), wk =   0.0076628
        k(   68) = (   0.2233333   0.2233333   0.0000000), wk =   0.0076628
        k(   69) = (   0.2266667   0.2266667   0.0000000), wk =   0.0076628
        k(   70) = (   0.2300000   0.2300000   0.0000000), wk =   0.0076628
        k(   71) = (   0.2333333   0.2333333   0.0000000), wk =   0.0076628
        k(   72) = (   0.2366667   0.2366667   0.0000000), wk =   0.0076628
        k(   73) = (   0.2400000   0.2400000   0.0000000), wk =   0.0076628
        k(   74) = (   0.2433333   0.2433333   0.0000000), wk =   0.0076628
        k(   75) = (   0.2466667   0.2466667   0.0000000), wk =   0.0076628
        k(   76) = (   0.2500000   0.2500000   0.0000000), wk =   0.0076628
        k(   77) = (   0.2533333   0.2533333   0.0000000), wk =   0.0076628
        k(   78) = (   0.2566667   0.2566667   0.0000000), wk =   0.0076628
        k(   79) = (   0.2600000   0.2600000   0.0000000), wk =   0.0076628
        k(   80) = (   0.2633333   0.2633333   0.0000000), wk =   0.0076628
        k(   81) = (   0.2666667   0.2666667   0.0000000), wk =   0.0076628
        k(   82) = (   0.2700000   0.2700000   0.0000000), wk =   0.0076628
        k(   83) = (   0.2733333   0.2733333   0.0000000), wk =   0.0076628
        k(   84) = (   0.2766667   0.2766667   0.0000000), wk =   0.0076628
        k(   85) = (   0.2800000   0.2800000   0.0000000), wk =   0.0076628
        k(   86) = (   0.2833333   0.2833333   0.0000000), wk =   0.0076628
        k(   87) = (   0.2866667   0.2866667   0.0000000), wk =   0.0076628
        k(   88) = (   0.2900000   0.2900000   0.0000000), wk =   0.0076628
        k(   89) = (   0.2933333   0.2933333   0.0000000), wk =   0.0076628
        k(   90) = (   0.2966667   0.2966667   0.0000000), wk =   0.0076628
        k(   91) = (   0.3000000   0.3000000   0.0000000), wk =   0.0076628
        k(   92) = (   0.3033333   0.3033333   0.0000000), wk =   0.0076628
        k(   93) = (   0.3066667   0.3066667   0.0000000), wk =   0.0076628
        k(   94) = (   0.3100000   0.3100000   0.0000000), wk =   0.0076628
        k(   95) = (   0.3133333   0.3133333   0.0000000), wk =   0.0076628
        k(   96) = (   0.3166667   0.3166667   0.0000000), wk =   0.0076628
        k(   97) = (   0.3200000   0.3200000   0.0000000), wk =   0.0076628
        k(   98) = (   0.3233333   0.3233333   0.0000000), wk =   0.0076628
        k(   99) = (   0.3266667   0.3266667   0.0000000), wk =   0.0076628
        k(  100) = (   0.3300000   0.3300000   0.0000000), wk =   0.0076628
        k(  101) = (   0.3333333   0.3333333   0.0000000), wk =   0.0076628
        k(  102) = (   0.3361111   0.3277778   0.0000000), wk =   0.0076628
        k(  103) = (   0.3388889   0.3222222   0.0000000), wk =   0.0076628
        k(  104) = (   0.3416667   0.3166667   0.0000000), wk =   0.0076628
        k(  105) = (   0.3444444   0.3111111   0.0000000), wk =   0.0076628
        k(  106) = (   0.3472222   0.3055556   0.0000000), wk =   0.0076628
        k(  107) = (   0.3500000   0.3000000   0.0000000), wk =   0.0076628
        k(  108) = (   0.3527778   0.2944444   0.0000000), wk =   0.0076628
        k(  109) = (   0.3555556   0.2888889   0.0000000), wk =   0.0076628
        k(  110) = (   0.3583333   0.2833333   0.0000000), wk =   0.0076628
        k(  111) = (   0.3611111   0.2777778   0.0000000), wk =   0.0076628
        k(  112) = (   0.3638889   0.2722222   0.0000000), wk =   0.0076628
        k(  113) = (   0.3666667   0.2666667   0.0000000), wk =   0.0076628
        k(  114) = (   0.3694444   0.2611111   0.0000000), wk =   0.0076628
        k(  115) = (   0.3722222   0.2555556   0.0000000), wk =   0.0076628
        k(  116) = (   0.3750000   0.2500000   0.0000000), wk =   0.0076628
        k(  117) = (   0.3777778   0.2444444   0.0000000), wk =   0.0076628
        k(  118) = (   0.3805556   0.2388889   0.0000000), wk =   0.0076628
        k(  119) = (   0.3833333   0.2333333   0.0000000), wk =   0.0076628
        k(  120) = (   0.3861111   0.2277778   0.0000000), wk =   0.0076628
        k(  121) = (   0.3888889   0.2222222   0.0000000), wk =   0.0076628
        k(  122) = (   0.3916667   0.2166667   0.0000000), wk =   0.0076628
        k(  123) = (   0.3944444   0.2111111   0.0000000), wk =   0.0076628
        k(  124) = (   0.3972222   0.2055556   0.0000000), wk =   0.0076628
        k(  125) = (   0.4000000   0.2000000   0.0000000), wk =   0.0076628
        k(  126) = (   0.4027778   0.1944444   0.0000000), wk =   0.0076628
        k(  127) = (   0.4055556   0.1888889   0.0000000), wk =   0.0076628
        k(  128) = (   0.4083333   0.1833333   0.0000000), wk =   0.0076628
        k(  129) = (   0.4111111   0.1777778   0.0000000), wk =   0.0076628
        k(  130) = (   0.4138889   0.1722222   0.0000000), wk =   0.0076628
        k(  131) = (   0.4166667   0.1666667   0.0000000), wk =   0.0076628
        k(  132) = (   0.4194444   0.1611111   0.0000000), wk =   0.0076628
        k(  133) = (   0.4222222   0.1555556   0.0000000), wk =   0.0076628
        k(  134) = (   0.4250000   0.1500000   0.0000000), wk =   0.0076628
        k(  135) = (   0.4277778   0.1444444   0.0000000), wk =   0.0076628
        k(  136) = (   0.4305556   0.1388889   0.0000000), wk =   0.0076628
        k(  137) = (   0.4333333   0.1333333   0.0000000), wk =   0.0076628
        k(  138) = (   0.4361111   0.1277778   0.0000000), wk =   0.0076628
        k(  139) = (   0.4388889   0.1222222   0.0000000), wk =   0.0076628
        k(  140) = (   0.4416667   0.1166667   0.0000000), wk =   0.0076628
        k(  141) = (   0.4444444   0.1111111   0.0000000), wk =   0.0076628
        k(  142) = (   0.4472222   0.1055556   0.0000000), wk =   0.0076628
        k(  143) = (   0.4500000   0.1000000   0.0000000), wk =   0.0076628
        k(  144) = (   0.4527778   0.0944444   0.0000000), wk =   0.0076628
        k(  145) = (   0.4555556   0.0888889   0.0000000), wk =   0.0076628
        k(  146) = (   0.4583333   0.0833333   0.0000000), wk =   0.0076628
        k(  147) = (   0.4611111   0.0777778   0.0000000), wk =   0.0076628
        k(  148) = (   0.4638889   0.0722222   0.0000000), wk =   0.0076628
        k(  149) = (   0.4666667   0.0666667   0.0000000), wk =   0.0076628
        k(  150) = (   0.4694444   0.0611111   0.0000000), wk =   0.0076628
        k(  151) = (   0.4722222   0.0555556   0.0000000), wk =   0.0076628
        k(  152) = (   0.4750000   0.0500000   0.0000000), wk =   0.0076628
        k(  153) = (   0.4777778   0.0444444   0.0000000), wk =   0.0076628
        k(  154) = (   0.4805556   0.0388889   0.0000000), wk =   0.0076628
        k(  155) = (   0.4833333   0.0333333   0.0000000), wk =   0.0076628
        k(  156) = (   0.4861111   0.0277778   0.0000000), wk =   0.0076628
        k(  157) = (   0.4888889   0.0222222   0.0000000), wk =   0.0076628
        k(  158) = (   0.4916667   0.0166667   0.0000000), wk =   0.0076628
        k(  159) = (   0.4944444   0.0111111   0.0000000), wk =   0.0076628
        k(  160) = (   0.4972222   0.0055556   0.0000000), wk =   0.0076628
        k(  161) = (   0.5000000   0.0000000   0.0000000), wk =   0.0076628
        k(  162) = (   0.4950000   0.0000000   0.0000000), wk =   0.0076628
        k(  163) = (   0.4900000   0.0000000   0.0000000), wk =   0.0076628
        k(  164) = (   0.4850000   0.0000000   0.0000000), wk =   0.0076628
        k(  165) = (   0.4800000   0.0000000   0.0000000), wk =   0.0076628
        k(  166) = (   0.4750000   0.0000000   0.0000000), wk =   0.0076628
        k(  167) = (   0.4700000  -0.0000000   0.0000000), wk =   0.0076628
        k(  168) = (   0.4650000   0.0000000   0.0000000), wk =   0.0076628
        k(  169) = (   0.4600000   0.0000000   0.0000000), wk =   0.0076628
        k(  170) = (   0.4550000  -0.0000000   0.0000000), wk =   0.0076628
        k(  171) = (   0.4500000   0.0000000   0.0000000), wk =   0.0076628
        k(  172) = (   0.4450000  -0.0000000   0.0000000), wk =   0.0076628
        k(  173) = (   0.4400000   0.0000000   0.0000000), wk =   0.0076628
        k(  174) = (   0.4350000   0.0000000   0.0000000), wk =   0.0076628
        k(  175) = (   0.4300000  -0.0000000   0.0000000), wk =   0.0076628
        k(  176) = (   0.4250000  -0.0000000   0.0000000), wk =   0.0076628
        k(  177) = (   0.4200000  -0.0000000   0.0000000), wk =   0.0076628
        k(  178) = (   0.4150000  -0.0000000   0.0000000), wk =   0.0076628
        k(  179) = (   0.4100000   0.0000000   0.0000000), wk =   0.0076628
        k(  180) = (   0.4050000   0.0000000   0.0000000), wk =   0.0076628
        k(  181) = (   0.4000000   0.0000000   0.0000000), wk =   0.0076628
        k(  182) = (   0.3950000   0.0000000   0.0000000), wk =   0.0076628
        k(  183) = (   0.3900000   0.0000000   0.0000000), wk =   0.0076628
        k(  184) = (   0.3850000  -0.0000000   0.0000000), wk =   0.0076628
        k(  185) = (   0.3800000  -0.0000000   0.0000000), wk =   0.0076628
        k(  186) = (   0.3750000  -0.0000000   0.0000000), wk =   0.0076628
        k(  187) = (   0.3700000   0.0000000   0.0000000), wk =   0.0076628
        k(  188) = (   0.3650000   0.0000000   0.0000000), wk =   0.0076628
        k(  189) = (   0.3600000   0.0000000   0.0000000), wk =   0.0076628
        k(  190) = (   0.3550000   0.0000000   0.0000000), wk =   0.0076628
        k(  191) = (   0.3500000   0.0000000   0.0000000), wk =   0.0076628
        k(  192) = (   0.3450000   0.0000000   0.0000000), wk =   0.0076628
        k(  193) = (   0.3400000   0.0000000   0.0000000), wk =   0.0076628
        k(  194) = (   0.3350000   0.0000000   0.0000000), wk =   0.0076628
        k(  195) = (   0.3300000   0.0000000   0.0000000), wk =   0.0076628
        k(  196) = (   0.3250000   0.0000000   0.0000000), wk =   0.0076628
        k(  197) = (   0.3200000   0.0000000   0.0000000), wk =   0.0076628
        k(  198) = (   0.3150000   0.0000000   0.0000000), wk =   0.0076628
        k(  199) = (   0.3100000   0.0000000   0.0000000), wk =   0.0076628
        k(  200) = (   0.3050000   0.0000000   0.0000000), wk =   0.0076628
        k(  201) = (   0.3000000   0.0000000   0.0000000), wk =   0.0076628
        k(  202) = (   0.2950000   0.0000000   0.0000000), wk =   0.0076628
        k(  203) = (   0.2900000   0.0000000   0.0000000), wk =   0.0076628
        k(  204) = (   0.2850000   0.0000000   0.0000000), wk =   0.0076628
        k(  205) = (   0.2800000   0.0000000   0.0000000), wk =   0.0076628
        k(  206) = (   0.2750000   0.0000000   0.0000000), wk =   0.0076628
        k(  207) = (   0.2700000   0.0000000   0.0000000), wk =   0.0076628
        k(  208) = (   0.2650000   0.0000000   0.0000000), wk =   0.0076628
        k(  209) = (   0.2600000   0.0000000   0.0000000), wk =   0.0076628
        k(  210) = (   0.2550000   0.0000000   0.0000000), wk =   0.0076628
        k(  211) = (   0.2500000   0.0000000   0.0000000), wk =   0.0076628
        k(  212) = (   0.2450000   0.0000000   0.0000000), wk =   0.0076628
        k(  213) = (   0.2400000   0.0000000   0.0000000), wk =   0.0076628
        k(  214) = (   0.2350000  -0.0000000   0.0000000), wk =   0.0076628
        k(  215) = (   0.2300000  -0.0000000   0.0000000), wk =   0.0076628
        k(  216) = (   0.2250000  -0.0000000   0.0000000), wk =   0.0076628
        k(  217) = (   0.2200000  -0.0000000   0.0000000), wk =   0.0076628
        k(  218) = (   0.2150000   0.0000000   0.0000000), wk =   0.0076628
        k(  219) = (   0.2100000  -0.0000000   0.0000000), wk =   0.0076628
        k(  220) = (   0.2050000   0.0000000   0.0000000), wk =   0.0076628
        k(  221) = (   0.2000000   0.0000000   0.0000000), wk =   0.0076628
        k(  222) = (   0.1950000   0.0000000   0.0000000), wk =   0.0076628
        k(  223) = (   0.1900000  -0.0000000   0.0000000), wk =   0.0076628
        k(  224) = (   0.1850000   0.0000000   0.0000000), wk =   0.0076628
        k(  225) = (   0.1800000   0.0000000   0.0000000), wk =   0.0076628
        k(  226) = (   0.1750000   0.0000000   0.0000000), wk =   0.0076628
        k(  227) = (   0.1700000   0.0000000   0.0000000), wk =   0.0076628
        k(  228) = (   0.1650000   0.0000000   0.0000000), wk =   0.0076628
        k(  229) = (   0.1600000   0.0000000   0.0000000), wk =   0.0076628
        k(  230) = (   0.1550000   0.0000000   0.0000000), wk =   0.0076628
        k(  231) = (   0.1500000   0.0000000   0.0000000), wk =   0.0076628
        k(  232) = (   0.1450000   0.0000000   0.0000000), wk =   0.0076628
        k(  233) = (   0.1400000   0.0000000   0.0000000), wk =   0.0076628
        k(  234) = (   0.1350000   0.0000000   0.0000000), wk =   0.0076628
        k(  235) = (   0.1300000   0.0000000   0.0000000), wk =   0.0076628
        k(  236) = (   0.1250000   0.0000000   0.0000000), wk =   0.0076628
        k(  237) = (   0.1200000   0.0000000   0.0000000), wk =   0.0076628
        k(  238) = (   0.1150000  -0.0000000   0.0000000), wk =   0.0076628
        k(  239) = (   0.1100000  -0.0000000   0.0000000), wk =   0.0076628
        k(  240) = (   0.1050000  -0.0000000   0.0000000), wk =   0.0076628
        k(  241) = (   0.1000000  -0.0000000   0.0000000), wk =   0.0076628
        k(  242) = (   0.0950000   0.0000000   0.0000000), wk =   0.0076628
        k(  243) = (   0.0900000   0.0000000   0.0000000), wk =   0.0076628
        k(  244) = (   0.0850000   0.0000000   0.0000000), wk =   0.0076628
        k(  245) = (   0.0800000   0.0000000   0.0000000), wk =   0.0076628
        k(  246) = (   0.0750000   0.0000000   0.0000000), wk =   0.0076628
        k(  247) = (   0.0700000   0.0000000   0.0000000), wk =   0.0076628
        k(  248) = (   0.0650000   0.0000000   0.0000000), wk =   0.0076628
        k(  249) = (   0.0600000   0.0000000   0.0000000), wk =   0.0076628
        k(  250) = (   0.0550000  -0.0000000   0.0000000), wk =   0.0076628
        k(  251) = (   0.0500000  -0.0000000   0.0000000), wk =   0.0076628
        k(  252) = (   0.0450000   0.0000000   0.0000000), wk =   0.0076628
        k(  253) = (   0.0400000   0.0000000   0.0000000), wk =   0.0076628
        k(  254) = (   0.0350000   0.0000000   0.0000000), wk =   0.0076628
        k(  255) = (   0.0300000   0.0000000   0.0000000), wk =   0.0076628
        k(  256) = (   0.0250000  -0.0000000   0.0000000), wk =   0.0076628
        k(  257) = (   0.0200000   0.0000000   0.0000000), wk =   0.0076628
        k(  258) = (   0.0150000   0.0000000   0.0000000), wk =   0.0076628
        k(  259) = (   0.0100000   0.0000000   0.0000000), wk =   0.0076628
        k(  260) = (   0.0050000   0.0000000   0.0000000), wk =   0.0076628
        k(  261) = (   0.0000000   0.0000000   0.0000000), wk =   0.0076628

     Dense  grid:   135261 G-vectors     FFT dimensions: (  36,  36, 250)

     Smooth grid:    96835 G-vectors     FFT dimensions: (  32,  32, 225)

     Dynamical RAM for                 wfc:       6.46 MB

     Dynamical RAM for     wfc (w. buffer):       6.46 MB

     Dynamical RAM for           str. fact:       6.19 MB

     Dynamical RAM for           local pot:       0.00 MB

     Dynamical RAM for          nlocal pot:      12.19 MB

     Dynamical RAM for                qrad:       4.82 MB

     Dynamical RAM for          rho,v,vnew:      13.61 MB

     Dynamical RAM for           G-vectors:       8.48 MB

     Dynamical RAM for          h,s,v(r/c):       0.22 MB

     Dynamical RAM for          <psi|beta>:       0.04 MB

     Dynamical RAM for                 psi:      12.92 MB

     Dynamical RAM for                hpsi:      12.92 MB

     Dynamical RAM for      wfcinit/wfcrot:      12.95 MB

     Estimated static dynamical RAM per process >      72.36 MB

     Estimated max dynamical RAM per process >      98.46 MB
 ----2D----2D----2D----2D----2D----2D----2D----2D----2D----2D----2D----2D
  The code is running with the 2D cutoff
  Please refer to:
  Sohier, T., Calandra, M., & Mauri, F. (2017), 
  Density functional perturbation theory for gated two-dimensional heterostructures:
  Theoretical developments and application to flexural phonons in graphene.
  Physical Review B, 96(7), 75448. https://doi.org/10.1103/PhysRevB.96.075448
 ----2D----2D----2D----2D----2D----2D----2D----2D----2D----2D----2D----2D

     The potential is recalculated from file :
     ./tmp/crsi2n4.save/charge-density

     Starting wfcs are   34 randomized atomic wfcs +    1 random wfcs

     Band Structure Calculation
     Davidson diagonalization with overlap

     Computing kpt #:     1  of   261
     total cpu time spent up to now is        3.7 secs

     Computing kpt #:     2  of   261
     total cpu time spent up to now is        5.4 secs

     Computing kpt #:     3  of   261
     total cpu time spent up to now is        7.1 secs

     Computing kpt #:     4  of   261
     total cpu time spent up to now is        8.7 secs

     Computing kpt #:     5  of   261
     total cpu time spent up to now is       10.4 secs

     Computing kpt #:     6  of   261
     total cpu time spent up to now is       12.1 secs

     Computing kpt #:     7  of   261
     total cpu time spent up to now is       14.0 secs

     Computing kpt #:     8  of   261
     total cpu time spent up to now is       15.7 secs

     Computing kpt #:     9  of   261
     total cpu time spent up to now is       17.5 secs

     Computing kpt #:    10  of   261
     total cpu time spent up to now is       19.4 secs

     Computing kpt #:    11  of   261
     total cpu time spent up to now is       21.3 secs

     Computing kpt #:    12  of   261
     total cpu time spent up to now is       23.1 secs

     Computing kpt #:    13  of   261
     total cpu time spent up to now is       25.0 secs

     Computing kpt #:    14  of   261
     total cpu time spent up to now is       26.9 secs

     Computing kpt #:    15  of   261
     total cpu time spent up to now is       28.8 secs

     Computing kpt #:    16  of   261
     total cpu time spent up to now is       30.9 secs

     Computing kpt #:    17  of   261
     total cpu time spent up to now is       32.7 secs

     Computing kpt #:    18  of   261
     total cpu time spent up to now is       34.6 secs

     Computing kpt #:    19  of   261
     total cpu time spent up to now is       36.5 secs

     Computing kpt #:    20  of   261
     total cpu time spent up to now is       38.5 secs

     Computing kpt #:    21  of   261
     total cpu time spent up to now is       40.5 secs

     Computing kpt #:    22  of   261
     total cpu time spent up to now is       42.5 secs

     Computing kpt #:    23  of   261
     total cpu time spent up to now is       44.5 secs

     Computing kpt #:    24  of   261
     total cpu time spent up to now is       46.6 secs

     Computing kpt #:    25  of   261
     total cpu time spent up to now is       48.6 secs

     Computing kpt #:    26  of   261
     total cpu time spent up to now is       50.6 secs

     Computing kpt #:    27  of   261
     total cpu time spent up to now is       52.6 secs

     Computing kpt #:    28  of   261
     total cpu time spent up to now is       54.7 secs

     Computing kpt #:    29  of   261
     total cpu time spent up to now is       56.7 secs

     Computing kpt #:    30  of   261
     total cpu time spent up to now is       58.8 secs

     Computing kpt #:    31  of   261
     total cpu time spent up to now is       60.9 secs

     Computing kpt #:    32  of   261
     total cpu time spent up to now is       62.9 secs

     Computing kpt #:    33  of   261
     total cpu time spent up to now is       65.0 secs

     Computing kpt #:    34  of   261
     total cpu time spent up to now is       67.2 secs

     Computing kpt #:    35  of   261
     total cpu time spent up to now is       69.4 secs

     Computing kpt #:    36  of   261
     total cpu time spent up to now is       71.6 secs

     Computing kpt #:    37  of   261
     total cpu time spent up to now is       73.9 secs

     Computing kpt #:    38  of   261
     total cpu time spent up to now is       76.2 secs

     Computing kpt #:    39  of   261
     total cpu time spent up to now is       78.5 secs

     Computing kpt #:    40  of   261
     total cpu time spent up to now is       80.8 secs

     Computing kpt #:    41  of   261
     total cpu time spent up to now is       83.1 secs

     Computing kpt #:    42  of   261
     total cpu time spent up to now is       85.4 secs

     Computing kpt #:    43  of   261
     total cpu time spent up to now is       87.9 secs

     Computing kpt #:    44  of   261
     total cpu time spent up to now is       90.4 secs

     Computing kpt #:    45  of   261
     total cpu time spent up to now is       93.0 secs

     Computing kpt #:    46  of   261
     total cpu time spent up to now is       95.5 secs

     Computing kpt #:    47  of   261
     c_bands:  1 eigenvalues not converged
     total cpu time spent up to now is       98.7 secs

     Computing kpt #:    48  of   261
     c_bands:  1 eigenvalues not converged
     total cpu time spent up to now is      101.9 secs

     Computing kpt #:    49  of   261
     total cpu time spent up to now is      105.1 secs

     Computing kpt #:    50  of   261
     total cpu time spent up to now is      107.9 secs

     Computing kpt #:    51  of   261
     total cpu time spent up to now is      111.0 secs

     Computing kpt #:    52  of   261
     total cpu time spent up to now is      113.6 secs

     Computing kpt #:    53  of   261
     total cpu time spent up to now is      116.3 secs

     Computing kpt #:    54  of   261
     total cpu time spent up to now is      119.0 secs

     Computing kpt #:    55  of   261
     total cpu time spent up to now is      121.2 secs

     Computing kpt #:    56  of   261
     total cpu time spent up to now is      123.5 secs

     Computing kpt #:    57  of   261
     total cpu time spent up to now is      125.7 secs

     Computing kpt #:    58  of   261
     total cpu time spent up to now is      127.7 secs

     Computing kpt #:    59  of   261
     total cpu time spent up to now is      129.7 secs

     Computing kpt #:    60  of   261
     total cpu time spent up to now is      131.7 secs

     Computing kpt #:    61  of   261
     total cpu time spent up to now is      133.6 secs

     Computing kpt #:    62  of   261
     total cpu time spent up to now is      135.5 secs

     Computing kpt #:    63  of   261
     total cpu time spent up to now is      137.4 secs

     Computing kpt #:    64  of   261
     total cpu time spent up to now is      139.5 secs

     Computing kpt #:    65  of   261
     total cpu time spent up to now is      141.5 secs

     Computing kpt #:    66  of   261
     total cpu time spent up to now is      143.6 secs

     Computing kpt #:    67  of   261
     total cpu time spent up to now is      145.8 secs

     Computing kpt #:    68  of   261
     total cpu time spent up to now is      148.0 secs

     Computing kpt #:    69  of   261
     total cpu time spent up to now is      150.9 secs

     Computing kpt #:    70  of   261
     c_bands:  1 eigenvalues not converged
     total cpu time spent up to now is      154.1 secs

     Computing kpt #:    71  of   261
     c_bands:  1 eigenvalues not converged
     total cpu time spent up to now is      157.3 secs

     Computing kpt #:    72  of   261
     total cpu time spent up to now is      160.3 secs

     Computing kpt #:    73  of   261
     c_bands:  1 eigenvalues not converged
     total cpu time spent up to now is      163.4 secs

     Computing kpt #:    74  of   261
     total cpu time spent up to now is      166.0 secs

     Computing kpt #:    75  of   261
     total cpu time spent up to now is      168.5 secs

     Computing kpt #:    76  of   261
     total cpu time spent up to now is      170.7 secs

     Computing kpt #:    77  of   261
     total cpu time spent up to now is      172.7 secs

     Computing kpt #:    78  of   261
     total cpu time spent up to now is      174.7 secs

     Computing kpt #:    79  of   261
     total cpu time spent up to now is      176.5 secs

     Computing kpt #:    80  of   261
     total cpu time spent up to now is      178.2 secs

     Computing kpt #:    81  of   261
     total cpu time spent up to now is      180.1 secs

     Computing kpt #:    82  of   261
     total cpu time spent up to now is      181.9 secs

     Computing kpt #:    83  of   261
     total cpu time spent up to now is      183.8 secs

     Computing kpt #:    84  of   261
     total cpu time spent up to now is      185.8 secs

     Computing kpt #:    85  of   261
     total cpu time spent up to now is      187.6 secs

     Computing kpt #:    86  of   261
     total cpu time spent up to now is      189.5 secs

     Computing kpt #:    87  of   261
     total cpu time spent up to now is      191.4 secs

     Computing kpt #:    88  of   261
     total cpu time spent up to now is      193.2 secs

     Computing kpt #:    89  of   261
     total cpu time spent up to now is      195.1 secs

     Computing kpt #:    90  of   261
     total cpu time spent up to now is      196.9 secs

     Computing kpt #:    91  of   261
     total cpu time spent up to now is      198.7 secs

     Computing kpt #:    92  of   261
     total cpu time spent up to now is      200.5 secs

     Computing kpt #:    93  of   261
     total cpu time spent up to now is      202.3 secs

     Computing kpt #:    94  of   261
     total cpu time spent up to now is      204.1 secs

     Computing kpt #:    95  of   261
     total cpu time spent up to now is      205.8 secs

     Computing kpt #:    96  of   261
     total cpu time spent up to now is      207.4 secs

     Computing kpt #:    97  of   261
     total cpu time spent up to now is      209.1 secs

     Computing kpt #:    98  of   261
     total cpu time spent up to now is      210.8 secs

     Computing kpt #:    99  of   261
     total cpu time spent up to now is      212.5 secs

     Computing kpt #:   100  of   261
     total cpu time spent up to now is      214.1 secs

     Computing kpt #:   101  of   261
     total cpu time spent up to now is      215.7 secs

     Computing kpt #:   102  of   261
     total cpu time spent up to now is      217.3 secs

     Computing kpt #:   103  of   261
     total cpu time spent up to now is      219.0 secs

     Computing kpt #:   104  of   261
     total cpu time spent up to now is      220.9 secs

     Computing kpt #:   105  of   261
     total cpu time spent up to now is      222.6 secs

     Computing kpt #:   106  of   261
     total cpu time spent up to now is      224.4 secs

     Computing kpt #:   107  of   261
     total cpu time spent up to now is      226.2 secs

     Computing kpt #:   108  of   261
     total cpu time spent up to now is      228.0 secs

     Computing kpt #:   109  of   261
     total cpu time spent up to now is      229.8 secs

     Computing kpt #:   110  of   261
     total cpu time spent up to now is      231.6 secs

     Computing kpt #:   111  of   261
     total cpu time spent up to now is      233.4 secs

     Computing kpt #:   112  of   261
     total cpu time spent up to now is      235.3 secs

     Computing kpt #:   113  of   261
     total cpu time spent up to now is      237.1 secs

     Computing kpt #:   114  of   261
     total cpu time spent up to now is      239.0 secs

     Computing kpt #:   115  of   261
     total cpu time spent up to now is      240.8 secs

     Computing kpt #:   116  of   261
     total cpu time spent up to now is      242.6 secs

     Computing kpt #:   117  of   261
     total cpu time spent up to now is      244.4 secs

     Computing kpt #:   118  of   261
     total cpu time spent up to now is      246.3 secs

     Computing kpt #:   119  of   261
     total cpu time spent up to now is      248.2 secs

     Computing kpt #:   120  of   261
     total cpu time spent up to now is      250.1 secs

     Computing kpt #:   121  of   261
     total cpu time spent up to now is      252.0 secs

     Computing kpt #:   122  of   261
     total cpu time spent up to now is      253.9 secs

     Computing kpt #:   123  of   261
     total cpu time spent up to now is      255.9 secs

     Computing kpt #:   124  of   261
     total cpu time spent up to now is      257.7 secs

     Computing kpt #:   125  of   261
     total cpu time spent up to now is      259.6 secs

     Computing kpt #:   126  of   261
     total cpu time spent up to now is      261.6 secs

     Computing kpt #:   127  of   261
     total cpu time spent up to now is      263.5 secs

     Computing kpt #:   128  of   261
     total cpu time spent up to now is      265.4 secs

     Computing kpt #:   129  of   261
     total cpu time spent up to now is      267.3 secs

     Computing kpt #:   130  of   261
     total cpu time spent up to now is      269.1 secs

     Computing kpt #:   131  of   261
     total cpu time spent up to now is      270.9 secs

     Computing kpt #:   132  of   261
     total cpu time spent up to now is      272.8 secs

     Computing kpt #:   133  of   261
     total cpu time spent up to now is      274.7 secs

     Computing kpt #:   134  of   261
     total cpu time spent up to now is      276.7 secs

     Computing kpt #:   135  of   261
     total cpu time spent up to now is      278.5 secs

     Computing kpt #:   136  of   261
     total cpu time spent up to now is      280.4 secs

     Computing kpt #:   137  of   261
     total cpu time spent up to now is      282.3 secs

     Computing kpt #:   138  of   261
     total cpu time spent up to now is      284.2 secs

     Computing kpt #:   139  of   261
     total cpu time spent up to now is      285.9 secs

     Computing kpt #:   140  of   261
     total cpu time spent up to now is      287.9 secs

     Computing kpt #:   141  of   261
     total cpu time spent up to now is      289.9 secs

     Computing kpt #:   142  of   261
     total cpu time spent up to now is      291.7 secs

     Computing kpt #:   143  of   261
     total cpu time spent up to now is      293.7 secs

     Computing kpt #:   144  of   261
     total cpu time spent up to now is      295.6 secs

     Computing kpt #:   145  of   261
     total cpu time spent up to now is      297.5 secs

     Computing kpt #:   146  of   261
     total cpu time spent up to now is      299.4 secs

     Computing kpt #:   147  of   261
     total cpu time spent up to now is      301.3 secs

     Computing kpt #:   148  of   261
     total cpu time spent up to now is      303.4 secs

     Computing kpt #:   149  of   261
     total cpu time spent up to now is      305.4 secs

     Computing kpt #:   150  of   261
     total cpu time spent up to now is      307.3 secs

     Computing kpt #:   151  of   261
     total cpu time spent up to now is      309.4 secs

     Computing kpt #:   152  of   261
     total cpu time spent up to now is      311.3 secs

     Computing kpt #:   153  of   261
     total cpu time spent up to now is      313.4 secs

     Computing kpt #:   154  of   261
     total cpu time spent up to now is      315.4 secs

     Computing kpt #:   155  of   261
     total cpu time spent up to now is      317.5 secs

     Computing kpt #:   156  of   261
     total cpu time spent up to now is      319.5 secs

     Computing kpt #:   157  of   261
     total cpu time spent up to now is      321.5 secs

     Computing kpt #:   158  of   261
     total cpu time spent up to now is      323.4 secs

     Computing kpt #:   159  of   261
     total cpu time spent up to now is      325.4 secs

     Computing kpt #:   160  of   261
     total cpu time spent up to now is      327.1 secs

     Computing kpt #:   161  of   261
     total cpu time spent up to now is      328.8 secs

     Computing kpt #:   162  of   261
     total cpu time spent up to now is      330.6 secs

     Computing kpt #:   163  of   261
     total cpu time spent up to now is      332.4 secs

     Computing kpt #:   164  of   261
     total cpu time spent up to now is      334.2 secs

     Computing kpt #:   165  of   261
     total cpu time spent up to now is      335.9 secs

     Computing kpt #:   166  of   261
     total cpu time spent up to now is      337.7 secs

     Computing kpt #:   167  of   261
     total cpu time spent up to now is      339.4 secs

     Computing kpt #:   168  of   261
     total cpu time spent up to now is      341.2 secs

     Computing kpt #:   169  of   261
     total cpu time spent up to now is      343.1 secs

     Computing kpt #:   170  of   261
     total cpu time spent up to now is      344.9 secs

     Computing kpt #:   171  of   261
     total cpu time spent up to now is      346.8 secs

     Computing kpt #:   172  of   261
     total cpu time spent up to now is      348.7 secs

     Computing kpt #:   173  of   261
     total cpu time spent up to now is      350.6 secs

     Computing kpt #:   174  of   261
     total cpu time spent up to now is      352.7 secs

     Computing kpt #:   175  of   261
     total cpu time spent up to now is      354.6 secs

     Computing kpt #:   176  of   261
     total cpu time spent up to now is      356.6 secs

     Computing kpt #:   177  of   261
     total cpu time spent up to now is      358.6 secs

     Computing kpt #:   178  of   261
     total cpu time spent up to now is      360.6 secs

     Computing kpt #:   179  of   261
     total cpu time spent up to now is      362.7 secs

     Computing kpt #:   180  of   261
     total cpu time spent up to now is      364.7 secs

     Computing kpt #:   181  of   261
     total cpu time spent up to now is      366.9 secs

     Computing kpt #:   182  of   261
     total cpu time spent up to now is      368.8 secs

     Computing kpt #:   183  of   261
     total cpu time spent up to now is      370.6 secs

     Computing kpt #:   184  of   261
     total cpu time spent up to now is      372.8 secs

     Computing kpt #:   185  of   261
     total cpu time spent up to now is      375.1 secs

     Computing kpt #:   186  of   261
     total cpu time spent up to now is      377.3 secs

     Computing kpt #:   187  of   261
     total cpu time spent up to now is      379.6 secs

     Computing kpt #:   188  of   261
     total cpu time spent up to now is      382.3 secs

     Computing kpt #:   189  of   261
     total cpu time spent up to now is      385.3 secs

     Computing kpt #:   190  of   261
     total cpu time spent up to now is      387.6 secs

     Computing kpt #:   191  of   261
     total cpu time spent up to now is      390.1 secs

     Computing kpt #:   192  of   261
     total cpu time spent up to now is      392.5 secs

     Computing kpt #:   193  of   261
     total cpu time spent up to now is      394.6 secs

     Computing kpt #:   194  of   261
     total cpu time spent up to now is      397.0 secs

     Computing kpt #:   195  of   261
     total cpu time spent up to now is      399.2 secs

     Computing kpt #:   196  of   261
     total cpu time spent up to now is      401.6 secs

     Computing kpt #:   197  of   261
     total cpu time spent up to now is      404.3 secs

     Computing kpt #:   198  of   261
     total cpu time spent up to now is      406.6 secs

     Computing kpt #:   199  of   261
     total cpu time spent up to now is      408.9 secs

     Computing kpt #:   200  of   261
     total cpu time spent up to now is      411.1 secs

     Computing kpt #:   201  of   261
     total cpu time spent up to now is      413.4 secs

     Computing kpt #:   202  of   261
     total cpu time spent up to now is      415.7 secs

     Computing kpt #:   203  of   261
     total cpu time spent up to now is      418.1 secs

     Computing kpt #:   204  of   261
     total cpu time spent up to now is      420.4 secs

     Computing kpt #:   205  of   261
     total cpu time spent up to now is      422.6 secs

     Computing kpt #:   206  of   261
     total cpu time spent up to now is      424.9 secs

     Computing kpt #:   207  of   261
     total cpu time spent up to now is      427.3 secs

     Computing kpt #:   208  of   261
     total cpu time spent up to now is      429.7 secs

     Computing kpt #:   209  of   261
     total cpu time spent up to now is      431.8 secs

     Computing kpt #:   210  of   261
     total cpu time spent up to now is      434.0 secs

     Computing kpt #:   211  of   261
     total cpu time spent up to now is      436.1 secs

     Computing kpt #:   212  of   261
     total cpu time spent up to now is      438.4 secs

     Computing kpt #:   213  of   261
     total cpu time spent up to now is      440.8 secs

     Computing kpt #:   214  of   261
     total cpu time spent up to now is      443.1 secs

     Computing kpt #:   215  of   261
     total cpu time spent up to now is      445.4 secs

     Computing kpt #:   216  of   261
     total cpu time spent up to now is      447.6 secs

     Computing kpt #:   217  of   261
     total cpu time spent up to now is      449.9 secs

     Computing kpt #:   218  of   261
     total cpu time spent up to now is      452.1 secs

     Computing kpt #:   219  of   261
     total cpu time spent up to now is      454.4 secs

     Computing kpt #:   220  of   261
     total cpu time spent up to now is      456.5 secs

     Computing kpt #:   221  of   261
     total cpu time spent up to now is      458.8 secs

     Computing kpt #:   222  of   261
     total cpu time spent up to now is      460.8 secs

     Computing kpt #:   223  of   261
     total cpu time spent up to now is      463.0 secs

     Computing kpt #:   224  of   261
     total cpu time spent up to now is      465.3 secs

     Computing kpt #:   225  of   261
     total cpu time spent up to now is      467.2 secs

     Computing kpt #:   226  of   261
     total cpu time spent up to now is      469.5 secs

     Computing kpt #:   227  of   261
     total cpu time spent up to now is      471.8 secs

     Computing kpt #:   228  of   261
     total cpu time spent up to now is      474.0 secs

     Computing kpt #:   229  of   261
     total cpu time spent up to now is      476.3 secs

     Computing kpt #:   230  of   261
     total cpu time spent up to now is      478.5 secs

     Computing kpt #:   231  of   261
     total cpu time spent up to now is      480.3 secs

     Computing kpt #:   232  of   261
     total cpu time spent up to now is      482.2 secs

     Computing kpt #:   233  of   261
     total cpu time spent up to now is      484.4 secs

     Computing kpt #:   234  of   261
     total cpu time spent up to now is      486.5 secs

     Computing kpt #:   235  of   261
     total cpu time spent up to now is      488.6 secs

     Computing kpt #:   236  of   261
     total cpu time spent up to now is      490.9 secs

     Computing kpt #:   237  of   261
     total cpu time spent up to now is      492.8 secs

     Computing kpt #:   238  of   261
     total cpu time spent up to now is      494.9 secs

     Computing kpt #:   239  of   261
     total cpu time spent up to now is      496.9 secs

     Computing kpt #:   240  of   261
     total cpu time spent up to now is      499.1 secs

     Computing kpt #:   241  of   261
     total cpu time spent up to now is      501.2 secs

     Computing kpt #:   242  of   261
     total cpu time spent up to now is      503.2 secs

     Computing kpt #:   243  of   261
     total cpu time spent up to now is      505.3 secs

     Computing kpt #:   244  of   261
     total cpu time spent up to now is      507.3 secs

     Computing kpt #:   245  of   261
     total cpu time spent up to now is      509.4 secs

     Computing kpt #:   246  of   261
     total cpu time spent up to now is      511.4 secs

     Computing kpt #:   247  of   261
     total cpu time spent up to now is      513.2 secs

     Computing kpt #:   248  of   261
     total cpu time spent up to now is      515.0 secs

     Computing kpt #:   249  of   261
     total cpu time spent up to now is      517.0 secs

     Computing kpt #:   250  of   261
     total cpu time spent up to now is      519.0 secs

     Computing kpt #:   251  of   261
     total cpu time spent up to now is      521.0 secs

     Computing kpt #:   252  of   261
     total cpu time spent up to now is      522.9 secs

     Computing kpt #:   253  of   261
     total cpu time spent up to now is      524.7 secs

     Computing kpt #:   254  of   261
     total cpu time spent up to now is      526.5 secs

     Computing kpt #:   255  of   261
     total cpu time spent up to now is      528.3 secs

     Computing kpt #:   256  of   261
     total cpu time spent up to now is      530.2 secs

     Computing kpt #:   257  of   261
     total cpu time spent up to now is      532.1 secs

     Computing kpt #:   258  of   261
     total cpu time spent up to now is      533.8 secs

     Computing kpt #:   259  of   261
     total cpu time spent up to now is      535.6 secs

     Computing kpt #:   260  of   261
     total cpu time spent up to now is      537.5 secs

     Computing kpt #:   261  of   261
     total cpu time spent up to now is      539.3 secs

     ethr =  2.38E-13,  avg # of iterations = 71.4

     total cpu time spent up to now is      539.3 secs

     End of band structure calculation

          k = 0.0000 0.0000 0.0000 ( 12189 PWs)   bands (ev):

   -77.7616 -48.9807 -48.9807 -48.9034 -24.2585 -24.1684 -21.5557 -20.1537
   -13.7697 -11.1114  -9.2103  -9.2102  -9.2042  -9.1528  -9.1528  -8.7442
    -8.7440  -7.4537  -7.4528  -7.3160  -5.2635  -3.2837  -3.2825  -3.0998
    -3.0996  -1.0588  -0.7618   1.7120   1.9357   1.9783   3.0019   3.0020
     3.0853   3.0856   3.4090

          k = 0.0033 0.0058 0.0000 ( 12185 PWs)   bands (ev):

   -77.7616 -48.9808 -48.9808 -48.9033 -24.2579 -24.1679 -21.5553 -20.1535
   -13.7693 -11.1112  -9.2274  -9.2109  -9.1898  -9.1550  -9.1534  -8.7451
    -8.7439  -7.4560  -7.4534  -7.3137  -5.2638  -3.2831  -3.2831  -3.1007
    -3.1000  -1.0566  -0.7599   1.7137   1.9364   1.9787   2.9970   3.0035
     3.0807   3.0868   3.4150

          k = 0.0067 0.0115 0.0000 ( 12185 PWs)   bands (ev):

   -77.7616 -48.9810 -48.9808 -48.9033 -24.2563 -24.1662 -21.5540 -20.1528
   -13.7679 -11.1106  -9.2497  -9.2125  -9.1785  -9.1589  -9.1550  -8.7485
    -8.7429  -7.4626  -7.4552  -7.3074  -5.2649  -3.2849  -3.2813  -3.1033
    -3.1011  -1.0501  -0.7543   1.7188   1.9387   1.9801   2.9826   3.0079
     3.0668   3.0912   3.4320

          k = 0.0100 0.0173 0.0000 ( 12165 PWs)   bands (ev):

   -77.7615 -48.9814 -48.9809 -48.9032 -24.2535 -24.1635 -21.5519 -20.1517
   -13.7657 -11.1095  -9.2747  -9.2153  -9.1847  -9.1586  -9.1517  -8.7541
    -8.7413  -7.4725  -7.4582  -7.2979  -5.2667  -3.2879  -3.2784  -3.1075
    -3.1030  -1.0393  -0.7449   1.7273   1.9425   1.9825   2.9593   3.0153
     3.0464   3.0986   3.4572

          k = 0.0133 0.0231 0.0000 ( 12169 PWs)   bands (ev):

   -77.7614 -48.9820 -48.9810 -48.9031 -24.2495 -24.1596 -21.5489 -20.1501
   -13.7626 -11.1081  -9.3025  -9.2203  -9.2021  -9.1628  -9.1397  -8.7618
    -8.7390  -7.4846  -7.4624  -7.2864  -5.2693  -3.2920  -3.2744  -3.1132
    -3.1055  -1.0244  -0.7319   1.7391   1.9477   1.9856   2.9284   3.0201
     3.0267   3.1090   3.4881

          k = 0.0167 0.0289 0.0000 ( 12161 PWs)   bands (ev):

   -77.7614 -48.9827 -48.9812 -48.9030 -24.2445 -24.1546 -21.5451 -20.1481
   -13.7585 -11.1062  -9.3332  -9.2345  -9.2179  -9.1684  -9.1275  -8.7715
    -8.7361  -7.4981  -7.4678  -7.2738  -5.2727  -3.2971  -3.2692  -3.1205
    -3.1088  -1.0055  -0.7154   1.7542   1.9543   1.9896   2.8914   2.9914
     3.0393   3.1223   3.5227

          k = 0.0200 0.0346 0.0000 ( 12157 PWs)   bands (ev):

   -77.7613 -48.9836 -48.9814 -48.9028 -24.2383 -24.1486 -21.5404 -20.1456
   -13.7537 -11.1040  -9.3669  -9.2632  -9.2259  -9.1754  -9.1158  -8.7831
    -8.7327  -7.5125  -7.4745  -7.2606  -5.2769  -3.3032  -3.2629  -3.1290
    -3.1129  -0.9828  -0.6955   1.7724   1.9621   1.9944   2.8499   2.9584
     3.0556   3.1386   3.5598

          k = 0.0233 0.0404 0.0000 ( 12165 PWs)   bands (ev):

   -77.7611 -48.9846 -48.9816 -48.9026 -24.2311 -24.1414 -21.5349 -20.1426
   -13.7479 -11.1013  -9.4037  -9.2990  -9.2331  -9.1838  -9.1046  -8.7965
    -8.7286  -7.5276  -7.4824  -7.2473  -5.2819  -3.3101  -3.2556  -3.1387
    -3.1176  -0.9564  -0.6724   1.7937   1.9712   1.9998   2.8052   2.9220
     3.0749   3.1579   3.5985

          k = 0.0267 0.0462 0.0000 ( 12167 PWs)   bands (ev):

   -77.7610 -48.9858 -48.9819 -48.9024 -24.2227 -24.1331 -21.5286 -20.1392
   -13.7413 -11.0983  -9.4438  -9.3399  -9.2411  -9.1937  -9.0939  -8.8115
    -8.7240  -7.5430  -7.4917  -7.2343  -5.2880  -3.3178  -3.2473  -3.1493
    -3.1229  -0.9267  -0.6462   1.8179   1.9813   2.0057   2.7581   2.8827
     3.0972   3.1802   3.6384

          k = 0.0300 0.0520 0.0000 ( 12159 PWs)   bands (ev):

   -77.7608 -48.9872 -48.9822 -48.9022 -24.2132 -24.1237 -21.5214 -20.1354
   -13.7339 -11.0949  -9.4871  -9.3855  -9.2502  -9.2051  -9.0834  -8.8280
    -8.7188  -7.5586  -7.5024  -7.2216  -5.2950  -3.3260  -3.2382  -3.1608
    -3.1288  -0.8938  -0.6172   1.8449   1.9923   2.0120   2.7094   2.8410
     3.1224   3.2055   3.6791

          k = 0.0333 0.0577 0.0000 ( 12155 PWs)   bands (ev):

   -77.7606 -48.9887 -48.9826 -48.9019 -24.2026 -24.1133 -21.5134 -20.1312
   -13.7256 -11.0912  -9.5336  -9.4355  -9.2605  -9.2180  -9.0732  -8.8457
    -8.7130  -7.5743  -7.5144  -7.2096  -5.3030  -3.3347  -3.2285  -3.1728
    -3.1351  -0.8580  -0.5856   1.8743   2.0036   2.0186   2.6597   2.7976
     3.1505   3.2339   3.7204

          k = 0.0367 0.0635 0.0000 ( 12155 PWs)   bands (ev):

   -77.7604 -48.9903 -48.9830 -48.9016 -24.1909 -24.1017 -21.5047 -20.1265
   -13.7165 -11.0871  -9.5833  -9.4895  -9.2721  -9.2325  -9.0632  -8.8645
    -8.7065  -7.5901  -7.5279  -7.1984  -5.3121  -3.3438  -3.2187  -3.1850
    -3.1415  -0.8196  -0.5516   1.9058   2.0148   2.0256   2.6098   2.7531
     3.1815   3.2654   3.7622

          k = 0.0400 0.0693 0.0000 ( 12151 PWs)   bands (ev):

   -77.7602 -48.9921 -48.9834 -48.9013 -24.1781 -24.0891 -21.4951 -20.1214
   -13.7066 -11.0827  -9.6361  -9.5472  -9.2851  -9.2485  -9.0535  -8.8841
    -8.6995  -7.6059  -7.5428  -7.1880  -5.3223  -3.3530  -3.2107  -3.1961
    -3.1471  -0.7789  -0.5153   1.9386   2.0247   2.0336   2.5602   2.7085
     3.2153   3.2999   3.8045

          k = 0.0433 0.0751 0.0000 ( 12151 PWs)   bands (ev):

   -77.7599 -48.9940 -48.9838 -48.9010 -24.1642 -24.0754 -21.4847 -20.1159
   -13.6960 -11.0780  -9.6919  -9.6083  -9.2996  -9.2661  -9.0442  -8.9041
    -8.6918  -7.6217  -7.5592  -7.1786  -5.3337  -3.3624  -3.2144  -3.1981
    -3.1502  -0.7360  -0.4771   1.9709   2.0335   2.0428   2.5120   2.6648
     3.2519   3.3374   3.8472

          k = 0.0467 0.0808 0.0000 ( 12157 PWs)   bands (ev):

   -77.7597 -48.9961 -48.9843 -48.9006 -24.1492 -24.0606 -21.4735 -20.1099
   -13.6846 -11.0730  -9.7507  -9.6725  -9.3159  -9.2850  -9.0358  -8.9238
    -8.6835  -7.6374  -7.5771  -7.1702  -5.3462  -3.3717  -3.2263  -3.1973
    -3.1477  -0.6914  -0.4373   1.9963   2.0455   2.0529   2.4665   2.6232
     3.2911   3.3780   3.8903

          k = 0.0500 0.0866 0.0000 ( 12153 PWs)   bands (ev):

   -77.7594 -48.9983 -48.9849 -48.9002 -24.1331 -24.0447 -21.4616 -20.1036
   -13.6725 -11.0678  -9.8123  -9.7397  -9.3342  -9.3052  -9.0295  -8.9420
    -8.6745  -7.6531  -7.5965  -7.1629  -5.3599  -3.3809  -3.2391  -3.2018
    -3.1388  -0.6451  -0.3959   2.0058   2.0535   2.0770   2.4256   2.5850
     3.3327   3.4216   3.9339

          k = 0.0533 0.0924 0.0000 ( 12157 PWs)   bands (ev):

   -77.7591 -49.0006 -48.9854 -48.8998 -24.1159 -24.0278 -21.4489 -20.0969
   -13.6597 -11.0624  -9.8765  -9.8094  -9.3547  -9.3264  -9.0278  -8.9559
    -8.6649  -7.6688  -7.6174  -7.1566  -5.3748  -3.3898  -3.2518  -3.2105
    -3.1255  -0.5975  -0.3532   2.0021   2.0525   2.1138   2.3918   2.5519
     3.3766   3.4683   3.9780

          k = 0.0567 0.0981 0.0000 ( 12157 PWs)   bands (ev):

   -77.7588 -49.0031 -48.9861 -48.8993 -24.0977 -24.0098 -21.4355 -20.0897
   -13.6462 -11.0568  -9.9432  -9.8813  -9.3778  -9.3483  -9.0345  -8.9618
    -8.6546  -7.6845  -7.6397  -7.1515  -5.3909  -3.3984  -3.2643  -3.2214
    -3.1096  -0.5489  -0.3096   1.9894   2.0427   2.1547   2.3677   2.5254
     3.4226   3.5179   4.0226

          k = 0.0600 0.1039 0.0000 ( 12153 PWs)   bands (ev):

   -77.7585 -49.0057 -48.9867 -48.8988 -24.0784 -23.9908 -21.4213 -20.0822
   -13.6322 -11.0512 -10.0123  -9.9553  -9.4036  -9.3709  -9.0498  -8.9591
    -8.6437  -7.7004  -7.6631  -7.1474  -5.4082  -3.4066  -3.2764  -3.2338
    -3.0922  -0.4994  -0.2651   1.9689   2.0227   2.1973   2.3551   2.5068
     3.4703   3.5704   4.0680

          k = 0.0633 0.1097 0.0000 ( 12157 PWs)   bands (ev):

   -77.7581 -49.0084 -48.9874 -48.8983 -24.0580 -23.9707 -21.4065 -20.0744
   -13.6175 -11.0455 -10.0836 -10.0310  -9.4319  -9.3943  -9.0703  -8.9514
    -8.6322  -7.7172  -7.6872  -7.1445  -5.4266  -3.4143  -3.2882  -3.2474
    -3.0735  -0.4492  -0.2200   1.9407   1.9928   2.2401   2.3539   2.4969
     3.5194   3.6257   4.1143

          k = 0.0667 0.1155 0.0000 ( 12151 PWs)   bands (ev):

   -77.7578 -49.0112 -48.9881 -48.8978 -24.0366 -23.9496 -21.3909 -20.0662
   -13.6023 -11.0400 -10.1569 -10.1080  -9.4626  -9.4186  -9.0934  -8.9411
    -8.6201  -7.7360  -7.7105  -7.1427  -5.4461  -3.4215  -3.2994  -3.2618
    -3.0538  -0.3987  -0.1746   1.9057   1.9552   2.2820   2.3623   2.4962
     3.5694   3.6838   4.1618

          k = 0.0700 0.1212 0.0000 ( 12139 PWs)   bands (ev):

   -77.7574 -49.0141 -48.9889 -48.8973 -24.0141 -23.9274 -21.3746 -20.0576
   -13.5866 -11.0348 -10.2320 -10.1860  -9.4955  -9.4440  -9.1180  -8.9294
    -8.6074  -7.7592  -7.7307  -7.1419  -5.4666  -3.4282  -3.3102  -3.2771
    -3.0333  -0.3479  -0.1289   1.8650   1.9121   2.3213   2.3782   2.5048
     3.6199   3.7444   4.2106

          k = 0.0733 0.1270 0.0000 ( 12135 PWs)   bands (ev):

   -77.7570 -49.0172 -48.9897 -48.8967 -23.9906 -23.9042 -21.3577 -20.0487
   -13.5704 -11.0301 -10.3087 -10.2647  -9.5304  -9.4706  -9.1436  -8.9168
    -8.5941  -7.7871  -7.7476  -7.1422  -5.4882  -3.4343  -3.3204  -3.2930
    -3.0120  -0.2972  -0.0833   1.8200   1.8654   2.3564   2.4002   2.5229
     3.6704   3.8074   4.2612

          k = 0.0767 0.1328 0.0000 ( 12119 PWs)   bands (ev):

   -77.7566 -49.0203 -48.9905 -48.8962 -23.9661 -23.8800 -21.3402 -20.0395
   -13.5538 -11.0262 -10.3867 -10.3437  -9.5673  -9.4985  -9.1698  -8.9035
    -8.5804  -7.8181  -7.7624  -7.1435  -5.5107  -3.4400  -3.3301  -3.3095
    -2.9900  -0.2467  -0.0378   1.7720   1.8164   2.3870   2.4262   2.5503
     3.7202   3.8725   4.3139

          k = 0.0800 0.1386 0.0000 ( 12107 PWs)   bands (ev):

   -77.7562 -49.0235 -48.9914 -48.8956 -23.9405 -23.8548 -21.3220 -20.0300
   -13.5369 -11.0237 -10.4657 -10.4224  -9.6059  -9.5277  -9.1966  -8.8897
    -8.5662  -7.8513  -7.7761  -7.1458  -5.5340  -3.4451  -3.3396  -3.3260
    -2.9674  -0.1966   0.0073   1.7222   1.7662   2.4145   2.4538   2.5858
     3.7688   3.9395   4.3690

          k = 0.0833 0.1443 0.0000 ( 12099 PWs)   bands (ev):

   -77.7558 -49.0268 -48.9923 -48.8949 -23.9139 -23.8285 -21.3032 -20.0201
   -13.5198 -11.0234 -10.5451 -10.5001  -9.6462  -9.5583  -9.2239  -8.8755
    -8.5516  -7.8864  -7.7890  -7.1490  -5.5582  -3.4499  -3.3506  -3.3408
    -2.9443  -0.1472   0.0518   1.6714   1.7155   2.4403   2.4820   2.6276
     3.8156   4.0080   4.4268

          k = 0.0867 0.1501 0.0000 ( 12097 PWs)   bands (ev):

   -77.7553 -49.0302 -48.9932 -48.8943 -23.8864 -23.8013 -21.2838 -20.0100
   -13.5024 -11.0267 -10.6245 -10.5757  -9.6881  -9.5903  -9.2517  -8.8609
    -8.5365  -7.9230  -7.8012  -7.1531  -5.5830  -3.4546  -3.3658  -3.3509
    -2.9207  -0.0987   0.0956   1.6205   1.6649   2.4651   2.5110   2.6737
     3.8601   4.0775   4.4877

          k = 0.0900 0.1559 0.0000 ( 12099 PWs)   bands (ev):

   -77.7549 -49.0337 -48.9942 -48.8936 -23.8578 -23.7732 -21.2639 -19.9996
   -13.4850 -11.0361 -10.7034 -10.6470  -9.7315  -9.6238  -9.2798  -8.8460
    -8.5212  -7.9611  -7.8127  -7.1582  -5.6085  -3.4594  -3.3833  -3.3579
    -2.8967  -0.0512   0.1385   1.5701   1.6149   2.4893   2.5410   2.7225
     3.9020   4.1476   4.5518

          k = 0.0933 0.1617 0.0000 ( 12099 PWs)   bands (ev):

   -77.7544 -49.0373 -48.9952 -48.8930 -23.8283 -23.7440 -21.2434 -19.9890
   -13.4675 -11.0549 -10.7817 -10.7100  -9.7762  -9.6586  -9.3084  -8.8309
    -8.5057  -8.0005  -7.8236  -7.1641  -5.6345  -3.4647  -3.4011  -3.3635
    -2.8723  -0.0051   0.1802   1.5206   1.5659   2.5128   2.5722   2.7732
     3.9409   4.2176   4.6191

          k = 0.0967 0.1674 0.0000 ( 12087 PWs)   bands (ev):

   -77.7539 -49.0409 -48.9963 -48.8923 -23.7978 -23.7139 -21.2224 -19.9781
   -13.4501 -11.0874 -10.8598 -10.7600  -9.8223  -9.6949  -9.3374  -8.8154
    -8.4900  -8.0410  -7.8338  -7.1708  -5.6609  -3.4712  -3.4183  -3.3678
    -2.8476   0.0394   0.2206   1.4726   1.5183   2.5358   2.6045   2.8250
     3.9769   4.2870   4.6896

          k = 0.1000 0.1732 0.0000 ( 12081 PWs)   bands (ev):

   -77.7534 -49.0446 -48.9974 -48.8916 -23.7663 -23.6828 -21.2009 -19.9670
   -13.4329 -11.1357 -10.9381 -10.7942  -9.8696  -9.7326  -9.3668  -8.7998
    -8.4743  -8.0826  -7.8434  -7.1783  -5.6877  -3.4802  -3.4336  -3.3708
    -2.8227   0.0820   0.2594   1.4265   1.4726   2.5582   2.6378   2.8777
     4.0098   4.3552   4.7630

          k = 0.1033 0.1790 0.0000 ( 12085 PWs)   bands (ev):

   -77.7529 -49.0483 -48.9985 -48.8909 -23.7339 -23.6508 -21.1790 -19.9558
   -13.4160 -11.1981 -11.0165 -10.8140  -9.9180  -9.7717  -9.3965  -8.7841
    -8.4588  -8.1249  -7.8522  -7.1866  -5.7148  -3.4927  -3.4462  -3.3725
    -2.7977   0.1224   0.2963   1.3828   1.4292   2.5800   2.6720   2.9309
     4.0397   4.4213   4.8389

          k = 0.1067 0.1848 0.0000 ( 12091 PWs)   bands (ev):

   -77.7524 -49.0521 -48.9997 -48.8901 -23.7006 -23.6179 -21.1566 -19.9443
   -13.3995 -11.2704 -11.0949 -10.8235  -9.9675  -9.8121  -9.4266  -8.7682
    -8.4437  -8.1677  -7.8602  -7.1956  -5.7421  -3.5088  -3.4559  -3.3728
    -2.7725   0.1601   0.3310   1.3421   1.3885   2.6011   2.7069   2.9845
     4.0670   4.4849   4.9170

          k = 0.1100 0.1905 0.0000 ( 12095 PWs)   bands (ev):

   -77.7519 -49.0559 -49.0009 -48.8894 -23.6663 -23.5841 -21.1338 -19.9326
   -13.3837 -11.3491 -11.1727 -10.8263 -10.0180  -9.8539  -9.4570  -8.7523
    -8.4296  -8.2103  -7.8675  -7.2054  -5.7694  -3.5275  -3.4638  -3.3717
    -2.7472   0.1948   0.3633   1.3047   1.3509   2.6214   2.7424   3.0384
     4.0919   4.5455   4.9967

          k = 0.1133 0.1963 0.0000 ( 12087 PWs)   bands (ev):

   -77.7514 -49.0597 -49.0021 -48.8887 -23.6312 -23.5494 -21.1106 -19.9208
   -13.3686 -11.4317 -11.2497 -10.8249 -10.0694  -9.8970  -9.4877  -8.7364
    -8.4177  -8.2516  -7.8739  -7.2158  -5.7968  -3.5478  -3.4709  -3.3693
    -2.7220   0.2260   0.3925   1.2713   1.3169   2.6407   2.7783   3.0925
     4.1146   4.6027   5.0774

          k = 0.1167 0.2021 0.0000 ( 12083 PWs)   bands (ev):

   -77.7509 -49.0636 -49.0034 -48.8879 -23.5952 -23.5139 -21.0871 -19.9089
   -13.3545 -11.5166 -11.3255 -10.8209 -10.1217  -9.9414  -9.5186  -8.7206
    -8.4110  -8.2886  -7.8795  -7.2270  -5.8240  -3.5691  -3.4777  -3.3656
    -2.6969   0.2532   0.4184   1.2424   1.2871   2.6591   2.8146   3.1469
     4.1355   4.6565   5.1584

          k = 0.1200 0.2078 0.0000 ( 12077 PWs)   bands (ev):

   -77.7503 -49.0675 -49.0047 -48.8871 -23.5583 -23.4775 -21.0633 -19.8968
   -13.3416 -11.6030 -11.3999 -10.8152 -10.1748  -9.9870  -9.5498  -8.7050
    -8.4164  -8.3140  -7.8842  -7.2387  -5.8511  -3.5909  -3.4847  -3.3608
    -2.6720   0.2759   0.4404   1.2184   1.2620   2.6763   2.8511   3.2015
     4.1550   4.7068   5.2392

          k = 0.1233 0.2136 0.0000 ( 12077 PWs)   bands (ev):

   -77.7498 -49.0715 -49.0061 -48.8864 -23.5205 -23.4402 -21.0391 -19.8847
   -13.3302 -11.6901 -11.4723 -10.8084 -10.2287 -10.0337  -9.5812  -8.6899
    -8.4404  -8.3213  -7.8879  -7.2511  -5.8780  -3.6130  -3.4919  -3.3549
    -2.6472   0.2938   0.4581   1.2000   1.2421   2.6923   2.8876   3.2564
     4.1735   4.7539   5.3190

          k = 0.1267 0.2194 0.0000 ( 12085 PWs)   bands (ev):

   -77.7492 -49.0754 -49.0075 -48.8856 -23.4820 -23.4021 -21.0148 -19.8725
   -13.3205 -11.7777 -11.5426 -10.8009 -10.2833 -10.0814  -9.6127  -8.6757
    -8.4769  -8.3162  -7.8908  -7.2642  -5.9045  -3.6353  -3.4993  -3.3480
    -2.6228   0.3066   0.4711   1.1872   1.2279   2.7070   2.9240   3.3115
     4.1914   4.7981   5.3972

          k = 0.1300 0.2252 0.0000 ( 12077 PWs)   bands (ev):

   -77.7487 -49.0793 -49.0089 -48.8848 -23.4426 -23.3632 -20.9901 -19.8603
   -13.3128 -11.8654 -11.6104 -10.7930 -10.3385 -10.1301  -9.6444  -8.6635
    -8.5174  -8.3060  -7.8926  -7.2778  -5.9305  -3.6577  -3.5071  -3.3402
    -2.5987   0.3141   0.4792   1.1803   1.2197   2.7205   2.9601   3.3671
     4.2089   4.8398   5.4729

          k = 0.1333 0.2309 0.0000 ( 12085 PWs)   bands (ev):

   -77.7481 -49.0833 -49.0104 -48.8840 -23.4025 -23.3236 -20.9654 -19.8480
   -13.3074 -11.9530 -11.6752 -10.7850 -10.3944 -10.1796  -9.6761  -8.6569
    -8.5552  -8.2942  -7.8934  -7.2920  -5.9561  -3.6800  -3.5152  -3.3316
    -2.5750   0.3165   0.4824   1.1792   1.2176   2.7327   2.9959   3.4230
     4.2266   4.8791   5.5453

          k = 0.1367 0.2367 0.0000 ( 12090 PWs)   bands (ev):

   -77.7476 -49.0872 -49.0119 -48.8832 -23.3615 -23.2832 -20.9404 -19.8357
   -13.3047 -12.0402 -11.7366 -10.7773 -10.4507 -10.2296  -9.7078  -8.6656
    -8.5791  -8.2820  -7.8932  -7.3067  -5.9811  -3.7022  -3.5237  -3.3223
    -2.5518   0.3142   0.4808   1.1835   1.2212   2.7437   3.0311   3.4793
     4.2448   4.9163   5.6138

          k = 0.1400 0.2425 0.0000 ( 12098 PWs)   bands (ev):

   -77.7470 -49.0911 -49.0134 -48.8824 -23.3199 -23.2420 -20.9154 -19.8234
   -13.3050 -12.1271 -11.7943 -10.7701 -10.5076 -10.2799  -9.7394  -8.6966
    -8.5817  -8.2700  -7.8919  -7.3220  -6.0055  -3.7243  -3.5326  -3.3123
    -2.5292   0.3075   0.4749   1.1929   1.2304   2.7535   3.0656   3.5360
     4.2639   4.9513   5.6774

          k = 0.1433 0.2483 0.0000 ( 12104 PWs)   bands (ev):

   -77.7465 -49.0950 -49.0150 -48.8816 -23.2775 -23.2001 -20.8902 -19.8112
   -13.3088 -12.2133 -11.8479 -10.7640 -10.5649 -10.3300  -9.7710  -8.7395
    -8.5732  -8.2585  -7.8896  -7.3378  -6.0292  -3.7460  -3.5418  -3.3018
    -2.5072   0.2972   0.4652   1.2067   1.2443   2.7623   3.0992   3.5933
     4.2843   4.9842   5.7352

          k = 0.1467 0.2540 0.0000 ( 12104 PWs)   bands (ev):

   -77.7459 -49.0989 -49.0166 -48.8808 -23.2344 -23.1576 -20.8650 -19.7991
   -13.3162 -12.2989 -11.8970 -10.7598 -10.6223 -10.3792  -9.8024  -8.7866
    -8.5609  -8.2479  -7.8861  -7.3541  -6.0521  -3.7675  -3.5514  -3.2906
    -2.4858   0.2840   0.4524   1.2242   1.2624   2.7701   3.1318   3.6509
     4.3063   5.0147   5.7862

          k = 0.1500 0.2598 0.0000 ( 12104 PWs)   bands (ev):

   -77.7453 -49.1027 -49.0182 -48.8799 -23.1906 -23.1143 -20.8399 -19.7870
   -13.3276 -12.3836 -11.9412 -10.7591 -10.6793 -10.4266  -9.8336  -8.8354
    -8.5474  -8.2384  -7.8815  -7.3708  -6.0741  -3.7885  -3.5613  -3.2791
    -2.4652   0.2685   0.4372   1.2450   1.2840   2.7771   3.1632   3.7090
     4.3303   5.0426   5.8292

          k = 0.1533 0.2656 0.0000 ( 12106 PWs)   bands (ev):

   -77.7448 -49.1065 -49.0199 -48.8791 -23.1462 -23.0705 -20.8147 -19.7751
   -13.3432 -12.4675 -11.9804 -10.7678 -10.7318 -10.4704  -9.8645  -8.8848
    -8.5335  -8.2300  -7.8759  -7.3879  -6.0951  -3.8092  -3.5716  -3.2670
    -2.4454   0.2513   0.4200   1.2685   1.3083   2.7836   3.1934   3.7674
     4.3564   5.0674   5.8626

          k = 0.1567 0.2714 0.0000 ( 12102 PWs)   bands (ev):

   -77.7442 -49.1103 -49.0216 -48.8783 -23.1012 -23.0260 -20.7897 -19.7633
   -13.3631 -12.5504 -12.0144 -10.8071 -10.7607 -10.5083  -9.8951  -8.9346
    -8.5194  -8.2228  -7.8692  -7.4053  -6.1152  -3.8293  -3.5822  -3.2546
    -2.4264   0.2330   0.4016   1.2940   1.3348   2.7896   3.2222   3.8260
     4.3851   5.0887   5.8844

          k = 0.1600 0.2771 0.0000 ( 12104 PWs)   bands (ev):

   -77.7437 -49.1140 -49.0234 -48.8775 -23.0555 -22.9809 -20.7647 -19.7516
   -13.3872 -12.6322 -12.0431 -10.8636 -10.7823 -10.5374  -9.9254  -8.9844
    -8.5055  -8.2171  -7.8616  -7.4231  -6.1343  -3.8490  -3.5931  -3.2419
    -2.4083   0.2140   0.3822   1.3213   1.3630   2.7955   3.2496   3.8848
     4.4165   5.1063   5.8919

          k = 0.1633 0.2829 0.0000 ( 12104 PWs)   bands (ev):

   -77.7431 -49.1176 -49.0252 -48.8767 -23.0094 -22.9353 -20.7399 -19.7402
   -13.4156 -12.7129 -12.0667 -10.9225 -10.8126 -10.5563  -9.9552  -9.0341
    -8.4919  -8.2129  -7.8530  -7.4411  -6.1522  -3.8682  -3.6042  -3.2288
    -2.3911   0.1948   0.3623   1.3498   1.3923   2.8013   3.2756   3.9434
     4.4508   5.1198   5.8831

          k = 0.1667 0.2887 0.0000 ( 12096 PWs)   bands (ev):

   -77.7425 -49.1212 -49.0270 -48.8759 -22.9627 -22.8892 -20.7153 -19.7290
   -13.4479 -12.7924 -12.0853 -10.9823 -10.8524 -10.5658  -9.9846  -9.0834
    -8.4785  -8.2102  -7.8437  -7.4592  -6.1689  -3.8868  -3.6156  -3.2155
    -2.3749   0.1756   0.3422   1.3794   1.4226   2.8073   3.3002   4.0015
     4.4880   5.1292   5.8582

          k = 0.1700 0.2944 0.0000 ( 12098 PWs)   bands (ev):

   -77.7420 -49.1247 -49.0288 -48.8751 -22.9155 -22.8426 -20.6910 -19.7180
   -13.4839 -12.8705 -12.0992 -11.0424 -10.8997 -10.5683 -10.0135  -9.1323
    -8.4656  -8.2091  -7.8336  -7.4774  -6.1844  -3.9049  -3.6271  -3.2020
    -2.3598   0.1568   0.3222   1.4096   1.4535   2.8137   3.3234   4.0589
     4.5284   5.1348   5.8205

          k = 0.1733 0.3002 0.0000 ( 12098 PWs)   bands (ev):

   -77.7414 -49.1281 -49.0307 -48.8743 -22.8678 -22.7955 -20.6669 -19.7073
   -13.5230 -12.9473 -12.1088 -11.1028 -10.9522 -10.5662 -10.0418  -9.1807
    -8.4531  -8.2096  -7.8231  -7.4954  -6.1986  -3.9225  -3.6387  -3.1882
    -2.3456   0.1384   0.3023   1.4403   1.4847   2.8207   3.3453   4.1149
     4.5718   5.1370   5.7738

          k = 0.1767 0.3060 0.0000 ( 12084 PWs)   bands (ev):

   -77.7409 -49.1315 -49.0326 -48.8736 -22.8198 -22.7480 -20.6432 -19.6968
   -13.5650 -13.0227 -12.1146 -11.1635 -11.0083 -10.5612 -10.0696  -9.2284
    -8.4413  -8.2117  -7.8123  -7.5132  -6.2114  -3.9396  -3.6504  -3.1744
    -2.3326   0.1207   0.2829   1.4712   1.5162   2.8285   3.3661   4.1690
     4.6182   5.1371   5.7211

          k = 0.1800 0.3118 0.0000 ( 12078 PWs)   bands (ev):

   -77.7404 -49.1348 -49.0346 -48.8728 -22.7713 -22.7001 -20.6198 -19.6867
   -13.6093 -13.0965 -12.1168 -11.2242 -11.0667 -10.5543 -10.0967  -9.2754
    -8.4301  -8.2154  -7.8014  -7.5305  -6.2229  -3.9564  -3.6619  -3.1604
    -2.3207   0.1038   0.2640   1.5019   1.5479   2.8373   3.3858   4.2202
     4.6676   5.1363   5.6644

          k = 0.1833 0.3175 0.0000 ( 12086 PWs)   bands (ev):

   -77.7398 -49.1380 -49.0366 -48.8720 -22.7226 -22.6520 -20.5968 -19.6769
   -13.6555 -13.1688 -12.1161 -11.2849 -11.1269 -10.5464 -10.1232  -9.3214
    -8.4197  -8.2206  -7.7909  -7.5470  -6.2329  -3.9727  -3.6734  -3.1463
    -2.3099   0.0878   0.2457   1.5323   1.5797   2.8473   3.4046   4.2675
     4.7200   5.1363   5.6052

          k = 0.1867 0.3233 0.0000 ( 12090 PWs)   bands (ev):

   -77.7393 -49.1410 -49.0386 -48.8713 -22.6735 -22.6035 -20.5743 -19.6675
   -13.7030 -13.2394 -12.1128 -11.3456 -11.1884 -10.5378 -10.1489  -9.3663
    -8.4103  -8.2273  -7.7811  -7.5622  -6.2415  -3.9888  -3.6845  -3.1321
    -2.3002   0.0728   0.2280   1.5621   1.6117   2.8586   3.4228   4.3098
     4.7750   5.1390   5.5446

          k = 0.1900 0.3291 0.0000 ( 12100 PWs)   bands (ev):

   -77.7388 -49.1440 -49.0406 -48.8705 -22.6241 -22.5547 -20.5522 -19.6585
   -13.7516 -13.3083 -12.1075 -11.4061 -11.2509 -10.5290 -10.1740  -9.4100
    -8.4023  -8.2352  -7.7726  -7.5755  -6.2486  -4.0047  -3.6952  -3.1179
    -2.2916   0.0587   0.2112   1.5909   1.6439   2.8713   3.4403   4.3458
     4.8327   5.1462   5.4837

          k = 0.1933 0.3349 0.0000 ( 12098 PWs)   bands (ev):

   -77.7383 -49.1469 -49.0427 -48.8698 -22.5746 -22.5058 -20.5307 -19.6498
   -13.8008 -13.3755 -12.1004 -11.4662 -11.3141 -10.5203 -10.1984  -9.4524
    -8.3960  -8.2440  -7.7664  -7.5861  -6.2542  -4.0205  -3.7054  -3.1037
    -2.2842   0.0456   0.1951   1.6186   1.6765   2.8855   3.4575   4.3744
     4.8926   5.1592   5.4236

          k = 0.1967 0.3406 0.0000 ( 12106 PWs)   bands (ev):

   -77.7378 -49.1497 -49.0448 -48.8690 -22.5249 -22.4567 -20.5098 -19.6416
   -13.8503 -13.4408 -12.0922 -11.5257 -11.3778 -10.5118 -10.2219  -9.4932
    -8.3920  -8.2532  -7.7631  -7.5932  -6.2584  -4.0364  -3.7148  -3.0895
    -2.2779   0.0336   0.1799   1.6449   1.7094   2.9014   3.4743   4.3949
     4.9544   5.1781   5.3661

          k = 0.2000 0.3464 0.0000 ( 12108 PWs)   bands (ev):

   -77.7373 -49.1524 -49.0469 -48.8683 -22.4751 -22.4075 -20.4895 -19.6339
   -13.8998 -13.5042 -12.0834 -11.5842 -11.4421 -10.5039 -10.2447  -9.5322
    -8.3911  -8.2620  -7.7635  -7.5960  -6.2610  -4.0525  -3.7235  -3.0753
    -2.2727   0.0225   0.1656   1.6698   1.7426   2.9189   3.4910   4.4073
     5.0172   5.1986   5.3173

          k = 0.2033 0.3522 0.0000 ( 12108 PWs)   bands (ev):

   -77.7368 -49.1550 -49.0491 -48.8676 -22.4252 -22.3582 -20.4698 -19.6266
   -13.9489 -13.5656 -12.0748 -11.6412 -11.5066 -10.4967 -10.2667  -9.5693
    -8.3943  -8.2697  -7.7677  -7.5943  -6.2622  -4.0689  -3.7311  -3.0612
    -2.2686   0.0125   0.1523   1.6933   1.7761   2.9382   3.5077   4.4121
     5.0775   5.2016   5.2994

          k = 0.2067 0.3580 0.0000 ( 12100 PWs)   bands (ev):

   -77.7363 -49.1574 -49.0513 -48.8669 -22.3753 -22.3089 -20.4508 -19.6197
   -13.9975 -13.6250 -12.0673 -11.6958 -11.5714 -10.4906 -10.2878  -9.6041
    -8.4022  -8.2754  -7.7753  -7.5885  -6.2619  -4.0857  -3.7377  -3.0471
    -2.2656   0.0034   0.1399   1.7153   1.8098   2.9591   3.5245   4.4104
     5.1134   5.1931   5.3273

          k = 0.2100 0.3637 0.0000 ( 12106 PWs)   bands (ev):

   -77.7358 -49.1598 -49.0535 -48.8663 -22.3255 -22.2597 -20.4325 -19.6134
   -14.0452 -13.6823 -12.0628 -11.7464 -11.6363 -10.4859 -10.3079  -9.6366
    -8.4153  -8.2792  -7.7853  -7.5795  -6.2602  -4.1031  -3.7430  -3.0331
    -2.2636  -0.0048   0.1286   1.7358   1.8436   2.9818   3.5414   4.4035
     5.0851   5.2363   5.3761

          k = 0.2133 0.3695 0.0000 ( 12100 PWs)   bands (ev):

   -77.7354 -49.1620 -49.0557 -48.8656 -22.2758 -22.2106 -20.4149 -19.6075
   -14.0920 -13.7375 -12.0639 -11.7905 -11.7012 -10.4828 -10.3271  -9.6663
    -8.4330  -8.2814  -7.7968  -7.5681  -6.2571  -4.1211  -3.7471  -3.0193
    -2.2627  -0.0121   0.1183   1.7549   1.8774   3.0061   3.5584   4.3926
     5.0362   5.2960   5.4347

          k = 0.2167 0.3753 0.0000 ( 12090 PWs)   bands (ev):

   -77.7349 -49.1641 -49.0580 -48.8649 -22.2262 -22.1616 -20.3982 -19.6022
   -14.1375 -13.7904 -12.0743 -11.8245 -11.7658 -10.4817 -10.3452  -9.6930
    -8.4549  -8.2827  -7.8090  -7.5549  -6.2527  -4.1399  -3.7498  -3.0055
    -2.2627  -0.0187   0.1090   1.7726   1.9111   3.0320   3.5758   4.3790
     4.9849   5.3537   5.4999

          k = 0.2200 0.3811 0.0000 ( 12098 PWs)   bands (ev):

   -77.7345 -49.1660 -49.0603 -48.8643 -22.1769 -22.1129 -20.3822 -19.5974
   -14.1817 -13.8411 -12.0972 -11.8481 -11.8275 -10.4830 -10.3620  -9.7166
    -8.4803  -8.2840  -7.8212  -7.5405  -6.2470  -4.1594  -3.7510  -2.9919
    -2.2636  -0.0245   0.1009   1.7891   1.9446   3.0594   3.5933   4.3638
     4.9343   5.4025   5.5702

          k = 0.2233 0.3868 0.0000 ( 12100 PWs)   bands (ev):

   -77.7340 -49.1679 -49.0626 -48.8637 -22.1279 -22.0645 -20.3670 -19.5931
   -14.2243 -13.8895 -12.1326 -11.8988 -11.8485 -10.4868 -10.3776  -9.7368
    -8.5085  -8.2859  -7.8329  -7.5253  -6.2401  -4.1796  -3.7509  -2.9784
    -2.2655  -0.0296   0.0939   1.8044   1.9778   3.0882   3.6111   4.3476
     4.8856   5.4359   5.6445

          k = 0.2267 0.3926 0.0000 ( 12106 PWs)   bands (ev):

   -77.7336 -49.1695 -49.0649 -48.8631 -22.0793 -22.0165 -20.3527 -19.5893
   -14.2653 -13.9355 -12.1773 -11.9628 -11.8459 -10.4933 -10.3919  -9.7534
    -8.5392  -8.2890  -7.8436  -7.5094  -6.2321  -4.2006  -3.7493  -2.9650
    -2.2682  -0.0340   0.0881   1.8185   2.0105   3.1183   3.6291   4.3312
     4.8392   5.4502   5.7212

          k = 0.2300 0.3984 0.0000 ( 12114 PWs)   bands (ev):

   -77.7332 -49.1711 -49.0672 -48.8625 -22.0311 -21.9689 -20.3392 -19.5861
   -14.3046 -13.9790 -12.2280 -12.0273 -11.8358 -10.5026 -10.4051  -9.7663
    -8.5721  -8.2937  -7.8531  -7.4932  -6.2230  -4.2224  -3.7464  -2.9518
    -2.2718  -0.0380   0.0834   1.8316   2.0427   3.1496   3.6474   4.3151
     4.7958   5.4472   5.7979

          k = 0.2333 0.4041 0.0000 ( 12126 PWs)   bands (ev):

   -77.7328 -49.1725 -49.0696 -48.8620 -21.9834 -21.9218 -20.3266 -19.5834
   -14.3419 -14.0200 -12.2823 -12.0918 -11.8211 -10.5143 -10.4174  -9.7756
    -8.6069  -8.3002  -7.8610  -7.4768  -6.2129  -4.2448  -3.7422  -2.9388
    -2.2761  -0.0413   0.0799   1.8437   2.0741   3.1819   3.6657   4.2998
     4.7555   5.4323   5.8707

          k = 0.2367 0.4099 0.0000 ( 12112 PWs)   bands (ev):

   -77.7325 -49.1738 -49.0720 -48.8614 -21.9363 -21.8753 -20.3149 -19.5811
   -14.3772 -14.0585 -12.3386 -12.1561 -11.8034 -10.5281 -10.4290  -9.7812
    -8.6434  -8.3089  -7.8671  -7.4602  -6.2019  -4.2679  -3.7367  -2.9259
    -2.2811  -0.0442   0.0775   1.8549   2.1047   3.2152   3.6840   4.2855
     4.7187   5.4100   5.9363

          k = 0.2400 0.4157 0.0000 ( 12124 PWs)   bands (ev):

   -77.7321 -49.1750 -49.0744 -48.8609 -21.8899 -21.8294 -20.3041 -19.5794
   -14.4105 -14.0945 -12.3961 -12.2201 -11.7835 -10.5435 -10.4403  -9.7835
    -8.6814  -8.3198  -7.8714  -7.4437  -6.1901  -4.2915  -3.7300  -2.9132
    -2.2869  -0.0466   0.0763   1.8653   2.1342   3.2494   3.7024   4.2726
     4.6857   5.3833   5.9911

          k = 0.2433 0.4215 0.0000 ( 12126 PWs)   bands (ev):

   -77.7317 -49.1760 -49.0768 -48.8604 -21.8442 -21.7843 -20.2942 -19.5781
   -14.4416 -14.1277 -12.4543 -12.2839 -11.7620 -10.5603 -10.4513  -9.7825
    -8.7207  -8.3330  -7.8738  -7.4272  -6.1776  -4.3156  -3.7222  -2.9007
    -2.2933  -0.0486   0.0762   1.8749   2.1625   3.2843   3.7205   4.2613
     4.6566   5.3538   6.0297

          k = 0.2467 0.4272 0.0000 ( 12118 PWs)   bands (ev):

   -77.7314 -49.1768 -49.0792 -48.8599 -21.7993 -21.7400 -20.2851 -19.5773
   -14.4704 -14.1583 -12.5129 -12.3473 -11.7391 -10.5780 -10.4621  -9.7786
    -8.7611  -8.3483  -7.8745  -7.4109  -6.1644  -4.3401  -3.7135  -2.8883
    -2.3003  -0.0501   0.0772   1.8838   2.1894   3.3198   3.7384   4.2519
     4.6317   5.3229   6.0487

          k = 0.2500 0.4330 0.0000 ( 12110 PWs)   bands (ev):

   -77.7311 -49.1776 -49.0816 -48.8594 -21.7554 -21.6966 -20.2769 -19.5770
   -14.4968 -14.1862 -12.5715 -12.4103 -11.7152 -10.5966 -10.4727  -9.7721
    -8.8025  -8.3658  -7.8735  -7.3948  -6.1506  -4.3650  -3.7038  -2.8761
    -2.3079  -0.0511   0.0792   1.8921   2.2147   3.3558   3.7559   4.2447
     4.6111   5.2911   6.0508

          k = 0.2533 0.4388 0.0000 ( 12102 PWs)   bands (ev):

   -77.7308 -49.1781 -49.0841 -48.8590 -21.7125 -21.6541 -20.2696 -19.5770
   -14.5209 -14.2114 -12.6301 -12.4729 -11.6904 -10.6157 -10.4828  -9.7634
    -8.8447  -8.3851  -7.8711  -7.3790  -6.1364  -4.3900  -3.6933  -2.8641
    -2.3160  -0.0517   0.0821   1.8997   2.2382   3.3924   3.7729   4.2398
     4.5946   5.2590   6.0415

          k = 0.2567 0.4446 0.0000 ( 12110 PWs)   bands (ev):

   -77.7305 -49.1786 -49.0865 -48.8585 -21.6706 -21.6127 -20.2631 -19.5774
   -14.5426 -14.2337 -12.6885 -12.5351 -11.6647 -10.6351 -10.4924  -9.7528
    -8.8874  -8.4062  -7.8675  -7.3635  -6.1217  -4.4152  -3.6820  -2.8523
    -2.3247  -0.0517   0.0860   1.9068   2.2596   3.4292   3.7895   4.2376
     4.5823   5.2268   6.0247

          k = 0.2600 0.4503 0.0000 ( 12102 PWs)   bands (ev):

   -77.7302 -49.1789 -49.0890 -48.8581 -21.6300 -21.5725 -20.2574 -19.5782
   -14.5617 -14.2532 -12.7465 -12.5968 -11.6384 -10.6548 -10.5014  -9.7408
    -8.9304  -8.4288  -7.8628  -7.3484  -6.1068  -4.4405  -3.6702  -2.8406
    -2.3338  -0.0513   0.0908   1.9134   2.2789   3.4665   3.8056   4.2383
     4.5739   5.1951   6.0029

          k = 0.2633 0.4561 0.0000 ( 12090 PWs)   bands (ev):

   -77.7299 -49.1791 -49.0915 -48.8577 -21.5906 -21.5334 -20.2525 -19.5792
   -14.5783 -14.2699 -12.8042 -12.6580 -11.6115 -10.6745 -10.5095  -9.7277
    -8.9734  -8.4528  -7.8573  -7.3338  -6.0916  -4.4657  -3.6577  -2.8291
    -2.3433  -0.0503   0.0964   1.9195   2.2958   3.5040   3.8213   4.2420
     4.5693   5.1639   5.9775

          k = 0.2667 0.4619 0.0000 ( 12088 PWs)   bands (ev):

   -77.7296 -49.1791 -49.0939 -48.8574 -21.5525 -21.4957 -20.2483 -19.5806
   -14.5924 -14.2837 -12.8613 -12.7186 -11.5841 -10.6940 -10.5166  -9.7141
    -9.0161  -8.4779  -7.8512  -7.3196  -6.0762  -4.4907  -3.6449  -2.8178
    -2.3533  -0.0487   0.1026   1.9252   2.3102   3.5417   3.8367   4.2488
     4.5680   5.1336   5.9490

          k = 0.2700 0.4677 0.0000 ( 12092 PWs)   bands (ev):

   -77.7294 -49.1790 -49.0964 -48.8570 -21.5159 -21.4593 -20.2448 -19.5821
   -14.6040 -14.2946 -12.9178 -12.7787 -11.5564 -10.7134 -10.5227  -9.7004
    -9.0581  -8.5040  -7.8446  -7.3059  -6.0608  -4.5155  -3.6316  -2.8066
    -2.3635  -0.0466   0.1096   1.9304   2.3220   3.5796   3.8522   4.2586
     4.5699   5.1042   5.9178

          k = 0.2733 0.4734 0.0000 ( 12092 PWs)   bands (ev):

   -77.7292 -49.1788 -49.0989 -48.8567 -21.4809 -21.4244 -20.2420 -19.5838
   -14.6129 -14.3026 -12.9737 -12.8381 -11.5284 -10.7323 -10.5275  -9.6873
    -9.0987  -8.5309  -7.8378  -7.2927  -6.0454  -4.5400  -3.6181  -2.7957
    -2.3741  -0.0440   0.1172   1.9352   2.3311   3.6176   3.8679   4.2712
     4.5744   5.0759   5.8844

          k = 0.2767 0.4792 0.0000 ( 12088 PWs)   bands (ev):

   -77.7289 -49.1785 -49.1013 -48.8564 -21.4474 -21.3910 -20.2398 -19.5857
   -14.6194 -14.3078 -13.0288 -12.8968 -11.5004 -10.7507 -10.5308  -9.6756
    -9.1373  -8.5585  -7.8308  -7.2802  -6.0301  -4.5640  -3.6045  -2.7849
    -2.3850  -0.0408   0.1253   1.9395   2.3375   3.6557   3.8842   4.2865
     4.5813   5.0490   5.8487

          k = 0.2800 0.4850 0.0000 ( 12080 PWs)   bands (ev):

   -77.7287 -49.1780 -49.1038 -48.8561 -21.4156 -21.3593 -20.2381 -19.5877
   -14.6233 -14.3100 -13.0830 -12.9549 -11.4725 -10.7686 -10.5326  -9.6664
    -9.1728  -8.5867  -7.8238  -7.2682  -6.0150  -4.5874  -3.5907  -2.7744
    -2.3960  -0.0370   0.1339   1.9435   2.3413   3.6938   3.9013   4.3042
     4.5903   5.0234   5.8109

          k = 0.2833 0.4907 0.0000 ( 12084 PWs)   bands (ev):

   -77.7285 -49.1774 -49.1062 -48.8558 -21.3857 -21.3292 -20.2369 -19.5897
   -14.6247 -14.3094 -13.1363 -13.0121 -11.4448 -10.7857 -10.5325  -9.6609
    -9.2041  -8.6153  -7.8169  -7.2569  -6.0002  -4.6102  -3.5771  -2.7640
    -2.4072  -0.0327   0.1429   1.9470   2.3425   3.7318   3.9195   4.3240
     4.6011   4.9993   5.7709

          k = 0.2867 0.4965 0.0000 ( 12080 PWs)   bands (ev):

   -77.7284 -49.1767 -49.1086 -48.8556 -21.3575 -21.3009 -20.2361 -19.5917
   -14.6238 -14.3060 -13.1885 -13.0685 -11.4177 -10.8021 -10.5305  -9.6605
    -9.2298  -8.6442  -7.8102  -7.2463  -5.9858  -4.6321  -3.5635  -2.7539
    -2.4186  -0.0278   0.1522   1.9500   2.3414   3.7696   3.9389   4.3455
     4.6134   4.9766   5.7289

          k = 0.2900 0.5023 0.0000 ( 12084 PWs)   bands (ev):

   -77.7282 -49.1759 -49.1110 -48.8553 -21.3313 -21.2745 -20.2357 -19.5937
   -14.6205 -14.2998 -13.2395 -13.1240 -11.3913 -10.8176 -10.5262  -9.6666
    -9.2485  -8.6734  -7.8038  -7.2363  -5.9718  -4.6532  -3.5503  -2.7440
    -2.4299  -0.0224   0.1618   1.9526   2.3381   3.8071   3.9595   4.3684
     4.6272   4.9552   5.6849

          k = 0.2933 0.5081 0.0000 ( 12076 PWs)   bands (ev):

   -77.7281 -49.1750 -49.1134 -48.8551 -21.3070 -21.2499 -20.2355 -19.5956
   -14.6151 -14.2909 -13.2891 -13.1785 -11.3660 -10.8322 -10.5195  -9.6800
    -9.2594  -8.7028  -7.7978  -7.2271  -5.9583  -4.6733  -3.5373  -2.7344
    -2.4412  -0.0166   0.1714   1.9547   2.3329   3.8439   3.9815   4.3925
     4.6424   4.9350   5.6388

          k = 0.2967 0.5138 0.0000 ( 12084 PWs)   bands (ev):

   -77.7279 -49.1740 -49.1157 -48.8549 -21.2847 -21.2272 -20.2356 -19.5974
   -14.6076 -14.2794 -13.3372 -13.2319 -11.3419 -10.8458 -10.5101  -9.7008
    -9.2625  -8.7322  -7.7922  -7.2185  -5.9456  -4.6922  -3.5249  -2.7250
    -2.4524  -0.0103   0.1811   1.9563   2.3261   3.8800   4.0046   4.4174
     4.6591   4.9157   5.5907

          k = 0.3000 0.5196 0.0000 ( 12088 PWs)   bands (ev):

   -77.7278 -49.1729 -49.1180 -48.8547 -21.2644 -21.2065 -20.2359 -19.5991
   -14.5983 -14.2654 -13.3836 -13.2840 -11.3193 -10.8585 -10.4979  -9.7282
    -9.2586  -8.7616  -7.7870  -7.2108  -5.9335  -4.7099  -3.5131  -2.7160
    -2.4634  -0.0037   0.1907   1.9574   2.3180   3.9149   4.0289   4.4430
     4.6773   4.8972   5.5406

          k = 0.3033 0.5254 0.0000 ( 12088 PWs)   bands (ev):

   -77.7277 -49.1717 -49.1202 -48.8546 -21.2462 -21.1879 -20.2363 -19.6006
   -14.5875 -14.2490 -13.4280 -13.3347 -11.2985 -10.8700 -10.4827  -9.7610
    -9.2488  -8.7909  -7.7823  -7.2037  -5.9223  -4.7263  -3.5019  -2.7073
    -2.4741   0.0031   0.2001   1.9581   2.3090   3.9483   4.0540   4.4691
     4.6973   4.8790   5.4885

          k = 0.3067 0.5312 0.0000 ( 12088 PWs)   bands (ev):

   -77.7276 -49.1705 -49.1223 -48.8544 -21.2300 -21.1713 -20.2367 -19.6019
   -14.5754 -14.2306 -13.4701 -13.3835 -11.2797 -10.8804 -10.4643  -9.7978
    -9.2345  -8.8200  -7.7782  -7.1975  -5.9121  -4.7411  -3.4915  -2.6990
    -2.4844   0.0102   0.2091   1.9582   2.2994   3.9800   4.0796   4.4956
     4.7192   4.8608   5.4344

          k = 0.3100 0.5369 0.0000 ( 12092 PWs)   bands (ev):

   -77.7275 -49.1693 -49.1244 -48.8543 -21.2159 -21.1567 -20.2372 -19.6031
   -14.5624 -14.2104 -13.5097 -13.4303 -11.2631 -10.8897 -10.4427  -9.8374
    -9.2169  -8.8488  -7.7746  -7.1920  -5.9028  -4.7545  -3.4821  -2.6913
    -2.4941   0.0172   0.2177   1.9580   2.2897   4.0096   4.1052   4.5224
     4.7431   4.8425   5.3786

          k = 0.3133 0.5427 0.0000 ( 12094 PWs)   bands (ev):

   -77.7274 -49.1681 -49.1263 -48.8542 -21.2038 -21.1442 -20.2376 -19.6041
   -14.5490 -14.1889 -13.5463 -13.4745 -11.2488 -10.8977 -10.4181  -9.8789
    -9.1968  -8.8772  -7.7715  -7.1872  -5.8946  -4.7662  -3.4737  -2.6841
    -2.5031   0.0242   0.2256   1.9573   2.2802   4.0371   4.1300   4.5495
     4.7687   4.8245   5.3210

          k = 0.3167 0.5485 0.0000 ( 12114 PWs)   bands (ev):

   -77.7274 -49.1669 -49.1281 -48.8541 -21.1938 -21.1338 -20.2380 -19.6048
   -14.5358 -14.1667 -13.5796 -13.5152 -11.2369 -10.9044 -10.3907  -9.9212
    -9.1752  -8.9051  -7.7689  -7.1833  -5.8876  -4.7762  -3.4664  -2.6776
    -2.5113   0.0308   0.2327   1.9563   2.2712   4.0624   4.1530   4.5769
     4.7914   4.8113   5.2620

          k = 0.3200 0.5543 0.0000 ( 12096 PWs)   bands (ev):

   -77.7273 -49.1658 -49.1296 -48.8540 -21.1857 -21.1254 -20.2383 -19.6054
   -14.5233 -14.1447 -13.6091 -13.5515 -11.2274 -10.9099 -10.3609  -9.9634
    -9.1525  -8.9323  -7.7669  -7.1800  -5.8819  -4.7844  -3.4603  -2.6720
    -2.5183   0.0369   0.2388   1.9551   2.2631   4.0856   4.1728   4.6044
     4.7830   4.8318   5.2020

          k = 0.3233 0.5600 0.0000 ( 12092 PWs)   bands (ev):

   -77.7273 -49.1649 -49.1310 -48.8540 -21.1795 -21.1189 -20.2385 -19.6059
   -14.5124 -14.1243 -13.6342 -13.5821 -11.2202 -10.9142 -10.3299 -10.0042
    -9.1295  -8.9584  -7.7653  -7.1776  -5.8773  -4.7908  -3.4554  -2.6674
    -2.5241   0.0423   0.2439   1.9538   2.2562   4.1065   4.1879   4.6312
     4.7666   4.8635   5.1418

          k = 0.3267 0.5658 0.0000 ( 12106 PWs)   bands (ev):

   -77.7273 -49.1641 -49.1320 -48.8540 -21.1752 -21.1144 -20.2387 -19.6061
   -14.5037 -14.1072 -13.6541 -13.6052 -11.2153 -10.9171 -10.2997 -10.0415
    -9.1074  -8.9826  -7.7643  -7.1758  -5.8741  -4.7954  -3.4519  -2.6640
    -2.5284   0.0465   0.2476   1.9526   2.2510   4.1250   4.1969   4.6559
     4.7524   4.8972   5.0831

          k = 0.3300 0.5716 0.0000 ( 12110 PWs)   bands (ev):

   -77.7272 -49.1636 -49.1326 -48.8539 -21.1727 -21.1118 -20.2387 -19.6063
   -14.4980 -14.0955 -13.6673 -13.6197 -11.2125 -10.9188 -10.2750 -10.0704
    -9.0886  -9.0026  -7.7637  -7.1748  -5.8722  -4.7981  -3.4498  -2.6619
    -2.5310   0.0493   0.2500   1.9517   2.2477   4.1400   4.1994   4.6752
     4.7429   4.9308   5.0303

          k = 0.3333 0.5774 0.0000 ( 12102 PWs)   bands (ev):

   -77.7272 -49.1634 -49.1328 -48.8539 -21.1718 -21.1109 -20.2388 -19.6063
   -14.4960 -14.0912 -13.6721 -13.6246 -11.2116 -10.9194 -10.2646 -10.0822
    -9.0800  -9.0115  -7.7635  -7.1745  -5.8715  -4.7990  -3.4491  -2.6611
    -2.5319   0.0504   0.2508   1.9513   2.2465   4.1470   4.1984   4.6832
     4.7400   4.9512   5.0016

          k = 0.3361 0.5725 0.0000 ( 12114 PWs)   bands (ev):

   -77.7272 -49.1636 -49.1327 -48.8539 -21.1724 -21.1115 -20.2388 -19.6063
   -14.4975 -14.0943 -13.6686 -13.6211 -11.2122 -10.9190 -10.2723 -10.0735
    -9.0860  -9.0053  -7.7636  -7.1747  -5.8720  -4.7984  -3.4496  -2.6616
    -2.5313   0.0496   0.2502   1.9516   2.2473   4.1401   4.2011   4.6764
     4.7412   4.9415   5.0191

          k = 0.3389 0.5677 0.0000 ( 12114 PWs)   bands (ev):

   -77.7273 -49.1639 -49.1322 -48.8539 -21.1740 -21.1132 -20.2387 -19.6062
   -14.5020 -14.1036 -13.6585 -13.6106 -11.2139 -10.9180 -10.2926 -10.0504
    -9.0998  -8.9909  -7.7640  -7.1754  -5.8733  -4.7966  -3.4511  -2.6629
    -2.5296   0.0470   0.2484   1.9527   2.2500   4.1197   4.2092   4.6544
     4.7441   4.9364   5.0502

          k = 0.3417 0.5629 0.0000 ( 12118 PWs)   bands (ev):

   -77.7273 -49.1645 -49.1314 -48.8540 -21.1767 -21.1160 -20.2387 -19.6062
   -14.5095 -14.1183 -13.6423 -13.5930 -11.2165 -10.9163 -10.3202 -10.0182
    -9.1164  -8.9731  -7.7646  -7.1765  -5.8754  -4.7936  -3.4535  -2.6649
    -2.5270   0.0425   0.2451   1.9547   2.2546   4.0889   4.2200   4.6166
     4.7497   4.9450   5.0844

          k = 0.3444 0.5581 0.0000 ( 12114 PWs)   bands (ev):

   -77.7273 -49.1654 -49.1304 -48.8540 -21.1803 -21.1197 -20.2387 -19.6061
   -14.5199 -14.1376 -13.6210 -13.5688 -11.2200 -10.9140 -10.3515  -9.9806
    -9.1339  -8.9541  -7.7654  -7.1780  -5.8783  -4.7895  -3.4570  -2.6675
    -2.5236   0.0358   0.2405   1.9578   2.2613   4.0502   4.2320   4.5669
     4.7585   4.9641   5.1202

          k = 0.3472 0.5533 0.0000 ( 12122 PWs)   bands (ev):

   -77.7273 -49.1663 -49.1291 -48.8540 -21.1848 -21.1244 -20.2388 -19.6060
   -14.5330 -14.1604 -13.5951 -13.5384 -11.2243 -10.9113 -10.3846  -9.9396
    -9.1515  -8.9348  -7.7663  -7.1799  -5.8819  -4.7843  -3.4613  -2.6705
    -2.5195   0.0268   0.2342   1.9623   2.2700   4.0051   4.2442   4.5095
     4.7701   4.9897   5.1570

          k = 0.3500 0.5485 0.0000 ( 12118 PWs)   bands (ev):

   -77.7274 -49.1675 -49.1277 -48.8541 -21.1902 -21.1300 -20.2389 -19.6060
   -14.5485 -14.1857 -13.5653 -13.5029 -11.2292 -10.9081 -10.4183  -9.8963
    -9.1686  -8.9153  -7.7674  -7.1822  -5.8862  -4.7782  -3.4666  -2.6739
    -2.5149   0.0152   0.2263   1.9683   2.2808   3.9548   4.2564   4.4474
     4.7836   5.0194   5.1945

          k = 0.3528 0.5437 0.0000 ( 12096 PWs)   bands (ev):

   -77.7274 -49.1687 -49.1260 -48.8542 -21.1964 -21.1364 -20.2391 -19.6060
   -14.5662 -14.2128 -13.5317 -13.4630 -11.2347 -10.9046 -10.4521  -9.8514
    -9.1852  -8.8960  -7.7687  -7.1849  -5.8911  -4.7711  -3.4727  -2.6774
    -2.5099   0.0009   0.2165   1.9761   2.2939   3.9003   4.2676   4.3830
     4.7985   5.0518   5.2326

          k = 0.3556 0.5389 0.0000 ( 12104 PWs)   bands (ev):

   -77.7274 -49.1701 -49.1242 -48.8542 -21.2033 -21.1436 -20.2394 -19.6060
   -14.5856 -14.2412 -13.4946 -13.4194 -11.2408 -10.9010 -10.4856  -9.8055
    -9.2010  -8.8770  -7.7700  -7.1879  -5.8966  -4.7632  -3.4797  -2.6810
    -2.5047  -0.0161   0.2046   1.9858   2.3091   3.8422   4.2716   4.3234
     4.8143   5.0858   5.2712

          k = 0.3583 0.5340 0.0000 ( 12100 PWs)   bands (ev):

   -77.7275 -49.1715 -49.1223 -48.8543 -21.2109 -21.1514 -20.2398 -19.6062
   -14.6066 -14.2704 -13.4544 -13.3727 -11.2473 -10.8973 -10.5186  -9.7587
    -9.2158  -8.8582  -7.7714  -7.1912  -5.9026  -4.7544  -3.4875  -2.6846
    -2.4993  -0.0358   0.1906   1.9976   2.3265   3.7813   4.2308   4.3069
     4.8306   5.1210   5.3100

          k = 0.3611 0.5292 0.0000 ( 12086 PWs)   bands (ev):

   -77.7276 -49.1729 -49.1203 -48.8544 -21.2191 -21.1599 -20.2403 -19.6064
   -14.6289 -14.3002 -13.4113 -13.3234 -11.2541 -10.8936 -10.5506  -9.7117
    -9.2293  -8.8399  -7.7729  -7.1948  -5.9091  -4.7450  -3.4960  -2.6882
    -2.4938  -0.0584   0.1741   2.0116   2.3461   3.7181   4.1630   4.3162
     4.8472   5.1571   5.3490

          k = 0.3639 0.5244 0.0000 ( 12086 PWs)   bands (ev):

   -77.7276 -49.1745 -49.1182 -48.8545 -21.2279 -21.1689 -20.2410 -19.6067
   -14.6521 -14.3301 -13.3655 -13.2718 -11.2613 -10.8903 -10.5815  -9.6648
    -9.2415  -8.8219  -7.7745  -7.1987  -5.9160  -4.7349  -3.5053  -2.6917
    -2.4884  -0.0838   0.1552   2.0280   2.3677   3.6532   4.0913   4.3285
     4.8637   5.1936   5.3881

          k = 0.3667 0.5196 0.0000 ( 12098 PWs)   bands (ev):

   -77.7277 -49.1760 -49.1160 -48.8546 -21.2372 -21.1785 -20.2417 -19.6071
   -14.6761 -14.3602 -13.3173 -13.2182 -11.2688 -10.8875 -10.6110  -9.6185
    -9.2517  -8.8042  -7.7760  -7.2029  -5.9233  -4.7242  -3.5152  -2.6950
    -2.4830  -0.1119   0.1336   2.0468   2.3915   3.5870   4.0183   4.3415
     4.8801   5.2305   5.4270

          k = 0.3694 0.5148 0.0000 ( 12100 PWs)   bands (ev):

   -77.7277 -49.1775 -49.1138 -48.8547 -21.2470 -21.1885 -20.2427 -19.6077
   -14.7006 -14.3902 -13.2670 -13.1628 -11.2765 -10.8856 -10.6385  -9.5737
    -9.2594  -8.7869  -7.7776  -7.2073  -5.9308  -4.7130  -3.5257  -2.6981
    -2.4777  -0.1428   0.1092   2.0680   2.4172   3.5199   3.9446   4.3547
     4.8962   5.2675   5.4656

          k = 0.3722 0.5100 0.0000 ( 12104 PWs)   bands (ev):

   -77.7278 -49.1791 -49.1115 -48.8548 -21.2572 -21.1990 -20.2438 -19.6083
   -14.7256 -14.4201 -13.2147 -13.1058 -11.2844 -10.8851 -10.6638  -9.5316
    -9.2636  -8.7698  -7.7793  -7.2120  -5.9386  -4.7014  -3.5368  -2.7010
    -2.4726  -0.1763   0.0820   2.0917   2.4448   3.4524   3.8707   4.3681
     4.9121   5.3045   5.5039

          k = 0.3750 0.5052 0.0000 ( 12112 PWs)   bands (ev):

   -77.7279 -49.1807 -49.1092 -48.8549 -21.2677 -21.2097 -20.2450 -19.6091
   -14.7509 -14.4497 -13.1608 -13.0474 -11.2925 -10.8866 -10.6860  -9.4938
    -9.2626  -8.7530  -7.7809  -7.2169  -5.9466  -4.6894  -3.5484  -2.7036
    -2.4677  -0.2124   0.0520   2.1177   2.4742   3.3848   3.7968   4.3814
     4.9275   5.3414   5.5415

          k = 0.3778 0.5004 0.0000 ( 12114 PWs)   bands (ev):

   -77.7280 -49.1822 -49.1068 -48.8550 -21.2786 -21.2208 -20.2464 -19.6100
   -14.7763 -14.4790 -13.1053 -12.9878 -11.3007 -10.8906 -10.7047  -9.4626
    -9.2544  -8.7362  -7.7826  -7.2220  -5.9547  -4.6770  -3.5605  -2.7059
    -2.4631  -0.2510   0.0190   2.1459   2.5053   3.3175   3.7232   4.3948
     4.9426   5.3779   5.5785

          k = 0.3806 0.4956 0.0000 ( 12108 PWs)   bands (ev):

   -77.7281 -49.1838 -49.1044 -48.8551 -21.2897 -21.2322 -20.2480 -19.6110
   -14.8017 -14.5079 -13.0486 -12.9270 -11.3089 -10.8978 -10.7192  -9.4400
    -9.2374  -8.7193  -7.7842  -7.2273  -5.9629  -4.6645  -3.5731  -2.7079
    -2.4589  -0.2920  -0.0168   2.1760   2.5379   3.2510   3.6502   4.4081
     4.9573   5.4141   5.6145

          k = 0.3833 0.4907 0.0000 ( 12110 PWs)   bands (ev):

   -77.7281 -49.1854 -49.1020 -48.8552 -21.3011 -21.2438 -20.2497 -19.6122
   -14.8271 -14.5364 -12.9908 -12.8653 -11.3172 -10.9082 -10.7294  -9.4261
    -9.2115  -8.7023  -7.7859  -7.2327  -5.9712  -4.6517  -3.5861  -2.7095
    -2.4549  -0.3353  -0.0553   2.2077   2.5721   3.1857   3.5779   4.4214
     4.9715   5.4497   5.6495

          k = 0.3861 0.4859 0.0000 ( 12110 PWs)   bands (ev):

   -77.7282 -49.1869 -49.0996 -48.8554 -21.3127 -21.2555 -20.2516 -19.6135
   -14.8523 -14.5644 -12.9320 -12.8027 -11.3254 -10.9215 -10.7355  -9.4190
    -9.1790  -8.6847  -7.7876  -7.2384  -5.9795  -4.6387  -3.5994  -2.7108
    -2.4514  -0.3808  -0.0965   2.2406   2.6075   3.1222   3.5066   4.4345
     4.9854   5.4848   5.6831

          k = 0.3889 0.4811 0.0000 ( 12110 PWs)   bands (ev):

   -77.7283 -49.1884 -49.0972 -48.8555 -21.3244 -21.2674 -20.2536 -19.6148
   -14.8774 -14.5919 -12.8726 -12.7395 -11.3335 -10.9370 -10.7383  -9.4162
    -9.1426  -8.6664  -7.7892  -7.2442  -5.9878  -4.6256  -3.6131  -2.7117
    -2.4482  -0.4285  -0.1403   2.2739   2.6442   3.0613   3.4364   4.4475
     4.9989   5.5192   5.7152

          k = 0.3917 0.4763 0.0000 ( 12110 PWs)   bands (ev):

   -77.7284 -49.1899 -49.0948 -48.8556 -21.3362 -21.2794 -20.2558 -19.6164
   -14.9022 -14.6190 -12.8126 -12.6757 -11.3415 -10.9540 -10.7386  -9.4160
    -9.1047  -8.6470  -7.7909  -7.2502  -5.9961  -4.6125  -3.6271  -2.7121
    -2.4455  -0.4781  -0.1865   2.3065   2.6819   3.0039   3.3676   4.4604
     5.0121   5.5528   5.7456

          k = 0.3944 0.4715 0.0000 ( 12100 PWs)   bands (ev):

   -77.7285 -49.1914 -49.0924 -48.8557 -21.3481 -21.2914 -20.2581 -19.6180
   -14.9267 -14.6455 -12.7523 -12.6114 -11.3491 -10.9717 -10.7370  -9.4169
    -9.0670  -8.6261  -7.7927  -7.2563  -6.0044  -4.5994  -3.6413  -2.7122
    -2.4432  -0.5297  -0.2349   2.3372   2.7205   2.9514   3.3004   4.4731
     5.0250   5.5857   5.7739

          k = 0.3972 0.4667 0.0000 ( 12104 PWs)   bands (ev):

   -77.7286 -49.1929 -49.0900 -48.8559 -21.3601 -21.3035 -20.2605 -19.6197
   -14.9509 -14.6714 -12.6919 -12.5469 -11.3563 -10.9895 -10.7341  -9.4182
    -9.0306  -8.6034  -7.7944  -7.2626  -6.0125  -4.5862  -3.6559  -2.7119
    -2.4414  -0.5831  -0.2853   2.3636   2.7597   2.9060   3.2351   4.4858
     5.0375   5.6176   5.7999

          k = 0.4000 0.4619 0.0000 ( 12108 PWs)   bands (ev):

   -77.7287 -49.1943 -49.0876 -48.8560 -21.3720 -21.3155 -20.2631 -19.6216
   -14.9746 -14.6968 -12.6316 -12.4823 -11.3630 -11.0070 -10.7304  -9.4195
    -8.9964  -8.5785  -7.7962  -7.2690  -6.0205  -4.5732  -3.6706  -2.7113
    -2.4400  -0.6381  -0.3375   2.3828   2.7991   2.8703   3.1722   4.4984
     5.0498   5.6486   5.8233

          k = 0.4028 0.4571 0.0000 ( 12104 PWs)   bands (ev):

   -77.7288 -49.1958 -49.0852 -48.8562 -21.3839 -21.3275 -20.2658 -19.6235
   -14.9980 -14.7216 -12.5718 -12.4177 -11.3689 -11.0238 -10.7262  -9.4204
    -8.9651  -8.5510  -7.7981  -7.2755  -6.0284  -4.5602  -3.6855  -2.7103
    -2.4391  -0.6947  -0.3913   2.3915   2.8378   2.8477   3.1127   4.5109
     5.0619   5.6786   5.8438

          k = 0.4056 0.4523 0.0000 ( 12104 PWs)   bands (ev):

   -77.7289 -49.1971 -49.0828 -48.8563 -21.3958 -21.3395 -20.2685 -19.6255
   -15.0209 -14.7458 -12.5126 -12.3534 -11.3739 -11.0396 -10.7215  -9.4208
    -8.9370  -8.5208  -7.8000  -7.2822  -6.0362  -4.5473  -3.7006  -2.7090
    -2.4386  -0.7527  -0.4465   2.3872   2.8390   2.8747   3.0591   4.5233
     5.0738   5.7076   5.8612

          k = 0.4083 0.4474 0.0000 ( 12104 PWs)   bands (ev):

   -77.7290 -49.1985 -49.0805 -48.8564 -21.4076 -21.3514 -20.2713 -19.6276
   -15.0433 -14.7694 -12.4544 -12.2896 -11.3777 -11.0544 -10.7168  -9.4207
    -8.9124  -8.4880  -7.8019  -7.2890  -6.0438  -4.5346  -3.7159  -2.7074
    -2.4384  -0.8120  -0.5028   2.3695   2.8434   2.9019   3.0203   4.5357
     5.0856   5.7355   5.8753

          k = 0.4111 0.4426 0.0000 ( 12100 PWs)   bands (ev):

   -77.7291 -49.1998 -49.0782 -48.8566 -21.4192 -21.3631 -20.2743 -19.6298
   -15.0652 -14.7923 -12.3976 -12.2264 -11.3799 -11.0679 -10.7119  -9.4198
    -8.8912  -8.4527  -7.8039  -7.2960  -6.0512  -4.5220  -3.7312  -2.7057
    -2.4387  -0.8725  -0.5600   2.3409   2.8485   2.9088   3.0168   4.5482
     5.0973   5.7623   5.8858

          k = 0.4139 0.4378 0.0000 ( 12098 PWs)   bands (ev):

   -77.7292 -49.2011 -49.0759 -48.8567 -21.4308 -21.3747 -20.2772 -19.6320
   -15.0866 -14.8146 -12.3426 -12.1641 -11.3803 -11.0799 -10.7071  -9.4181
    -8.8732  -8.4152  -7.8058  -7.3030  -6.0585  -4.5096  -3.7467  -2.7040
    -2.4392  -0.9339  -0.6178   2.3045   2.8267   2.9226   3.0453   4.5607
     5.1089   5.7880   5.8928

          k = 0.4167 0.4330 0.0000 ( 12094 PWs)   bands (ev):

   -77.7293 -49.2024 -49.0737 -48.8569 -21.4422 -21.3861 -20.2803 -19.6343
   -15.1075 -14.8363 -12.2898 -12.1030 -11.3783 -11.0904 -10.7024  -9.4157
    -8.8581  -8.3760  -7.8078  -7.3101  -6.0656  -4.4975  -3.7622  -2.7022
    -2.4400  -0.9962  -0.6760   2.2633   2.7844   2.9544   3.0854   4.5733
     5.1206   5.8125   5.8963

          k = 0.4194 0.4282 0.0000 ( 12080 PWs)   bands (ev):

   -77.7294 -49.2036 -49.0715 -48.8570 -21.4533 -21.3974 -20.2833 -19.6366
   -15.1278 -14.8573 -12.2398 -12.0434 -11.3735 -11.0991 -10.6979  -9.4126
    -8.8455  -8.3355  -7.8097  -7.3174  -6.0725  -4.4855  -3.7777  -2.7007
    -2.4408  -1.0591  -0.7344   2.2194   2.7372   2.9935   3.1298   4.5861
     5.1323   5.8356   5.8966

          k = 0.4222 0.4234 0.0000 ( 12072 PWs)   bands (ev):

   -77.7295 -49.2049 -49.0693 -48.8571 -21.4643 -21.4084 -20.2864 -19.6390
   -15.1475 -14.8777 -12.1931 -11.9855 -11.3655 -11.1059 -10.6935  -9.4087
    -8.8352  -8.2942  -7.8116  -7.3247  -6.0792  -4.4739  -3.7933  -2.6995
    -2.4417  -1.1226  -0.7926   2.1741   2.6894   3.0354   3.1768   4.5991
     5.1441   5.8565   5.8946

          k = 0.4250 0.4186 0.0000 ( 12090 PWs)   bands (ev):

   -77.7296 -49.2060 -49.0672 -48.8573 -21.4751 -21.4192 -20.2895 -19.6414
   -15.1666 -14.8974 -12.1501 -11.9298 -11.3537 -11.1106 -10.6894  -9.4040
    -8.8267  -8.2526  -7.8133  -7.3321  -6.0857  -4.4624  -3.8089  -2.6988
    -2.4425  -1.1863  -0.8506   2.1284   2.6425   3.0783   3.2258   4.6124
     5.1561   5.8711   5.8950

          k = 0.4278 0.4138 0.0000 ( 12094 PWs)   bands (ev):

   -77.7297 -49.2072 -49.0651 -48.8574 -21.4856 -21.4298 -20.2926 -19.6438
   -15.1851 -14.9164 -12.1115 -11.8766 -11.3378 -11.1130 -10.6855  -9.3987
    -8.8197  -8.2111  -7.8147  -7.3395  -6.0920  -4.4513  -3.8244  -2.6988
    -2.4429  -1.2500  -0.9079   2.0830   2.5969   3.1210   3.2766   4.6260
     5.1683   5.8699   5.9074

          k = 0.4306 0.4090 0.0000 ( 12090 PWs)   bands (ev):

   -77.7298 -49.2082 -49.0631 -48.8575 -21.4959 -21.4401 -20.2957 -19.6462
   -15.2030 -14.9348 -12.0776 -11.8262 -11.3176 -11.1128 -10.6818  -9.3927
    -8.8141  -8.1703  -7.8156  -7.3470  -6.0981  -4.4404  -3.8399  -2.6998
    -2.4430  -1.3136  -0.9645   2.0381   2.5529   3.1626   3.3287   4.6399
     5.1808   5.8601   5.9251

          k = 0.4333 0.4041 0.0000 ( 12100 PWs)   bands (ev):

   -77.7299 -49.2093 -49.0611 -48.8577 -21.5059 -21.4501 -20.2988 -19.6485
   -15.2202 -14.9524 -12.0486 -11.7789 -11.2929 -11.1097 -10.6784  -9.3861
    -8.8097  -8.1305  -7.8159  -7.3545  -6.1041  -4.4299  -3.8552  -2.7018
    -2.4425  -1.3769  -1.0201   1.9942   2.5107   3.2028   3.3820   4.6544
     5.1936   5.8471   5.9432

          k = 0.4361 0.3993 0.0000 ( 12112 PWs)   bands (ev):

   -77.7299 -49.2103 -49.0592 -48.8578 -21.5155 -21.4598 -20.3019 -19.6509
   -15.2369 -14.9694 -12.0245 -11.7352 -11.2640 -11.1035 -10.6752  -9.3789
    -8.8061  -8.0924  -7.8152  -7.3619  -6.1098  -4.4196  -3.8705  -2.7052
    -2.4413  -1.4395  -1.0745   1.9515   2.4702   3.2413   3.4361   4.6692
     5.2069   5.8322   5.9608

          k = 0.4389 0.3945 0.0000 ( 12104 PWs)   bands (ev):

   -77.7300 -49.2113 -49.0574 -48.8579 -21.5249 -21.4692 -20.3049 -19.6533
   -15.2528 -14.9857 -12.0051 -11.6953 -11.2315 -11.0936 -10.6722  -9.3712
    -8.8033  -8.0568  -7.8129  -7.3694  -6.1154  -4.4096  -3.8856  -2.7100
    -2.4393  -1.5013  -1.1275   1.9101   2.4315   3.2780   3.4906   4.6847
     5.2206   5.8159   5.9778

          k = 0.4417 0.3897 0.0000 ( 12100 PWs)   bands (ev):

   -77.7301 -49.2123 -49.0556 -48.8580 -21.5340 -21.4782 -20.3078 -19.6556
   -15.2682 -15.0013 -11.9901 -11.6595 -11.1961 -11.0799 -10.6693  -9.3631
    -8.8012  -8.0244  -7.8083  -7.3767  -6.1207  -4.4000  -3.9005  -2.7163
    -2.4365  -1.5619  -1.1791   1.8700   2.3947   3.3129   3.5449   4.7007
     5.2348   5.7986   5.9941

          k = 0.4444 0.3849 0.0000 ( 12100 PWs)   bands (ev):

   -77.7302 -49.2132 -49.0539 -48.8582 -21.5427 -21.4870 -20.3107 -19.6579
   -15.2828 -15.0162 -11.9788 -11.6280 -11.1586 -11.0620 -10.6667  -9.3546
    -8.7996  -7.9964  -7.8006  -7.3840  -6.1259  -4.3906  -3.9152  -2.7241
    -2.4329  -1.6211  -1.2289   1.8315   2.3596   3.3458   3.5988   4.7173
     5.2496   5.7806   6.0097

          k = 0.4472 0.3801 0.0000 ( 12096 PWs)   bands (ev):

   -77.7303 -49.2140 -49.0523 -48.8583 -21.5510 -21.4953 -20.3135 -19.6601
   -15.2968 -15.0303 -11.9709 -11.6007 -11.1203 -11.0396 -10.6642  -9.3459
    -8.7984  -7.9736  -7.7889  -7.3910  -6.1309  -4.3816  -3.9297  -2.7334
    -2.4286  -1.6786  -1.2770   1.7946   2.3264   3.3769   3.6517   4.7345
     5.2651   5.7623   6.0247

          k = 0.4500 0.3753 0.0000 ( 12094 PWs)   bands (ev):

   -77.7304 -49.2148 -49.0507 -48.8584 -21.5590 -21.5033 -20.3163 -19.6622
   -15.3101 -15.0438 -11.9656 -11.5775 -11.0822 -11.0127 -10.6618  -9.3369
    -8.7977  -7.9567  -7.7728  -7.3979  -6.1358  -4.3729  -3.9439  -2.7442
    -2.4238  -1.7340  -1.3232   1.7593   2.2951   3.4061   3.7033   4.7523
     5.2812   5.7438   6.0392

          k = 0.4528 0.3705 0.0000 ( 12088 PWs)   bands (ev):

   -77.7304 -49.2156 -49.0492 -48.8585 -21.5667 -21.5110 -20.3189 -19.6643
   -15.3227 -15.0566 -11.9626 -11.5582 -11.0453 -10.9813 -10.6595  -9.3278
    -8.7972  -7.9453  -7.7529  -7.4046  -6.1404  -4.3645  -3.9578  -2.7561
    -2.4187  -1.7870  -1.3675   1.7257   2.2655   3.4334   3.7532   4.7707
     5.2980   5.7255   6.0532

          k = 0.4556 0.3657 0.0000 ( 12076 PWs)   bands (ev):

   -77.7305 -49.2164 -49.0477 -48.8586 -21.5739 -21.5182 -20.3214 -19.6664
   -15.3346 -15.0686 -11.9614 -11.5425 -11.0100 -10.9462 -10.6571  -9.3187
    -8.7969  -7.9383  -7.7301  -7.4109  -6.1449  -4.3564  -3.9714  -2.7692
    -2.4136  -1.8371  -1.4096   1.6938   2.2377   3.4589   3.8011   4.7897
     5.3155   5.7075   6.0668

          k = 0.4583 0.3608 0.0000 ( 12080 PWs)   bands (ev):

   -77.7306 -49.2171 -49.0464 -48.8587 -21.5807 -21.5251 -20.3239 -19.6683
   -15.3458 -15.0800 -11.9615 -11.5297 -10.9763 -10.9087 -10.6547  -9.3096
    -8.7969  -7.9347  -7.7059  -7.4169  -6.1492  -4.3487  -3.9845  -2.7831
    -2.4088  -1.8841  -1.4498   1.6637   2.2117   3.4826   3.8466   4.8091
     5.3337   5.6900   6.0799

          k = 0.4611 0.3560 0.0000 ( 12080 PWs)   bands (ev):

   -77.7306 -49.2177 -49.0451 -48.8588 -21.5872 -21.5315 -20.3262 -19.6701
   -15.3563 -15.0906 -11.9626 -11.5195 -10.9439 -10.8702 -10.6522  -9.3006
    -8.7969  -7.9334  -7.6812  -7.4224  -6.1533  -4.3413  -3.9973  -2.7977
    -2.4047  -1.9274  -1.4877   1.6354   2.1874   3.5045   3.8895   4.8289
     5.3526   5.6732   6.0927

          k = 0.4639 0.3512 0.0000 ( 12088 PWs)   bands (ev):

   -77.7307 -49.2183 -49.0439 -48.8589 -21.5932 -21.5375 -20.3284 -19.6719
   -15.3662 -15.1005 -11.9645 -11.5114 -10.9129 -10.8318 -10.6494  -9.2918
    -8.7971  -7.9336  -7.6570  -7.4274  -6.1572  -4.3341  -4.0096  -2.8126
    -2.4018  -1.9665  -1.5236   1.6089   2.1649   3.5246   3.9295   4.8488
     5.3721   5.6571   6.1050

          k = 0.4667 0.3464 0.0000 ( 12090 PWs)   bands (ev):

   -77.7307 -49.2189 -49.0428 -48.8589 -21.5988 -21.5432 -20.3304 -19.6735
   -15.3753 -15.1096 -11.9668 -11.5050 -10.8834 -10.7944 -10.6463  -9.2833
    -8.7973  -7.9349  -7.6339  -7.4317  -6.1609  -4.3274  -4.0214  -2.8277
    -2.4005  -2.0009  -1.5573   1.5843   2.1441   3.5431   3.9665   4.8687
     5.3922   5.6420   6.1171

          k = 0.4694 0.3416 0.0000 ( 12090 PWs)   bands (ev):

   -77.7308 -49.2194 -49.0418 -48.8590 -21.6040 -21.5484 -20.3323 -19.6750
   -15.3836 -15.1181 -11.9696 -11.5001 -10.8557 -10.7585 -10.6427  -9.2752
    -8.7976  -7.9368  -7.6124  -7.4352  -6.1644  -4.3209  -4.0326  -2.8427
    -2.4011  -2.0302  -1.5888   1.5615   2.1250   3.5598   4.0004   4.8884
     5.4127   5.6279   6.1287

          k = 0.4722 0.3368 0.0000 ( 12082 PWs)   bands (ev):

   -77.7308 -49.2199 -49.0408 -48.8591 -21.6088 -21.5531 -20.3341 -19.6765
   -15.3913 -15.1258 -11.9724 -11.4962 -10.8302 -10.7247 -10.6384  -9.2674
    -8.7979  -7.9391  -7.5930  -7.4377  -6.1677  -4.3148  -4.0432  -2.8574
    -2.4040  -2.0541  -1.6181   1.5406   2.1076   3.5749   4.0311   4.9075
     5.4333   5.6151   6.1400

          k = 0.4750 0.3320 0.0000 ( 12074 PWs)   bands (ev):

   -77.7309 -49.2203 -49.0400 -48.8591 -21.6131 -21.5574 -20.3357 -19.6778
   -15.3983 -15.1328 -11.9754 -11.4932 -10.8074 -10.6935 -10.6332  -9.2602
    -8.7982  -7.9416  -7.5759  -7.4392  -6.1707  -4.3091  -4.0531  -2.8715
    -2.4093  -2.0726  -1.6452   1.5217   2.0919   3.5884   4.0586   4.9259
     5.4538   5.6035   6.1507

          k = 0.4778 0.3272 0.0000 ( 12074 PWs)   bands (ev):

   -77.7309 -49.2207 -49.0392 -48.8592 -21.6170 -21.5613 -20.3372 -19.6789
   -15.4045 -15.1390 -11.9782 -11.4910 -10.7874 -10.6655 -10.6267  -9.2536
    -8.7985  -7.9442  -7.5615  -7.4394  -6.1735  -4.3037  -4.0624  -2.8848
    -2.4165  -2.0860  -1.6700   1.5047   2.0779   3.6003   4.0828   4.9431
     5.4737   5.5934   6.1609

          k = 0.4806 0.3224 0.0000 ( 12084 PWs)   bands (ev):

   -77.7310 -49.2210 -49.0385 -48.8592 -21.6204 -21.5648 -20.3385 -19.6800
   -15.4100 -15.1445 -11.9809 -11.4892 -10.7706 -10.6421 -10.6178  -9.2475
    -8.7988  -7.9467  -7.5499  -7.4382  -6.1760  -4.2988  -4.0708  -2.8970
    -2.4253  -2.0948  -1.6925   1.4896   2.0656   3.6107   4.1039   4.9590
     5.4925   5.5850   6.1705

          k = 0.4833 0.3175 0.0000 ( 12088 PWs)   bands (ev):

   -77.7310 -49.2213 -49.0379 -48.8593 -21.6234 -21.5677 -20.3396 -19.6809
   -15.4147 -15.1493 -11.9834 -11.4879 -10.7569 -10.6257 -10.6045  -9.2422
    -8.7990  -7.9491  -7.5410  -7.4360  -6.1782  -4.2944  -4.0784  -2.9081
    -2.4348  -2.1001  -1.7125   1.4765   2.0549   3.6196   4.1219   4.9733
     5.5092   5.5788   6.1792

          k = 0.4861 0.3127 0.0000 ( 12088 PWs)   bands (ev):

   -77.7310 -49.2216 -49.0374 -48.8593 -21.6260 -21.5703 -20.3406 -19.6817
   -15.4188 -15.1534 -11.9855 -11.4870 -10.7461 -10.6154 -10.5883  -9.2376
    -8.7992  -7.9512  -7.5346  -7.4329  -6.1801  -4.2904  -4.0850  -2.9178
    -2.4443  -2.1025  -1.7299   1.4654   2.0459   3.6271   4.1370   4.9857
     5.5225   5.5757   6.1869

          k = 0.4889 0.3079 0.0000 ( 12094 PWs)   bands (ev):

   -77.7310 -49.2218 -49.0370 -48.8594 -21.6280 -21.5723 -20.3414 -19.6823
   -15.4221 -15.1567 -11.9874 -11.4863 -10.7380 -10.6077 -10.5732  -9.2338
    -8.7994  -7.9530  -7.5302  -7.4294  -6.1817  -4.2871  -4.0905  -2.9259
    -2.4531  -2.1032  -1.7446   1.4563   2.0385   3.6332   4.1491   4.9961
     5.5311   5.5765   6.1936

          k = 0.4917 0.3031 0.0000 ( 12094 PWs)   bands (ev):

   -77.7310 -49.2220 -49.0367 -48.8594 -21.6297 -21.5740 -20.3420 -19.6828
   -15.4247 -15.1593 -11.9888 -11.4858 -10.7321 -10.6016 -10.5608  -9.2308
    -8.7995  -7.9545  -7.5274  -7.4261  -6.1829  -4.2844  -4.0950  -2.9324
    -2.4605  -2.1028  -1.7563   1.4493   2.0328   3.6379   4.1584   5.0044
     5.5348   5.5808   6.1989

          k = 0.4944 0.2983 0.0000 ( 12098 PWs)   bands (ev):

   -77.7311 -49.2221 -49.0364 -48.8594 -21.6308 -21.5751 -20.3424 -19.6832
   -15.4265 -15.1611 -11.9899 -11.4854 -10.7282 -10.5971 -10.5518  -9.2286
    -8.7996  -7.9555  -7.5256  -7.4234  -6.1838  -4.2825  -4.0982  -2.9370
    -2.4661  -2.1020  -1.7648   1.4442   2.0287   3.6412   4.1650   5.0103
     5.5357   5.5860   6.2029

          k = 0.4972 0.2935 0.0000 ( 12086 PWs)   bands (ev):

   -77.7311 -49.2221 -49.0363 -48.8594 -21.6315 -21.5758 -20.3427 -19.6834
   -15.4276 -15.1622 -11.9905 -11.4853 -10.7259 -10.5942 -10.5463  -9.2273
    -8.7997  -7.9562  -7.5247  -7.4217  -6.1844  -4.2813  -4.1002  -2.9399
    -2.4696  -2.1013  -1.7700   1.4412   2.0263   3.6432   4.1690   5.0140
     5.5356   5.5899   6.2053

          k = 0.5000 0.2887 0.0000 ( 12078 PWs)   bands (ev):

   -77.7311 -49.2222 -49.0363 -48.8594 -21.6317 -21.5760 -20.3428 -19.6834
   -15.4280 -15.1626 -11.9908 -11.4852 -10.7252 -10.5933 -10.5445  -9.2269
    -8.7997  -7.9564  -7.5244  -7.4211  -6.1845  -4.2808  -4.1008  -2.9408
    -2.4708  -2.1010  -1.7718   1.4401   2.0254   3.6439   4.1703   5.0152
     5.5355   5.5913   6.2061

          k = 0.4950 0.2858 0.0000 ( 12090 PWs)   bands (ev):

   -77.7311 -49.2221 -49.0362 -48.8594 -21.6330 -21.5773 -20.3427 -19.6832
   -15.4266 -15.1612 -11.9912 -11.4844 -10.7249 -10.5930 -10.5442  -9.2268
    -8.7994  -7.9570  -7.5244  -7.4215  -6.1847  -4.2805  -4.1005  -2.9406
    -2.4697  -2.1012  -1.7715   1.4406   2.0259   3.6431   4.1689   5.0152
     5.5357   5.5915   6.2060

          k = 0.4900 0.2829 0.0000 ( 12084 PWs)   bands (ev):

   -77.7311 -49.2219 -49.0362 -48.8595 -21.6369 -21.5811 -20.3427 -19.6825
   -15.4225 -15.1572 -11.9925 -11.4818 -10.7241 -10.5921 -10.5434  -9.2264
    -8.7986  -7.9586  -7.5243  -7.4227  -6.1851  -4.2797  -4.0994  -2.9399
    -2.4666  -2.1018  -1.7704   1.4421   2.0275   3.6409   4.1647   5.0153
     5.5364   5.5920   6.2058

          k = 0.4850 0.2800 0.0000 ( 12082 PWs)   bands (ev):

   -77.7311 -49.2216 -49.0361 -48.8595 -21.6432 -21.5874 -20.3426 -19.6814
   -15.4156 -15.1504 -11.9947 -11.4776 -10.7226 -10.5907 -10.5420  -9.2258
    -8.7973  -7.9613  -7.5242  -7.4246  -6.1857  -4.2782  -4.0976  -2.9387
    -2.4615  -2.1027  -1.7687   1.4446   2.0300   3.6372   4.1577   5.0154
     5.5375   5.5928   6.2053

          k = 0.4800 0.2771 0.0000 ( 12086 PWs)   bands (ev):

   -77.7312 -49.2212 -49.0360 -48.8596 -21.6520 -21.5962 -20.3425 -19.6799
   -15.4061 -15.1409 -11.9977 -11.4717 -10.7207 -10.5887 -10.5401  -9.2249
    -8.7955  -7.9650  -7.5240  -7.4274  -6.1866  -4.2761  -4.0950  -2.9370
    -2.4542  -2.1040  -1.7663   1.4480   2.0335   3.6320   4.1479   5.0154
     5.5391   5.5939   6.2047

          k = 0.4750 0.2742 0.0000 ( 12084 PWs)   bands (ev):

   -77.7313 -49.2207 -49.0359 -48.8597 -21.6633 -21.6073 -20.3425 -19.6780
   -15.3938 -15.1287 -12.0015 -11.4643 -10.7182 -10.5862 -10.5376  -9.2237
    -8.7931  -7.9698  -7.5238  -7.4309  -6.1877  -4.2734  -4.0918  -2.9350
    -2.4450  -2.1057  -1.7632   1.4524   2.0380   3.6254   4.1355   5.0154
     5.5411   5.5954   6.2038

          k = 0.4700 0.2714 0.0000 ( 12088 PWs)   bands (ev):

   -77.7313 -49.2201 -49.0358 -48.8598 -21.6769 -21.6208 -20.3426 -19.6757
   -15.3789 -15.1139 -12.0060 -11.4553 -10.7152 -10.5831 -10.5345  -9.2223
    -8.7902  -7.9755  -7.5235  -7.4352  -6.1891  -4.2701  -4.0879  -2.9325
    -2.4337  -2.1077  -1.7593   1.4578   2.0435   3.6174   4.1205   5.0153
     5.5436   5.5971   6.2028

          k = 0.4650 0.2685 0.0000 ( 12096 PWs)   bands (ev):

   -77.7314 -49.2193 -49.0356 -48.8599 -21.6929 -21.6366 -20.3428 -19.6732
   -15.3613 -15.0964 -12.0112 -11.4449 -10.7117 -10.5794 -10.5310  -9.2205
    -8.7868  -7.9822  -7.5233  -7.4402  -6.1907  -4.2663  -4.0833  -2.9298
    -2.4204  -2.1102  -1.7547   1.4641   2.0500   3.6079   4.1030   5.0149
     5.5466   5.5991   6.2015

          k = 0.4600 0.2656 0.0000 ( 12096 PWs)   bands (ev):

   -77.7315 -49.2184 -49.0354 -48.8601 -21.7110 -21.6545 -20.3432 -19.6704
   -15.3411 -15.0762 -12.0171 -11.4332 -10.7077 -10.5752 -10.5268  -9.2185
    -8.7829  -7.9898  -7.5229  -7.4460  -6.1925  -4.2618  -4.0780  -2.9267
    -2.4052  -2.1130  -1.7492   1.4714   2.0573   3.5971   4.0831   5.0143
     5.5500   5.6013   6.1999

          k = 0.4550 0.2627 0.0000 ( 12092 PWs)   bands (ev):

   -77.7317 -49.2175 -49.0352 -48.8603 -21.7312 -21.6745 -20.3439 -19.6675
   -15.3184 -15.0535 -12.0235 -11.4201 -10.7032 -10.5704 -10.5222  -9.2160
    -8.7785  -7.9982  -7.5226  -7.4525  -6.1945  -4.2568  -4.0721  -2.9235
    -2.3880  -2.1162  -1.7428   1.4796   2.0656   3.5849   4.0608   5.0133
     5.5539   5.6038   6.1981

          k = 0.4500 0.2598 0.0000 ( 12090 PWs)   bands (ev):

   -77.7318 -49.2164 -49.0349 -48.8605 -21.7534 -21.6964 -20.3450 -19.6644
   -15.2930 -15.0281 -12.0304 -11.4057 -10.6984 -10.5650 -10.5169  -9.2132
    -8.7735  -8.0074  -7.5222  -7.4597  -6.1967  -4.2513  -4.0656  -2.9201
    -2.3689  -2.1197  -1.7355   1.4888   2.0748   3.5713   4.0364   5.0119
     5.5582   5.6064   6.1960

          k = 0.4450 0.2569 0.0000 ( 12090 PWs)   bands (ev):

   -77.7320 -49.2151 -49.0346 -48.8607 -21.7776 -21.7202 -20.3464 -19.6613
   -15.2652 -15.0002 -12.0379 -11.3903 -10.6931 -10.5591 -10.5112  -9.2100
    -8.7680  -8.0173  -7.5218  -7.4677  -6.1990  -4.2451  -4.0585  -2.9166
    -2.3479  -2.1237  -1.7273   1.4988   2.0847   3.5565   4.0098   5.0100
     5.5628   5.6092   6.1936

          k = 0.4400 0.2540 0.0000 ( 12086 PWs)   bands (ev):

   -77.7321 -49.2138 -49.0343 -48.8610 -21.8035 -21.7458 -20.3484 -19.6583
   -15.2350 -14.9698 -12.0457 -11.3737 -10.6874 -10.5526 -10.5049  -9.2063
    -8.7620  -8.0279  -7.5213  -7.4764  -6.2015  -4.2385  -4.0509  -2.9131
    -2.3250  -2.1280  -1.7180   1.5098   2.0955   3.5405   3.9812   5.0077
     5.5678   5.6121   6.1908

          k = 0.4350 0.2511 0.0000 ( 12096 PWs)   bands (ev):

   -77.7323 -49.2124 -49.0340 -48.8612 -21.8311 -21.7730 -20.3508 -19.6553
   -15.2023 -14.9370 -12.0540 -11.3561 -10.6815 -10.5456 -10.4981  -9.2021
    -8.7556  -8.0391  -7.5209  -7.4858  -6.2041  -4.2312  -4.0427  -2.9096
    -2.3003  -2.1326  -1.7077   1.5216   2.1069   3.5233   3.9508   5.0049
     5.5730   5.6151   6.1875

          k = 0.4300 0.2483 0.0000 ( 12094 PWs)   bands (ev):

   -77.7325 -49.2109 -49.0336 -48.8615 -21.8602 -21.8017 -20.3538 -19.6524
   -15.1673 -14.9016 -12.0626 -11.3375 -10.6752 -10.5381 -10.4907  -9.1974
    -8.7486  -8.0509  -7.5204  -7.4958  -6.2067  -4.2235  -4.0340  -2.9064
    -2.2739  -2.1377  -1.6962   1.5342   2.1191   3.5050   3.9186   5.0015
     5.5784   5.6181   6.1839

          k = 0.4250 0.2454 0.0000 ( 12090 PWs)   bands (ev):

   -77.7327 -49.2092 -49.0332 -48.8618 -21.8908 -21.8319 -20.3575 -19.6498
   -15.1301 -14.8639 -12.0716 -11.3180 -10.6687 -10.5300 -10.4828  -9.1922
    -8.7411  -8.0631  -7.5198  -7.5065  -6.2095  -4.2152  -4.0248  -2.9033
    -2.2458  -2.1432  -1.6835   1.5477   2.1319   3.4857   3.8847   4.9977
     5.5839   5.6211   6.1798

          k = 0.4200 0.2425 0.0000 ( 12100 PWs)   bands (ev):

   -77.7330 -49.2075 -49.0328 -48.8621 -21.9228 -21.8634 -20.3618 -19.6473
   -15.0906 -14.8239 -12.0809 -11.2977 -10.6619 -10.5214 -10.4744  -9.1863
    -8.7331  -8.0758  -7.5192  -7.5179  -6.2122  -4.2064  -4.0152  -2.9006
    -2.2160  -2.1490  -1.6696   1.5620   2.1452   3.4654   3.8493   4.9933
     5.5893   5.6240   6.1751

          k = 0.4150 0.2396 0.0000 ( 12098 PWs)   bands (ev):

   -77.7332 -49.2056 -49.0324 -48.8625 -21.9560 -21.8961 -20.3668 -19.6452
   -15.0490 -14.7815 -12.0904 -11.2767 -10.6550 -10.5122 -10.4655  -9.1798
    -8.7246  -8.0888  -7.5298  -7.5186  -6.2149  -4.1971  -4.0051  -2.8982
    -2.1845  -2.1552  -1.6544   1.5770   2.1589   3.4443   3.8124   4.9884
     5.5946   5.6267   6.1699

          k = 0.4100 0.2367 0.0000 ( 12086 PWs)   bands (ev):

   -77.7334 -49.2036 -49.0320 -48.8628 -21.9903 -21.9299 -20.3725 -19.6434
   -15.0054 -14.7369 -12.1002 -11.2549 -10.6478 -10.5025 -10.4560  -9.1727
    -8.7157  -8.1022  -7.5424  -7.5179  -6.2176  -4.1873  -3.9947  -2.8963
    -2.1617  -2.1515  -1.6378   1.5927   2.1730   3.4224   3.7743   4.9829
     5.5997   5.6292   6.1640

          k = 0.4050 0.2338 0.0000 ( 12086 PWs)   bands (ev):

   -77.7337 -49.2016 -49.0315 -48.8632 -22.0257 -21.9648 -20.3789 -19.6420
   -14.9597 -14.6900 -12.1102 -11.2324 -10.6406 -10.4923 -10.4461  -9.1648
    -8.7062  -8.1158  -7.5556  -7.5171  -6.2201  -4.1770  -3.9839  -2.8950
    -2.1687  -2.1170  -1.6199   1.6090   2.1874   3.3999   3.7350   4.9769
     5.6045   5.6315   6.1574

          k = 0.4000 0.2309 0.0000 ( 12070 PWs)   bands (ev):

   -77.7340 -49.1994 -49.0310 -48.8636 -22.0620 -22.0005 -20.3862 -19.6409
   -14.9122 -14.6411 -12.1205 -11.2093 -10.6333 -10.4816 -10.4357  -9.1561
    -8.6963  -8.1297  -7.5693  -7.5162  -6.2226  -4.1663  -3.9727  -2.8942
    -2.1760  -2.0810  -1.6005   1.6260   2.2019   3.3768   3.6946   4.9704
     5.6088   5.6334   6.1500

          k = 0.3950 0.2281 0.0000 ( 12076 PWs)   bands (ev):

   -77.7343 -49.1972 -49.0305 -48.8640 -22.0992 -22.0372 -20.3941 -19.6403
   -14.8628 -14.5900 -12.1309 -11.1858 -10.6259 -10.4704 -10.4247  -9.1467
    -8.6859  -8.1437  -7.5836  -7.5152  -6.2248  -4.1550  -3.9613  -2.8940
    -2.1838  -2.0436  -1.5796   1.6435   2.2163   3.3534   3.6533   4.9633
     5.6124   5.6348   6.1419

          k = 0.3900 0.2252 0.0000 ( 12084 PWs)   bands (ev):

   -77.7346 -49.1948 -49.0299 -48.8645 -22.1371 -22.0746 -20.4029 -19.6402
   -14.8118 -14.5369 -12.1414 -11.1617 -10.6184 -10.4587 -10.4133  -9.1364
    -8.6750  -8.1579  -7.5984  -7.5141  -6.2269  -4.1434  -3.9496  -2.8946
    -2.1919  -2.0048  -1.5573   1.6615   2.2306   3.3298   3.6111   4.9556
     5.6154   5.6357   6.1328

          k = 0.3850 0.2223 0.0000 ( 12084 PWs)   bands (ev):

   -77.7349 -49.1924 -49.0293 -48.8649 -22.1757 -22.1126 -20.4124 -19.6405
   -14.7591 -14.4818 -12.1521 -11.1373 -10.6108 -10.4465 -10.4014  -9.1252
    -8.6637  -8.1722  -7.6137  -7.5129  -6.2287  -4.1313  -3.9377  -2.8959
    -2.2003  -1.9648  -1.5335   1.6799   2.2445   3.3061   3.5682   4.9473
     5.6175   5.6360   6.1227

          k = 0.3800 0.2194 0.0000 ( 12090 PWs)   bands (ev):

   -77.7352 -49.1899 -49.0288 -48.8654 -22.2150 -22.1513 -20.4227 -19.6413
   -14.7048 -14.4248 -12.1629 -11.1126 -10.6032 -10.4338 -10.3890  -9.1131
    -8.6519  -8.1865  -7.6295  -7.5115  -6.2301  -4.1188  -3.9255  -2.8980
    -2.2092  -1.9235  -1.5082   1.6986   2.2579   3.2826   3.5248   4.9383
     5.6186   5.6356   6.1116

          k = 0.3750 0.2165 0.0000 ( 12076 PWs)   bands (ev):

   -77.7355 -49.1873 -49.0282 -48.8659 -22.2547 -22.1905 -20.4338 -19.6426
   -14.6492 -14.3659 -12.1737 -11.0876 -10.5955 -10.4206 -10.3761  -9.1001
    -8.6397  -8.2009  -7.6458  -7.5099  -6.2312  -4.1059  -3.9131  -2.9009
    -2.2184  -1.8810  -1.4813   1.7175   2.2706   3.2594   3.4810   4.9285
     5.6185   5.6343   6.0993

          k = 0.3700 0.2136 0.0000 ( 12086 PWs)   bands (ev):

   -77.7359 -49.1846 -49.0275 -48.8664 -22.2949 -22.2302 -20.4456 -19.6444
   -14.5922 -14.3052 -12.1845 -11.0625 -10.5877 -10.4069 -10.3628  -9.0862
    -8.6271  -8.2153  -7.6625  -7.5082  -6.2319  -4.0925  -3.9006  -2.9045
    -2.2280  -1.8373  -1.4530   1.7365   2.2822   3.2368   3.4368   4.9180
     5.6172   5.6322   6.0858

          k = 0.3650 0.2107 0.0000 ( 12086 PWs)   bands (ev):

   -77.7362 -49.1818 -49.0269 -48.8669 -22.3356 -22.2702 -20.4582 -19.6468
   -14.5340 -14.2427 -12.1953 -11.0374 -10.5797 -10.3928 -10.3490  -9.0713
    -8.6140  -8.2297  -7.6796  -7.5063  -6.2322  -4.0788  -3.8880  -2.9090
    -2.2380  -1.7926  -1.4232   1.7556   2.2925   3.2150   3.3925   4.9065
     5.6143   5.6290   6.0710

          k = 0.3600 0.2078 0.0000 ( 12084 PWs)   bands (ev):

   -77.7366 -49.1790 -49.0262 -48.8674 -22.3765 -22.3106 -20.4714 -19.6496
   -14.4748 -14.1786 -12.2059 -11.0125 -10.5714 -10.3782 -10.3348  -9.0554
    -8.6005  -8.2441  -7.6971  -7.5042  -6.2319  -4.0648  -3.8753  -2.9143
    -2.2484  -1.7469  -1.3919   1.7745   2.3013   3.1943   3.3483   4.8940
     5.6098   5.6247   6.0373

          k = 0.3550 0.2050 0.0000 ( 12082 PWs)   bands (ev):

   -77.7370 -49.1760 -49.0255 -48.8679 -22.4177 -22.3513 -20.4854 -19.6529
   -14.4146 -14.1128 -12.2164 -10.9878 -10.5629 -10.3632 -10.3201  -9.0385
    -8.5865  -8.2584  -7.7150  -7.5019  -6.2311  -4.0503  -3.8625  -2.9205
    -2.2591  -1.7001  -1.3592   1.7931   2.3083   3.1747   3.3043   4.8803
     5.6034   5.6191   6.0012

          k = 0.3500 0.2021 0.0000 ( 12086 PWs)   bands (ev):

   -77.7374 -49.1730 -49.0249 -48.8685 -22.4591 -22.3922 -20.5000 -19.6567
   -14.3537 -14.0455 -12.2265 -10.9636 -10.5538 -10.3477 -10.3050  -9.0207
    -8.5722  -8.2727  -7.7333  -7.4994  -6.2297  -4.0356  -3.8496  -2.9274
    -2.2702  -1.6525  -1.3251   1.8112   2.3132   3.1565   3.2609   4.8654
     5.5950   5.6121   5.9647

          k = 0.3450 0.1992 0.0000 ( 12088 PWs)   bands (ev):

   -77.7378 -49.1699 -49.0241 -48.8691 -22.5007 -22.4332 -20.5152 -19.6609
   -14.2921 -13.9767 -12.2363 -10.9400 -10.5441 -10.3318 -10.2895  -9.0019
    -8.5575  -8.2868  -7.7518  -7.4966  -6.2276  -4.0205  -3.8367  -2.9351
    -2.2817  -1.6039  -1.2897   1.8287   2.3157   3.1394   3.2186   4.8491
     5.5842   5.6036   5.9280

          k = 0.3400 0.1963 0.0000 ( 12092 PWs)   bands (ev):

   -77.7382 -49.1668 -49.0234 -48.8696 -22.5424 -22.4743 -20.5311 -19.6657
   -14.2301 -13.9064 -12.2455 -10.9173 -10.5336 -10.3155 -10.2736  -8.9821
    -8.5423  -8.3009  -7.7707  -7.4936  -6.2249  -4.0051  -3.8237  -2.9435
    -2.2936  -1.5546  -1.2530   1.8453   2.3156   3.1226   3.1787   4.8312
     5.5710   5.5936   5.8912

          k = 0.3350 0.1934 0.0000 ( 12082 PWs)   bands (ev):

   -77.7386 -49.1636 -49.0227 -48.8702 -22.5842 -22.5155 -20.5476 -19.6709
   -14.1679 -13.8348 -12.2542 -10.8956 -10.5221 -10.2987 -10.2572  -8.9615
    -8.5269  -8.3149  -7.7898  -7.4904  -6.2215  -3.9894  -3.8108  -2.9527
    -2.3058  -1.5045  -1.2151   1.8609   2.3127   3.1027   3.1449   4.8116
     5.5550   5.5818   5.8545

          k = 0.3300 0.1905 0.0000 ( 12088 PWs)   bands (ev):

   -77.7390 -49.1603 -49.0219 -48.8708 -22.6259 -22.5568 -20.5646 -19.6765
   -14.1056 -13.7618 -12.2620 -10.8753 -10.5093 -10.2816 -10.2405  -8.9399
    -8.5110  -8.3287  -7.8092  -7.4868  -6.2173  -3.9734  -3.7979  -2.9626
    -2.3184  -1.4536  -1.1760   1.8751   2.3070   3.0738   3.1234   4.7901
     5.5363   5.5681   5.8180

          k = 0.3250 0.1876 0.0000 ( 12088 PWs)   bands (ev):

   -77.7394 -49.1570 -49.0211 -48.8714 -22.6676 -22.5980 -20.5821 -19.6826
   -14.0435 -13.6876 -12.2688 -10.8566 -10.4951 -10.2641 -10.2234  -8.9175
    -8.4948  -8.3424  -7.8288  -7.4830  -6.2123  -3.9572  -3.7851  -2.9731
    -2.3313  -1.4021  -1.1358   1.8876   2.2984   3.0384   3.1117   4.7667
     5.5145   5.5525   5.7819

          k = 0.3200 0.1848 0.0000 ( 12096 PWs)   bands (ev):

   -77.7399 -49.1536 -49.0204 -48.8720 -22.7093 -22.6391 -20.6001 -19.6891
   -13.9818 -13.6122 -12.2744 -10.8397 -10.4793 -10.2462 -10.2060  -8.8944
    -8.4782  -8.3560  -7.8486  -7.4789  -6.2065  -3.9407  -3.7724  -2.9842
    -2.3446  -1.3500  -1.0945   1.8982   2.2869   3.0015   3.1050   4.7411
     5.4897   5.5349   5.7463

          k = 0.3150 0.1819 0.0000 ( 12090 PWs)   bands (ev):

   -77.7403 -49.1502 -49.0196 -48.8727 -22.7508 -22.6801 -20.6186 -19.6959
   -13.9209 -13.5356 -12.2786 -10.8248 -10.4616 -10.2280 -10.1881  -8.8705
    -8.4613  -8.3694  -7.8686  -7.4745  -6.1999  -3.9240  -3.7597  -2.9959
    -2.3582  -1.2974  -1.0523   1.9066   2.2728   2.9654   3.1013   4.7132
     5.4620   5.5151   5.7115

          k = 0.3100 0.1790 0.0000 ( 12088 PWs)   bands (ev):

   -77.7407 -49.1467 -49.0188 -48.8733 -22.7922 -22.7210 -20.6374 -19.7031
   -13.8610 -13.4580 -12.2810 -10.8119 -10.4421 -10.2094 -10.1700  -8.8460
    -8.4441  -8.3825  -7.8887  -7.4698  -6.1924  -3.9070  -3.7471  -3.0082
    -2.3722  -1.2442  -1.0092   1.9123   2.2561   2.9308   3.0996   4.6830
     5.4314   5.4931   5.6773

          k = 0.3050 0.1761 0.0000 ( 12079 PWs)   bands (ev):

   -77.7412 -49.1432 -49.0180 -48.8740 -22.8334 -22.7616 -20.6567 -19.7107
   -13.8026 -13.3793 -12.2814 -10.8010 -10.4206 -10.1905 -10.1514  -8.8210
    -8.4266  -8.3954  -7.9090  -7.4648  -6.1840  -3.8898  -3.7347  -3.0209
    -2.3865  -1.1906  -0.9653   1.9152   2.2371   2.8981   3.0995   4.6503
     5.3984   5.4689   5.6438

          k = 0.3000 0.1732 0.0000 ( 12087 PWs)   bands (ev):

   -77.7416 -49.1396 -49.0171 -48.8746 -22.8744 -22.8021 -20.6764 -19.7186
   -13.7460 -13.2997 -12.2794 -10.7923 -10.3972 -10.1713 -10.1326  -8.7957
    -8.4089  -8.4079  -7.9293  -7.4595  -6.1747  -3.8725  -3.7223  -3.0340
    -2.4012  -1.1366  -0.9206   1.9150   2.2160   2.8677   3.1005   4.6151
     5.3632   5.4423   5.6110

          k = 0.2950 0.1703 0.0000 ( 12079 PWs)   bands (ev):

   -77.7421 -49.1360 -49.0163 -48.8753 -22.9151 -22.8423 -20.6963 -19.7268
   -13.6916 -13.2192 -12.2746 -10.7855 -10.3721 -10.1517 -10.1135  -8.7701
    -8.4199  -8.3909  -7.9497  -7.4538  -6.1645  -3.8550  -3.7102  -3.0475
    -2.4162  -1.0823  -0.8754   1.9113   2.1932   2.8399   3.1022   4.5773
     5.3261   5.4133   5.5787

          k = 0.2900 0.1674 0.0000 ( 12085 PWs)   bands (ev):

   -77.7426 -49.1324 -49.0155 -48.8759 -22.9556 -22.8823 -20.7166 -19.7353
   -13.6400 -13.1378 -12.2667 -10.7805 -10.3453 -10.1319 -10.0940  -8.7446
    -8.4313  -8.3726  -7.9702  -7.4478  -6.1534  -3.8373  -3.6982  -3.0613
    -2.4315  -1.0278  -0.8295   1.9042   2.1686   2.8148   3.1041   4.5371
     5.2878   5.3820   5.5471

          k = 0.2850 0.1645 0.0000 ( 12079 PWs)   bands (ev):

   -77.7430 -49.1287 -49.0146 -48.8766 -22.9957 -22.9219 -20.7371 -19.7441
   -13.5914 -13.0556 -12.2551 -10.7772 -10.3170 -10.1118 -10.0743  -8.7195
    -8.4417  -8.3542  -7.9906  -7.4415  -6.1414  -3.8195  -3.6863  -3.0754
    -2.4472  -0.9731  -0.7833   1.8936   2.1426   2.7924   3.1060   4.4943
     5.2484   5.3483   5.5160

          k = 0.2800 0.1617 0.0000 ( 12077 PWs)   bands (ev):

   -77.7435 -49.1250 -49.0138 -48.8773 -23.0355 -22.9612 -20.7578 -19.7531
   -13.5464 -12.9728 -12.2395 -10.7754 -10.2873 -10.0914 -10.0544  -8.6952
    -8.4508  -8.3356  -8.0109  -7.4349  -6.1284  -3.8015  -3.6746  -3.0898
    -2.4631  -0.9184  -0.7367   1.8796   2.1153   2.7729   3.1073   4.4491
     5.2085   5.3122   5.4855

          k = 0.2750 0.1588 0.0000 ( 12073 PWs)   bands (ev):

   -77.7440 -49.1213 -49.0129 -48.8780 -23.0749 -23.0002 -20.7788 -19.7623
   -13.5054 -12.8892 -12.2195 -10.7749 -10.2565 -10.0708 -10.0341  -8.6726
    -8.4579  -8.3169  -8.0311  -7.4279  -6.1146  -3.7835  -3.6631  -3.1043
    -2.4793  -0.8637  -0.6899   1.8624   2.0868   2.7561   3.1078   4.4015
     5.1683   5.2738   5.4555

          k = 0.2700 0.1559 0.0000 ( 12061 PWs)   bands (ev):

   -77.7444 -49.1175 -49.0120 -48.8787 -23.1140 -23.0387 -20.7999 -19.7718
   -13.4686 -12.8051 -12.1948 -10.7755 -10.2246 -10.0500 -10.0137  -8.6526
    -8.4620  -8.2982  -8.0510  -7.4206  -6.0999  -3.7653  -3.6518  -3.1189
    -2.4959  -0.8091  -0.6431   1.8424   2.0572   2.7417   3.1072   4.3517
     5.1282   5.2332   5.4261

          k = 0.2650 0.1530 0.0000 ( 12059 PWs)   bands (ev):

   -77.7449 -49.1137 -49.0112 -48.8793 -23.1526 -23.0769 -20.8211 -19.7814
   -13.4364 -12.7204 -12.1653 -10.7772 -10.1918 -10.0289  -9.9930  -8.6367
    -8.4617  -8.2797  -8.0706  -7.4129  -6.0843  -3.7471  -3.6408  -3.1335
    -2.5127  -0.7547  -0.5963   1.8201   2.0267   2.7294   3.1051   4.2997
     5.0884   5.1904   5.3943

          k = 0.2600 0.1501 0.0000 ( 12055 PWs)   bands (ev):

   -77.7454 -49.1100 -49.0103 -48.8800 -23.1908 -23.1146 -20.8424 -19.7912
   -13.4089 -12.6353 -12.1307 -10.7797 -10.1583 -10.0077  -9.9721  -8.6262
    -8.4559  -8.2616  -8.0895  -7.4050  -6.0678  -3.7288  -3.6299  -3.1482
    -2.5297  -0.7008  -0.5496   1.7957   1.9953   2.7189   3.1014   4.2458
     5.0492   5.1455   5.3403

          k = 0.2550 0.1472 0.0000 ( 12051 PWs)   bands (ev):

   -77.7459 -49.1062 -49.0094 -48.8807 -23.2286 -23.1519 -20.8638 -19.8011
   -13.3861 -12.5497 -12.0912 -10.7830 -10.1241  -9.9863  -9.9510  -8.6216
    -8.4440  -8.2444  -8.1072  -7.3967  -6.0505  -3.7105  -3.6192  -3.1628
    -2.5471  -0.6473  -0.5034   1.7699   1.9633   2.7099   3.0958   4.1901
     5.0108   5.0986   5.2848

          k = 0.2500 0.1443 0.0000 ( 12063 PWs)   bands (ev):

   -77.7464 -49.1024 -49.0086 -48.8814 -23.2658 -23.1887 -20.8853 -19.8111
   -13.3678 -12.4639 -12.0468 -10.7869 -10.0893  -9.9648  -9.9297  -8.6223
    -8.4267  -8.2293  -8.1227  -7.3880  -6.0325  -3.6921  -3.6087  -3.1773
    -2.5647  -0.5946  -0.4577   1.7431   1.9310   2.7019   3.0882   4.1326
     4.9732   5.0499   5.2280

          k = 0.2450 0.1415 0.0000 ( 12061 PWs)   bands (ev):

   -77.7468 -49.0986 -49.0077 -48.8821 -23.3026 -23.2250 -20.9068 -19.8213
   -13.3539 -12.3777 -11.9979 -10.7914 -10.0541  -9.9431  -9.9083  -8.6271
    -8.4053  -8.2187  -8.1333  -7.3791  -6.0137  -3.6738  -3.5984  -3.1917
    -2.5825  -0.5428  -0.4127   1.7157   1.8984   2.6946   3.0784   4.0738
     4.9367   4.9995   5.1699

          k = 0.2400 0.1386 0.0000 ( 12061 PWs)   bands (ev):

   -77.7473 -49.0948 -49.0068 -48.8828 -23.3389 -23.2608 -20.9282 -19.8315
   -13.3440 -12.2913 -11.9447 -10.7963 -10.0184  -9.9213  -9.8868  -8.6348
    -8.3811  -8.2165  -8.1352  -7.3699  -5.9942  -3.6554  -3.5883  -3.2058
    -2.6005  -0.4921  -0.3687   1.6883   1.8660   2.6876   3.0665   4.0135
     4.9012   4.9475   5.1108

          k = 0.2350 0.1357 0.0000 ( 12069 PWs)   bands (ev):

   -77.7478 -49.0910 -49.0059 -48.8835 -23.3746 -23.2961 -20.9496 -19.8418
   -13.3378 -12.2049 -11.8877 -10.8015  -9.9824  -9.8995  -9.8651  -8.6443
    -8.3551  -8.2239  -8.1274  -7.3604  -5.9740  -3.6371  -3.5785  -3.2196
    -2.6187  -0.4429  -0.3258   1.6612   1.8341   2.6806   3.0523   3.9522
     4.8668   4.8941   5.0506

          k = 0.2300 0.1328 0.0000 ( 12073 PWs)   bands (ev):

   -77.7483 -49.0873 -49.0051 -48.8842 -23.4098 -23.3308 -20.9710 -19.8521
   -13.3349 -12.1184 -11.8271 -10.8071  -9.9461  -9.8775  -9.8434  -8.6552
    -8.3280  -8.2373  -8.1132  -7.3507  -5.9532  -3.6189  -3.5688  -3.2331
    -2.6371  -0.3953  -0.2843   1.6350   1.8029   2.6733   3.0358   3.8898
     4.8334   4.8394   4.9897

          k = 0.2250 0.1299 0.0000 ( 12089 PWs)   bands (ev):

   -77.7487 -49.0835 -49.0042 -48.8848 -23.4444 -23.3650 -20.9922 -19.8625
   -13.3349 -12.0319 -11.7636 -10.8127  -9.9096  -9.8556  -9.8215  -8.6669
    -8.3003  -8.2535  -8.0960  -7.3407  -5.9319  -3.6007  -3.5594  -3.2461
    -2.6557  -0.3498  -0.2445   1.6100   1.7728   2.6656   3.0171   3.8267
     4.7836   4.8011   4.9280

          k = 0.2200 0.1270 0.0000 ( 12085 PWs)   bands (ev):

   -77.7492 -49.0797 -49.0034 -48.8855 -23.4784 -23.3986 -21.0134 -19.8728
   -13.3375 -11.9457 -11.6973 -10.8184  -9.8729  -9.8336  -9.7996  -8.6792
    -8.2722  -8.2711  -8.0772  -7.3306  -5.9100  -3.5825  -3.5502  -3.2587
    -2.6745  -0.3068  -0.2066   1.5868   1.7441   2.6573   2.9964   3.7628
     4.7268   4.7698   4.8659

          k = 0.2150 0.1241 0.0000 ( 12089 PWs)   bands (ev):

   -77.7497 -49.0760 -49.0025 -48.8862 -23.5119 -23.4316 -21.0343 -19.8832
   -13.3424 -11.8597 -11.6288 -10.8241  -9.8361  -9.8116  -9.7777  -8.6919
    -8.2891  -8.2440  -8.0576  -7.3202  -5.8877  -3.5645  -3.5411  -3.2708
    -2.6934  -0.2667  -0.1708   1.5657   1.7174   2.6481   2.9736   3.6985
     4.6692   4.7392   4.8033

          k = 0.2100 0.1212 0.0000 ( 12087 PWs)   bands (ev):

   -77.7502 -49.0723 -49.0017 -48.8869 -23.5447 -23.4641 -21.0552 -19.8935
   -13.3492 -11.7742 -11.5584 -10.8296  -9.7993  -9.7896  -9.7558  -8.7049
    -8.3074  -8.2158  -8.0375  -7.3098  -5.8650  -3.5466  -3.5323  -3.2822
    -2.7124  -0.2301  -0.1373   1.5473   1.6929   2.6381   2.9490   3.6339
     4.6110   4.7094   4.7405

          k = 0.2050 0.1184 0.0000 ( 12095 PWs)   bands (ev):

   -77.7506 -49.0686 -49.0008 -48.8875 -23.5769 -23.4959 -21.0758 -19.9038
   -13.3576 -11.6894 -11.4863 -10.8346  -9.7677  -9.7624  -9.7338  -8.7181
    -8.3257  -8.1878  -8.0172  -7.2992  -5.8420  -3.5289  -3.5237  -3.2930
    -2.7315  -0.1975  -0.1065   1.5320   1.6710   2.6272   2.9227   3.5690
     4.5523   4.6775   4.6803

          k = 0.2000 0.1155 0.0000 ( 12111 PWs)   bands (ev):

   -77.7511 -49.0650 -49.0000 -48.8882 -23.6085 -23.5270 -21.0962 -19.9141
   -13.3674 -11.6054 -11.4130 -10.8391  -9.7458  -9.7256  -9.7119  -8.7315
    -8.3440  -8.1601  -7.9967  -7.2886  -5.8187  -3.5153  -3.5112  -3.3030
    -2.7506  -0.1695  -0.0785   1.5202   1.6524   2.6153   2.8949   3.5041
     4.4933   4.6145   4.6515

          k = 0.1950 0.1126 0.0000 ( 12103 PWs)   bands (ev):

   -77.7515 -49.0614 -48.9991 -48.8889 -23.6394 -23.5576 -21.1164 -19.9243
   -13.3784 -11.5227 -11.3386 -10.8426  -9.7241  -9.6901  -9.6889  -8.7449
    -8.3621  -8.1327  -7.9761  -7.2780  -5.7951  -3.5072  -3.4938  -3.3122
    -2.7699  -0.1465  -0.0537   1.5122   1.6373   2.6025   2.8658   3.4393
     4.4340   4.5516   4.6230

          k = 0.1900 0.1097 0.0000 ( 12107 PWs)   bands (ev):

   -77.7520 -49.0578 -48.9983 -48.8895 -23.6697 -23.5875 -21.1364 -19.9343
   -13.3904 -11.4417 -11.2635 -10.8447  -9.7025  -9.6683  -9.6522  -8.7583
    -8.3800  -8.1057  -7.9555  -7.2675  -5.7715  -3.4992  -3.4766  -3.3206
    -2.7892  -0.1289  -0.0323   1.5084   1.6261   2.5887   2.8356   3.3748
     4.3747   4.4890   4.5947

          k = 0.1850 0.1068 0.0000 ( 12103 PWs)   bands (ev):

   -77.7524 -49.0543 -48.9975 -48.8901 -23.6993 -23.6167 -21.1560 -19.9443
   -13.4031 -11.3632 -11.1878 -10.8446  -9.6810  -9.6466  -9.6158  -8.7717
    -8.3976  -8.0791  -7.9348  -7.2570  -5.7478  -3.4916  -3.4595  -3.3279
    -2.8085  -0.1170  -0.0146   1.5090   1.6194   2.5741   2.8045   3.3107
     4.3155   4.4268   4.5665

          k = 0.1800 0.1039 0.0000 ( 12103 PWs)   bands (ev):

   -77.7529 -49.0508 -48.9967 -48.8908 -23.7282 -23.6452 -21.1754 -19.9542
   -13.4165 -11.2884 -11.1120 -10.8411  -9.6597  -9.6250  -9.5795  -8.7851
    -8.4150  -8.0531  -7.9143  -7.2468  -5.7240  -3.4842  -3.4427  -3.3342
    -2.8277  -0.1107  -0.0011   1.5140   1.6173   2.5586   2.7727   3.2472
     4.2566   4.3650   4.5382

          k = 0.1750 0.1010 0.0000 ( 12107 PWs)   bands (ev):

   -77.7533 -49.0474 -48.9959 -48.8914 -23.7565 -23.6731 -21.1944 -19.9639
   -13.4304 -11.2191 -11.0362 -10.8323  -9.6386  -9.6036  -9.5435  -8.7983
    -8.4321  -8.0275  -7.8938  -7.2368  -5.7004  -3.4772  -3.4261  -3.3393
    -2.8470  -0.1101   0.0080   1.5235   1.6201   2.5423   2.7404   3.1844
     4.1979   4.3038   4.5096

          k = 0.1700 0.0981 0.0000 ( 12109 PWs)   bands (ev):

   -77.7537 -49.0440 -48.9952 -48.8920 -23.7840 -23.7003 -21.2131 -19.9736
   -13.4447 -11.1580 -10.9609 -10.8152  -9.6177  -9.5824  -9.5077  -8.8115
    -8.4489  -8.0025  -7.8735  -7.2271  -5.6768  -3.4705  -3.4098  -3.3432
    -2.8661  -0.1150   0.0124   1.5373   1.6279   2.5254   2.7078   3.1226
     4.1397   4.2433   4.4807

          k = 0.1650 0.0953 0.0000 ( 12113 PWs)   bands (ev):

   -77.7541 -49.0407 -48.9944 -48.8926 -23.8108 -23.7268 -21.2315 -19.9830
   -13.4592 -11.1085 -10.8865 -10.7864  -9.5971  -9.5613  -9.4724  -8.8245
    -8.4653  -7.9781  -7.8533  -7.2178  -5.6535  -3.4643  -3.3938  -3.3458
    -2.8852  -0.1250   0.0122   1.5551   1.6406   2.5079   2.6751   3.0619
     4.0821   4.1835   4.4515

          k = 0.1600 0.0924 0.0000 ( 12117 PWs)   bands (ev):

   -77.7545 -49.0374 -48.9937 -48.8932 -23.8369 -23.7525 -21.2495 -19.9923
   -13.4740 -11.0726 -10.8135 -10.7435  -9.5768  -9.5405  -9.4373  -8.8374
    -8.4814  -7.9543  -7.8333  -7.2090  -5.6305  -3.4584  -3.3781  -3.3469
    -2.9042  -0.1398   0.0072   1.5768   1.6581   2.4899   2.6424   3.0026
     4.0252   4.1246   4.4218

          k = 0.1550 0.0895 0.0000 ( 12117 PWs)   bands (ev):

   -77.7549 -49.0342 -48.9929 -48.8938 -23.8623 -23.7776 -21.2671 -20.0014
   -13.4888 -11.0496 -10.7420 -10.6873  -9.5567  -9.5200  -9.4028  -8.8501
    -8.4971  -7.9310  -7.8135  -7.2006  -5.6077  -3.4530  -3.3627  -3.3466
    -2.9230  -0.1591  -0.0023   1.6018   1.6801   2.4714   2.6101   2.9450
     3.9691   4.0667   4.3916

          k = 0.1500 0.0866 0.0000 ( 12119 PWs)   bands (ev):

   -77.7553 -49.0311 -48.9922 -48.8943 -23.8870 -23.8019 -21.2843 -20.0104
   -13.5037 -11.0365 -10.6711 -10.6219  -9.5370  -9.4997  -9.3687  -8.8626
    -8.5123  -7.9083  -7.7939  -7.1929  -5.5854  -3.4479  -3.3476  -3.3449
    -2.9416  -0.1823  -0.0161   1.6299   1.7061   2.4525   2.5782   2.8894
     3.9138   4.0099   4.3608

          k = 0.1450 0.0837 0.0000 ( 12115 PWs)   bands (ev):

   -77.7557 -49.0281 -48.9915 -48.8949 -23.9109 -23.8255 -21.3011 -20.0191
   -13.5185 -11.0299 -10.5999 -10.5518  -9.5176  -9.4797  -9.3351  -8.8749
    -8.5272  -7.8862  -7.7746  -7.1858  -5.5636  -3.4432  -3.3418  -3.3329
    -2.9601  -0.2090  -0.0338   1.6604   1.7356   2.4330   2.5470   2.8363
     3.8596   3.9542   4.3295

          k = 0.1400 0.0808 0.0000 ( 12121 PWs)   bands (ev):

   -77.7561 -49.0251 -48.9908 -48.8954 -23.9340 -23.8484 -21.3174 -20.0276
   -13.5333 -11.0276 -10.5282 -10.4797  -9.4987  -9.4601  -9.3021  -8.8868
    -8.5417  -7.8646  -7.7556  -7.1794  -5.5423  -3.4387  -3.3374  -3.3185
    -2.9782  -0.2388  -0.0551   1.6930   1.7679   2.4129   2.5169   2.7860
     3.8064   3.8997   4.2976

          k = 0.1350 0.0779 0.0000 ( 12123 PWs)   bands (ev):

   -77.7564 -49.0221 -48.9902 -48.8959 -23.9564 -23.8705 -21.3333 -20.0360
   -13.5479 -11.0279 -10.4565 -10.4068  -9.4801  -9.4409  -9.2698  -8.8985
    -8.5557  -7.8436  -7.7370  -7.1738  -5.5215  -3.4343  -3.3318  -3.3046
    -2.9961  -0.2712  -0.0796   1.7270   1.8022   2.3918   2.4883   2.7393
     3.7544   3.8465   4.2651

          k = 0.1300 0.0751 0.0000 ( 12135 PWs)   bands (ev):

   -77.7568 -49.0193 -48.9895 -48.8964 -23.9781 -23.8918 -21.3488 -20.0440
   -13.5622 -11.0299 -10.3852 -10.3341  -9.4620  -9.4220  -9.2382  -8.9099
    -8.5693  -7.8232  -7.7186  -7.1691  -5.5014  -3.4298  -3.3252  -3.2911
    -3.0137  -0.3059  -0.1068   1.7619   1.8378   2.3692   2.4619   2.6968
     3.7036   3.7946   4.2321

          k = 0.1250 0.0722 0.0000 ( 12139 PWs)   bands (ev):

   -77.7571 -49.0166 -48.9889 -48.8969 -23.9990 -23.9124 -21.3638 -20.0519
   -13.5764 -11.0330 -10.3146 -10.2617  -9.4443  -9.4036  -9.2075  -8.9208
    -8.5824  -7.8033  -7.7007  -7.1652  -5.4820  -3.4252  -3.3176  -3.2780
    -3.0309  -0.3423  -0.1363   1.7968   1.8737   2.3446   2.4386   2.6595
     3.6542   3.7442   4.1986

          k = 0.1200 0.0693 0.0000 ( 12149 PWs)   bands (ev):

   -77.7575 -49.0139 -48.9883 -48.8974 -24.0191 -23.9323 -21.3782 -20.0595
   -13.5902 -11.0369 -10.2451 -10.1901  -9.4271  -9.3856  -9.1776  -8.9312
    -8.5951  -7.7839  -7.6832  -7.1623  -5.4634  -3.4204  -3.3092  -3.2654
    -3.0477  -0.3803  -0.1677   1.8311   1.9090   2.3174   2.4193   2.6282
     3.6061   3.6953   4.1645

          k = 0.1150 0.0664 0.0000 ( 12151 PWs)   bands (ev):

   -77.7578 -49.0113 -48.9877 -48.8979 -24.0384 -23.9513 -21.3922 -20.0669
   -13.6037 -11.0412 -10.1770 -10.1194  -9.4104  -9.3681  -9.1490  -8.9410
    -8.6073  -7.7649  -7.6661  -7.1604  -5.4455  -3.4152  -3.3001  -3.2533
    -3.0641  -0.4194  -0.2006   1.8639   1.9425   2.2876   2.4048   2.6038
     3.5595   3.6479   4.1301

          k = 0.1100 0.0635 0.0000 ( 12157 PWs)   bands (ev):

   -77.7581 -49.0088 -48.9871 -48.8983 -24.0569 -23.9696 -21.4057 -20.0740
   -13.6168 -11.0457 -10.1103 -10.0499  -9.3942  -9.3511  -9.1217  -8.9499
    -8.6190  -7.7465  -7.6495  -7.1595  -5.4284  -3.4097  -3.2905  -3.2418
    -3.0799  -0.4592  -0.2347   1.8941   1.9729   2.2555   2.3959   2.5870
     3.5145   3.6021   4.0952

          k = 0.1050 0.0606 0.0000 ( 12157 PWs)   bands (ev):

   -77.7584 -49.0064 -48.9866 -48.8988 -24.0747 -23.9871 -21.4186 -20.0808
   -13.6296 -11.0505 -10.0454  -9.9817  -9.3786  -9.3347  -9.0964  -8.9574
    -8.6302  -7.7285  -7.6334  -7.1596  -5.4122  -3.4038  -3.2803  -3.2309
    -3.0950  -0.4996  -0.2696   1.9208   1.9988   2.2218   2.3934   2.5782
     3.4710   3.5580   4.0599

          k = 0.1000 0.0577 0.0000 ( 12153 PWs)   bands (ev):

   -77.7587 -49.0041 -48.9861 -48.8992 -24.0916 -24.0038 -21.4311 -20.0874
   -13.6419 -11.0552  -9.9823  -9.9151  -9.3636  -9.3188  -9.0740  -8.9626
    -8.6409  -7.7110  -7.6178  -7.1607  -5.3969  -3.3975  -3.2696  -3.2208
    -3.1094  -0.5402  -0.3050   1.9430   2.0188   2.1875   2.3980   2.5777
     3.4291   3.5156   4.0244

          k = 0.0950 0.0548 0.0000 ( 12151 PWs)   bands (ev):

   -77.7590 -49.0019 -48.9856 -48.8996 -24.1078 -24.0198 -21.4429 -20.0937
   -13.6537 -11.0600  -9.9212  -9.8501  -9.3492  -9.3035  -9.0562  -8.9639
    -8.6510  -7.6939  -7.6028  -7.1630  -5.3824  -3.3908  -3.2587  -3.2117
    -3.1228  -0.5808  -0.3405   1.9600   2.0323   2.1535   2.4102   2.5852
     3.3890   3.4750   3.9886

          k = 0.0900 0.0520 0.0000 ( 12157 PWs)   bands (ev):

   -77.7592 -48.9998 -48.9851 -48.8999 -24.1231 -24.0349 -21.4542 -20.0997
   -13.6651 -11.0647  -9.8621  -9.7869  -9.3354  -9.2888  -9.0452  -8.9591
    -8.6607  -7.6771  -7.5883  -7.1662  -5.3689  -3.3838  -3.2474  -3.2040
    -3.1346  -0.6211  -0.3760   1.9708   2.0391   2.1212   2.4300   2.6000
     3.3506   3.4362   3.9527

          k = 0.0850 0.0491 0.0000 ( 12161 PWs)   bands (ev):

   -77.7595 -48.9978 -48.9846 -48.9003 -24.1377 -24.0492 -21.4650 -20.1054
   -13.6760 -11.0693  -9.8052  -9.7258  -9.3222  -9.2747  -9.0416  -8.9477
    -8.6698  -7.6608  -7.5745  -7.1705  -5.3562  -3.3765  -3.2360  -3.1987
    -3.1440  -0.6608  -0.4111   1.9746   2.0399   2.0922   2.4564   2.6214
     3.3140   3.3993   3.9165

          k = 0.0800 0.0462 0.0000 ( 12161 PWs)   bands (ev):

   -77.7597 -48.9959 -48.9842 -48.9006 -24.1514 -24.0628 -21.4752 -20.1108
   -13.6863 -11.0738  -9.7506  -9.6668  -9.3097  -9.2613  -9.0435  -8.9316
    -8.6784  -7.6447  -7.5613  -7.1759  -5.3445  -3.3689  -3.2244  -3.1973
    -3.1495  -0.6998  -0.4456   1.9697   2.0362   2.0690   2.4881   2.6481
     3.2793   3.3642   3.8804

          k = 0.0750 0.0433 0.0000 ( 12167 PWs)   bands (ev):

   -77.7599 -48.9941 -48.9838 -48.9010 -24.1643 -24.0755 -21.4848 -20.1159
   -13.6961 -11.0780  -9.6983  -9.6102  -9.2979  -9.2486  -9.0484  -8.9134
    -8.6865  -7.6290  -7.5487  -7.1822  -5.3337  -3.3612  -3.2127  -3.2005
    -3.1501  -0.7377  -0.4792   1.9557   2.0298   2.0523   2.5239   2.6788
     3.2465   3.3311   3.8441

          k = 0.0700 0.0404 0.0000 ( 12163 PWs)   bands (ev):

   -77.7602 -48.9924 -48.9834 -48.9013 -24.1764 -24.0875 -21.4938 -20.1207
   -13.7054 -11.0821  -9.6484  -9.5561  -9.2868  -9.2366  -9.0550  -8.8946
    -8.6940  -7.6136  -7.5368  -7.1894  -5.3237  -3.3534  -3.2073  -3.2011
    -3.1472  -0.7745  -0.5118   1.9345   2.0228   2.0402   2.5624   2.7125
     3.2156   3.3000   3.8080

          k = 0.0650 0.0375 0.0000 ( 12179 PWs)   bands (ev):

   -77.7604 -48.9908 -48.9830 -48.9016 -24.1877 -24.0986 -21.5023 -20.1252
   -13.7140 -11.0860  -9.6009  -9.5048  -9.2764  -9.2254  -9.0624  -8.8759
    -8.7010  -7.5985  -7.5256  -7.1975  -5.3147  -3.3457  -3.2156  -3.1897
    -3.1424  -0.8098  -0.5431   1.9097   2.0151   2.0307   2.6028   2.7480
     3.1866   3.2708   3.7719

          k = 0.0600 0.0346 0.0000 ( 12175 PWs)   bands (ev):

   -77.7605 -48.9893 -48.9827 -48.9018 -24.1981 -24.1089 -21.5101 -20.1294
   -13.7221 -11.0896  -9.5560  -9.4563  -9.2667  -9.2149  -9.0704  -8.8580
    -8.7075  -7.5837  -7.5152  -7.2065  -5.3065  -3.3380  -3.2244  -3.1785
    -3.1371  -0.8436  -0.5730   1.8840   2.0066   2.0229   2.6443   2.7845
     3.1597   3.2437   3.7359

          k = 0.0550 0.0318 0.0000 ( 12171 PWs)   bands (ev):

   -77.7607 -48.9880 -48.9824 -48.9021 -24.2077 -24.1184 -21.5173 -20.1332
   -13.7296 -11.0930  -9.5136  -9.4108  -9.2578  -9.2051  -9.0787  -8.8409
    -8.7134  -7.5691  -7.5055  -7.2162  -5.2991  -3.3304  -3.2330  -3.1676
    -3.1317  -0.8755  -0.6012   1.8588   1.9974   2.0162   2.6862   2.8211
     3.1348   3.2187   3.7002

          k = 0.0500 0.0289 0.0000 ( 12171 PWs)   bands (ev):

   -77.7609 -48.9867 -48.9821 -48.9023 -24.2165 -24.1270 -21.5239 -20.1368
   -13.7365 -11.0961  -9.4738  -9.3685  -9.2496  -9.1962  -9.0874  -8.8249
    -8.7188  -7.5548  -7.4966  -7.2265  -5.2925  -3.3231  -3.2413  -3.1572
    -3.1265  -0.9054  -0.6275   1.8348   1.9881   2.0101   2.7280   2.8571
     3.1120   3.1957   3.6648

          k = 0.0450 0.0260 0.0000 ( 12163 PWs)   bands (ev):

   -77.7610 -48.9856 -48.9818 -48.9025 -24.2245 -24.1349 -21.5299 -20.1400
   -13.7427 -11.0990  -9.4366  -9.3297  -9.2422  -9.1880  -9.0963  -8.8101
    -8.7237  -7.5407  -7.4884  -7.2373  -5.2867  -3.3162  -3.2490  -3.1473
    -3.1216  -0.9331  -0.6519   1.8124   1.9790   2.0046   2.7692   2.8920
     3.0912   3.1749   3.6299

          k = 0.0400 0.0231 0.0000 ( 12165 PWs)   bands (ev):

   -77.7611 -48.9846 -48.9816 -48.9027 -24.2316 -24.1419 -21.5353 -20.1428
   -13.7484 -11.1015  -9.4019  -9.2944  -9.2355  -9.1807  -9.1056  -8.7967
    -8.7280  -7.5270  -7.4811  -7.2485  -5.2816  -3.3098  -3.2560  -3.1381
    -3.1171  -0.9584  -0.6742   1.7920   1.9704   1.9994   2.8092   2.9253
     3.0726   3.1562   3.5956

          k = 0.0350 0.0202 0.0000 ( 12161 PWs)   bands (ev):

   -77.7612 -48.9837 -48.9814 -48.9028 -24.2379 -24.1481 -21.5401 -20.1454
   -13.7533 -11.1038  -9.3696  -9.2629  -9.2296  -9.1742  -9.1152  -8.7846
    -8.7318  -7.5137  -7.4746  -7.2599  -5.2772  -3.3038  -3.2623  -3.1296
    -3.1131  -0.9812  -0.6942   1.7736   1.9626   1.9947   2.8477   2.9565
     3.0561   3.1397   3.5621

          k = 0.0300 0.0173 0.0000 ( 12151 PWs)   bands (ev):

   -77.7613 -48.9829 -48.9812 -48.9030 -24.2434 -24.1535 -21.5442 -20.1476
   -13.7577 -11.1058  -9.3399  -9.2353  -9.2245  -9.1686  -9.1252  -8.7741
    -8.7351  -7.5009  -7.4689  -7.2713  -5.2734  -3.2985  -3.2678  -3.1221
    -3.1096  -1.0013  -0.7118   1.7575   1.9557   1.9905   2.8838   2.9854
     3.0418   3.1253   3.5298

          k = 0.0250 0.0144 0.0000 ( 12159 PWs)   bands (ev):

   -77.7614 -48.9822 -48.9811 -48.9031 -24.2480 -24.1581 -21.5477 -20.1495
   -13.7613 -11.1075  -9.3125  -9.2202  -9.2118  -9.1638  -9.1357  -8.7650
    -8.7379  -7.4888  -7.4641  -7.2823  -5.2703  -3.2938  -3.2725  -3.1155
    -3.1066  -1.0186  -0.7268   1.7437   1.9497   1.9869   2.9169   3.0117
     3.0297   3.1131   3.4992

          k = 0.0200 0.0115 0.0000 ( 12159 PWs)   bands (ev):

   -77.7615 -48.9817 -48.9810 -48.9032 -24.2518 -24.1618 -21.5506 -20.1510
   -13.7643 -11.1089  -9.2874  -9.2166  -9.1930  -9.1598  -9.1464  -8.7575
    -8.7401  -7.4777  -7.4601  -7.2927  -5.2678  -3.2899  -3.2764  -3.1099
    -3.1041  -1.0329  -0.7393   1.7324   1.9447   1.9838   2.9458   3.0197
     3.0351   3.1032   3.4709

          k = 0.0150 0.0087 0.0000 ( 12171 PWs)   bands (ev):

   -77.7615 -48.9813 -48.9809 -48.9033 -24.2547 -24.1647 -21.5528 -20.1522
   -13.7667 -11.1100  -9.2644  -9.2138  -9.1803  -9.1567  -9.1561  -8.7517
    -8.7419  -7.4680  -7.4570  -7.3020  -5.2659  -3.2869  -3.2794  -3.1055
    -3.1022  -1.0442  -0.7491   1.7235   1.9408   1.9814   2.9697   3.0119
     3.0552   3.0954   3.4462

          k = 0.0100 0.0058 0.0000 ( 12181 PWs)   bands (ev):

   -77.7616 -48.9810 -48.9808 -48.9033 -24.2568 -24.1668 -21.5544 -20.1531
   -13.7684 -11.1108  -9.2435  -9.2119  -9.1804  -9.1582  -9.1545  -8.7474
    -8.7432  -7.4603  -7.4548  -7.3094  -5.2645  -3.2847  -3.2815  -3.1024
    -3.1008  -1.0523  -0.7561   1.7171   1.9379   1.9797   2.9874   3.0064
     3.0712   3.0898   3.4265

          k = 0.0050 0.0029 0.0000 ( 12189 PWs)   bands (ev):

   -77.7616 -48.9808 -48.9807 -48.9033 -24.2581 -24.1680 -21.5554 -20.1536
   -13.7694 -11.1112  -9.2246  -9.2107  -9.1918  -9.1545  -9.1532  -8.7449
    -8.7439  -7.4553  -7.4534  -7.3143  -5.2637  -3.2836  -3.2826  -3.1004
    -3.1000  -1.0572  -0.7604   1.7133   1.9362   1.9786   2.9982   3.0031
     3.0818   3.0865   3.4135

          k = 0.0000 0.0000 0.0000 ( 12189 PWs)   bands (ev):

   -77.7616 -48.9807 -48.9807 -48.9034 -24.2585 -24.1684 -21.5557 -20.1537
   -13.7697 -11.1114  -9.2103  -9.2102  -9.2042  -9.1528  -9.1528  -8.7442
    -8.7440  -7.4537  -7.4528  -7.3160  -5.2635  -3.2837  -3.2825  -3.0998
    -3.0996  -1.0588  -0.7618   1.7120   1.9357   1.9783   3.0019   3.0020
     3.0853   3.0856   3.4090

     Writing all to output data dir ./tmp/crsi2n4.save/ :
     XML data file, pseudopotentials, collected wavefunctions
 
     init_run     :      1.41s CPU      1.49s WALL (       1 calls)
     electrons    :    534.61s CPU    537.44s WALL (       1 calls)

     Called by init_run:
     wfcinit      :      0.00s CPU      0.00s WALL (       1 calls)
     wfcinit:atom :      0.21s CPU      0.22s WALL (     261 calls)
     wfcinit:wfcr :      9.87s CPU      9.96s WALL (     261 calls)
     potinit      :      0.69s CPU      0.74s WALL (       1 calls)
     hinit0       :      0.29s CPU      0.30s WALL (       1 calls)

     Called by electrons:
     c_bands      :    534.61s CPU    537.43s WALL (       1 calls)
     v_of_rho     :      0.03s CPU      0.06s WALL (       1 calls)
     v_h          :      0.00s CPU      0.01s WALL (       1 calls)
     v_xc         :      0.02s CPU      0.05s WALL (       1 calls)

     Called by c_bands:
     init_us_2    :      0.15s CPU      0.19s WALL (     261 calls)
     cegterg      :    523.50s CPU    525.62s WALL (    1065 calls)

     Called by sum_band:

     Called by *egterg:
     cdiaghg      :     82.37s CPU     82.76s WALL (   18895 calls)
                                       82.64s GPU  (   18895 calls)
     cegterg:over :    116.52s CPU    116.70s WALL (   18634 calls)
     cegterg:upda :     33.71s CPU     33.82s WALL (   18634 calls)
     cegterg:last :     40.34s CPU     40.41s WALL (    8659 calls)
     h_psi        :    241.07s CPU    242.95s WALL (   19960 calls)
                                      242.82s GPU  (   19960 calls)
     g_psi        :      0.17s CPU      2.71s WALL (   18634 calls)
                                        2.62s GPU  (   18634 calls)

     Called by h_psi:
     h_psi:calbec :      1.56s CPU     37.06s WALL (   19960 calls)
                                       36.91s GPU  (   19960 calls)
     vloc_psi     :    171.54s CPU    173.21s WALL (   19960 calls)
                                      173.09s GPU  (   19960 calls)
     add_vuspsi   :      5.85s CPU     30.77s WALL (   19960 calls)
                                       30.63s GPU  (   19960 calls)

     General routines
     calbec       :      1.47s CPU      1.55s WALL (   19960 calls)
     fft          :      0.33s CPU      0.33s WALL (      11 calls)
                                        0.01s GPU  (      10 calls)
     ffts         :      0.34s CPU      0.34s WALL (       1 calls)
     fftw         :      2.04s CPU    145.95s WALL (   64852 calls)
                                      145.60s GPU  (   64852 calls)
     interpolate  :      0.66s CPU      0.67s WALL (       1 calls)
     davcio       :      0.08s CPU      0.86s WALL (     522 calls)
 
     Parallel routines
 
     PWSCF        :   8m56.89s CPU   9m 1.49s WALL

 
   This run was terminated on:   3:29:54  13Mar2026            

=------------------------------------------------------------------------------=
   JOB DONE.
=------------------------------------------------------------------------------=
