
     Program PWSCF v.7.4.1 starts on 12Mar2026 at  7:15:38 

     This program is part of the open-source Quantum ESPRESSO suite
     for quantum simulation of materials; please cite
         "P. Giannozzi et al., J. Phys.:Condens. Matter 21 395502 (2009);
         "P. Giannozzi et al., J. Phys.:Condens. Matter 29 465901 (2017);
         "P. Giannozzi et al., J. Chem. Phys. 152 154105 (2020);
          URL http://www.quantum-espresso.org", 
     in publications or presentations arising from this work. More details at
     http://www.quantum-espresso.org/quote

     Parallel version (MPI), running on     1 processors

     MPI processes distributed on     1 nodes
     8859 MiB available memory on the printing compute node when the environment starts
 
     Reading input from m1.in

     Current dimensions of program PWSCF are:
     Max number of different atomic species (ntypx) = 10
     Max number of k-points (npk) =  40000
     Max angular momentum in pseudopotentials (lmaxx) =  4
     Message from routine setup:
     no reason to have ecutrho>4*ecutwfc
 
     Subspace diagonalization in iterative solution of the eigenvalue problem:
     a serial algorithm will be used

 
     G-vector sticks info
     --------------------
     sticks:   dense  smooth     PW     G-vecs:    dense   smooth      PW
     Sum         583     475    139                84571    60427    9917
 
     Using Slab Decomposition
 


     bravais-lattice index     =            4
     lattice parameter (alat)  =       5.3206  a.u.
     unit-cell volume          =     962.0812 (a.u.)^3
     number of atoms/cell      =            7
     number of atomic types    =            3
     number of electrons       =        42.00
     number of Kohn-Sham states=           21
     kinetic-energy cutoff     =      60.0000  Ry
     charge density cutoff     =     300.0000  Ry
     scf convergence threshold =      1.0E-10
     mixing beta               =       0.5000
     number of iterations used =            8  plain     mixing
     energy convergence thresh.=      1.0E-04
     force convergence thresh. =      1.0E-03
     Exchange-correlation= PBE
                           (   1   4   3   4   0   0   0)
     nstep                     =           50


     GPU acceleration is ACTIVE.  1 visible GPUs per MPI rank
     GPU-aware MPI enabled


     GPU used by master process:

        Device Number: 0
        Device name: NVIDIA RTX A2000 12GB
        Compute capability : 86
        Ratio of single to double precision performance  : 64
        Memory Clock Rate (KHz): 6001000
        Memory Bus Width (bits): 192
        Peak Memory Bandwidth (GB/s): 288.05

     celldm(1)=   5.320637  celldm(2)=   0.000000  celldm(3)=   7.375478
     celldm(4)=   0.000000  celldm(5)=   0.000000  celldm(6)=   0.000000

     crystal axes: (cart. coord. in units of alat)
               a(1) = (   1.000000   0.000000   0.000000 )  
               a(2) = (  -0.500000   0.866025   0.000000 )  
               a(3) = (   0.000000   0.000000   7.375478 )  

     reciprocal axes: (cart. coord. in units 2 pi/alat)
               b(1) = (  1.000000  0.577350 -0.000000 )  
               b(2) = (  0.000000  1.154701  0.000000 )  
               b(3) = (  0.000000 -0.000000  0.135584 )  


     PseudoPot. # 1 for Cr read from file:
     /home/rao/Desktop/pseudo/ONCVPSP/sg15/Cr_ONCV_PBE_sr.upf
     MD5 check sum: 8c25700f94aee329d8014e8d8708abb4
     Pseudo is Norm-conserving, Zval = 14.0
     Generated using ONCVPSP code by D. R. Hamann
     Using radial grid of 1490 points,  6 beta functions with: 
                l(1) =   0
                l(2) =   0
                l(3) =   1
                l(4) =   1
                l(5) =   2
                l(6) =   2

     PseudoPot. # 2 for Si read from file:
     /home/rao/Desktop/pseudo/ONCVPSP/sg15/Si_ONCV_PBE_sr.upf
     MD5 check sum: 8553c464762ac42b85b1eed164b4d029
     Pseudo is Norm-conserving, Zval =  4.0
     Generated using ONCVPSP code by D. R. Hamann
     Using radial grid of 1510 points,  4 beta functions with: 
                l(1) =   0
                l(2) =   0
                l(3) =   1
                l(4) =   1

     PseudoPot. # 3 for N  read from file:
     /home/rao/Desktop/pseudo/ONCVPSP/sg15/N_ONCV_PBE_sr.upf
     MD5 check sum: 584dff68b02d160f04ff099e3496afa1
     Pseudo is Norm-conserving, Zval =  5.0
     Generated using ONCVPSP code by D. R. Hamann
     Using radial grid of 1058 points,  4 beta functions with: 
                l(1) =   0
                l(2) =   0
                l(3) =   1
                l(4) =   1

     atomic species   valence    mass     pseudopotential
     Cr               14.00    51.99600     Cr( 1.00)
     Si                4.00    28.08600     Si( 1.00)
     N                 5.00    14.00700     N ( 1.00)

     No symmetry found


                                    s                        frac. trans.

      isym =  1     identity                                     

 cryst.   s( 1) = (     1          0          0      )
                  (     0          1          0      )
                  (     0          0          1      )

 cart.    s( 1) = (  1.0000000  0.0000000  0.0000000 )
                  (  0.0000000  1.0000000  0.0000000 )
                  (  0.0000000  0.0000000  1.0000000 )


     point group C_1 (1)    
     there are  1 classes
     the character table:

       E    
A      1.00

     the symmetry operations in each class and the name of the first element:

     E        1
          identity                                               

   Cartesian axes

     site n.     atom                  positions (alat units)
         1        Cr     tau(   1) = (   0.7856992   0.1237169   3.1552663  )
         2        N      tau(   2) = (   0.2857045   0.4123896   2.7513851  )
         3        N      tau(   3) = (   0.2857069   0.4123868   3.5644053  )
         4        N      tau(   4) = (   0.7857152   0.1236985   4.3829400  )
         5        N      tau(   5) = (  -0.2142868   0.7010642   1.9403337  )
         6        Si     tau(   6) = (   0.2857130   0.4123891   2.1304302  )
         7        Si     tau(   7) = (   0.2857150   0.4123740   4.1896062  )

   Crystallographic axes

     site n.     atom                  positions (cryst. coord.)
         1        Cr     tau(   1) = (  0.8571272  0.1428560  0.4278050  )
         2        N      tau(   2) = (  0.5237977  0.4761865  0.3730450  )
         3        N      tau(   3) = (  0.5237985  0.4761832  0.4832779  )
         4        N      tau(   4) = (  0.8571325  0.1428347  0.5942585  )
         5        N      tau(   5) = (  0.1904728  0.8095192  0.2630791  )
         6        Si     tau(   6) = (  0.5238059  0.4761860  0.2888532  )
         7        Si     tau(   7) = (  0.5237992  0.4761684  0.5680454  )

     number of k points=    61
                       cart. coord. in units 2pi/alat
        k(    1) = (   0.0000000   0.0000000   0.0000000), wk =   0.0165289
        k(    2) = (   0.0000000   0.1049728   0.0000000), wk =   0.0330579
        k(    3) = (   0.0000000   0.2099456   0.0000000), wk =   0.0330579
        k(    4) = (   0.0000000   0.3149183   0.0000000), wk =   0.0330579
        k(    5) = (   0.0000000   0.4198911   0.0000000), wk =   0.0330579
        k(    6) = (   0.0000000   0.5248639   0.0000000), wk =   0.0330579
        k(    7) = (   0.0909091   0.1574592   0.0000000), wk =   0.0330579
        k(    8) = (   0.0909091   0.2624319   0.0000000), wk =   0.0330579
        k(    9) = (   0.0909091   0.3674047   0.0000000), wk =   0.0330579
        k(   10) = (   0.0909091   0.4723775   0.0000000), wk =   0.0330579
        k(   11) = (   0.0909091   0.5773503   0.0000000), wk =   0.0330579
        k(   12) = (   0.1818182   0.3149183   0.0000000), wk =   0.0330579
        k(   13) = (   0.1818182   0.4198911   0.0000000), wk =   0.0330579
        k(   14) = (   0.1818182   0.5248639   0.0000000), wk =   0.0330579
        k(   15) = (   0.2727273   0.4723775   0.0000000), wk =   0.0330579
        k(   16) = (   0.2727273   0.5773503   0.0000000), wk =   0.0330579
        k(   17) = (  -0.0909091   0.0524864   0.0000000), wk =   0.0330579
        k(   18) = (   0.0909091   0.0524864   0.0000000), wk =   0.0330579
        k(   19) = (  -0.1818182   0.1049728   0.0000000), wk =   0.0330579
        k(   20) = (   0.1818182   0.1049728   0.0000000), wk =   0.0330579
        k(   21) = (  -0.2727273   0.1574592   0.0000000), wk =   0.0330579
        k(   22) = (   0.2727273   0.1574592   0.0000000), wk =   0.0330579
        k(   23) = (  -0.3636364   0.2099456   0.0000000), wk =   0.0330579
        k(   24) = (   0.3636364   0.2099456   0.0000000), wk =   0.0330579
        k(   25) = (  -0.4545455   0.2624319   0.0000000), wk =   0.0330579
        k(   26) = (   0.4545455   0.2624319   0.0000000), wk =   0.0330579
        k(   27) = (  -0.0909091   0.1574592   0.0000000), wk =   0.0330579
        k(   28) = (   0.1818182  -0.0000000   0.0000000), wk =   0.0330579
        k(   29) = (  -0.0909091   0.2624319   0.0000000), wk =   0.0330579
        k(   30) = (  -0.1818182   0.2099456   0.0000000), wk =   0.0330579
        k(   31) = (   0.2727273   0.0524864   0.0000000), wk =   0.0330579
        k(   32) = (  -0.1818182  -0.2099456   0.0000000), wk =   0.0330579
        k(   33) = (   0.2727273  -0.0524864   0.0000000), wk =   0.0330579
        k(   34) = (  -0.0909091   0.3674047   0.0000000), wk =   0.0330579
        k(   35) = (  -0.2727273   0.2624319   0.0000000), wk =   0.0330579
        k(   36) = (   0.3636364   0.1049728   0.0000000), wk =   0.0330579
        k(   37) = (  -0.2727273  -0.2624319   0.0000000), wk =   0.0330579
        k(   38) = (   0.3636364  -0.1049728   0.0000000), wk =   0.0330579
        k(   39) = (  -0.0909091   0.4723775   0.0000000), wk =   0.0330579
        k(   40) = (  -0.3636364   0.3149183   0.0000000), wk =   0.0330579
        k(   41) = (   0.4545455   0.1574592   0.0000000), wk =   0.0330579
        k(   42) = (  -0.3636364  -0.3149183   0.0000000), wk =   0.0330579
        k(   43) = (   0.4545455  -0.1574592   0.0000000), wk =   0.0330579
        k(   44) = (  -0.4545455   0.3674047   0.0000000), wk =   0.0330579
        k(   45) = (   0.5454545   0.2099456   0.0000000), wk =   0.0330579
        k(   46) = (  -0.1818182   0.3149183   0.0000000), wk =   0.0330579
        k(   47) = (   0.3636364  -0.0000000   0.0000000), wk =   0.0330579
        k(   48) = (  -0.1818182   0.4198911   0.0000000), wk =   0.0330579
        k(   49) = (  -0.2727273   0.3674047   0.0000000), wk =   0.0330579
        k(   50) = (   0.4545455   0.0524864   0.0000000), wk =   0.0330579
        k(   51) = (  -0.2727273  -0.3674047   0.0000000), wk =   0.0330579
        k(   52) = (   0.4545455  -0.0524864   0.0000000), wk =   0.0330579
        k(   53) = (  -0.1818182   0.5248639   0.0000000), wk =   0.0330579
        k(   54) = (  -0.3636364   0.4198911   0.0000000), wk =   0.0330579
        k(   55) = (   0.5454545   0.1049728   0.0000000), wk =   0.0330579
        k(   56) = (  -0.3636364  -0.4198911   0.0000000), wk =   0.0330579
        k(   57) = (   0.5454545  -0.1049728   0.0000000), wk =   0.0330579
        k(   58) = (  -0.2727273   0.4723775   0.0000000), wk =   0.0330579
        k(   59) = (   0.5454545  -0.0000000   0.0000000), wk =   0.0330579
        k(   60) = (  -0.3636364   0.5248639   0.0000000), wk =   0.0330579
        k(   61) = (   0.6363636   0.0524864   0.0000000), wk =   0.0330579

                       cryst. coord.
        k(    1) = (   0.0000000   0.0000000   0.0000000), wk =   0.0165289
        k(    2) = (   0.0000000   0.0909091   0.0000000), wk =   0.0330579
        k(    3) = (   0.0000000   0.1818182   0.0000000), wk =   0.0330579
        k(    4) = (   0.0000000   0.2727273   0.0000000), wk =   0.0330579
        k(    5) = (   0.0000000   0.3636364   0.0000000), wk =   0.0330579
        k(    6) = (   0.0000000   0.4545455   0.0000000), wk =   0.0330579
        k(    7) = (   0.0909091   0.0909091   0.0000000), wk =   0.0330579
        k(    8) = (   0.0909091   0.1818182   0.0000000), wk =   0.0330579
        k(    9) = (   0.0909091   0.2727273   0.0000000), wk =   0.0330579
        k(   10) = (   0.0909091   0.3636364   0.0000000), wk =   0.0330579
        k(   11) = (   0.0909091   0.4545455   0.0000000), wk =   0.0330579
        k(   12) = (   0.1818182   0.1818182   0.0000000), wk =   0.0330579
        k(   13) = (   0.1818182   0.2727273   0.0000000), wk =   0.0330579
        k(   14) = (   0.1818182   0.3636364   0.0000000), wk =   0.0330579
        k(   15) = (   0.2727273   0.2727273   0.0000000), wk =   0.0330579
        k(   16) = (   0.2727273   0.3636364   0.0000000), wk =   0.0330579
        k(   17) = (  -0.0909091   0.0909091   0.0000000), wk =   0.0330579
        k(   18) = (   0.0909091  -0.0000000   0.0000000), wk =   0.0330579
        k(   19) = (  -0.1818182   0.1818182   0.0000000), wk =   0.0330579
        k(   20) = (   0.1818182  -0.0000000   0.0000000), wk =   0.0330579
        k(   21) = (  -0.2727273   0.2727273   0.0000000), wk =   0.0330579
        k(   22) = (   0.2727273  -0.0000000   0.0000000), wk =   0.0330579
        k(   23) = (  -0.3636364   0.3636364   0.0000000), wk =   0.0330579
        k(   24) = (   0.3636364  -0.0000000   0.0000000), wk =   0.0330579
        k(   25) = (  -0.4545455   0.4545455   0.0000000), wk =   0.0330579
        k(   26) = (   0.4545455   0.0000000   0.0000000), wk =   0.0330579
        k(   27) = (  -0.0909091   0.1818182   0.0000000), wk =   0.0330579
        k(   28) = (   0.1818182  -0.0909091   0.0000000), wk =   0.0330579
        k(   29) = (  -0.0909091   0.2727273   0.0000000), wk =   0.0330579
        k(   30) = (  -0.1818182   0.2727273   0.0000000), wk =   0.0330579
        k(   31) = (   0.2727273  -0.0909091   0.0000000), wk =   0.0330579
        k(   32) = (  -0.1818182  -0.0909091   0.0000000), wk =   0.0330579
        k(   33) = (   0.2727273  -0.1818182   0.0000000), wk =   0.0330579
        k(   34) = (  -0.0909091   0.3636364   0.0000000), wk =   0.0330579
        k(   35) = (  -0.2727273   0.3636364   0.0000000), wk =   0.0330579
        k(   36) = (   0.3636364  -0.0909091   0.0000000), wk =   0.0330579
        k(   37) = (  -0.2727273  -0.0909091   0.0000000), wk =   0.0330579
        k(   38) = (   0.3636364  -0.2727273   0.0000000), wk =   0.0330579
        k(   39) = (  -0.0909091   0.4545455   0.0000000), wk =   0.0330579
        k(   40) = (  -0.3636364   0.4545455   0.0000000), wk =   0.0330579
        k(   41) = (   0.4545455  -0.0909091   0.0000000), wk =   0.0330579
        k(   42) = (  -0.3636364  -0.0909091   0.0000000), wk =   0.0330579
        k(   43) = (   0.4545455  -0.3636364   0.0000000), wk =   0.0330579
        k(   44) = (  -0.4545455   0.5454545   0.0000000), wk =   0.0330579
        k(   45) = (   0.5454545  -0.0909091   0.0000000), wk =   0.0330579
        k(   46) = (  -0.1818182   0.3636364   0.0000000), wk =   0.0330579
        k(   47) = (   0.3636364  -0.1818182   0.0000000), wk =   0.0330579
        k(   48) = (  -0.1818182   0.4545455   0.0000000), wk =   0.0330579
        k(   49) = (  -0.2727273   0.4545455   0.0000000), wk =   0.0330579
        k(   50) = (   0.4545455  -0.1818182   0.0000000), wk =   0.0330579
        k(   51) = (  -0.2727273  -0.1818182   0.0000000), wk =   0.0330579
        k(   52) = (   0.4545455  -0.2727273   0.0000000), wk =   0.0330579
        k(   53) = (  -0.1818182   0.5454545   0.0000000), wk =   0.0330579
        k(   54) = (  -0.3636364   0.5454545   0.0000000), wk =   0.0330579
        k(   55) = (   0.5454545  -0.1818182   0.0000000), wk =   0.0330579
        k(   56) = (  -0.3636364  -0.1818182   0.0000000), wk =   0.0330579
        k(   57) = (   0.5454545  -0.3636364   0.0000000), wk =   0.0330579
        k(   58) = (  -0.2727273   0.5454545   0.0000000), wk =   0.0330579
        k(   59) = (   0.5454545  -0.2727273   0.0000000), wk =   0.0330579
        k(   60) = (  -0.3636364   0.6363636   0.0000000), wk =   0.0330579
        k(   61) = (   0.6363636  -0.2727273   0.0000000), wk =   0.0330579

     Dense  grid:    84571 G-vectors     FFT dimensions: (  30,  30, 225)

     Smooth grid:    60427 G-vectors     FFT dimensions: (  27,  27, 200)

     Dynamical RAM for                 wfc:       2.42 MB

     Dynamical RAM for     wfc (w. buffer):     150.02 MB

     Dynamical RAM for           str. fact:       3.87 MB

     Dynamical RAM for           local pot:       0.00 MB

     Dynamical RAM for          nlocal pot:       7.60 MB

     Dynamical RAM for                qrad:       4.17 MB

     Dynamical RAM for          rho,v,vnew:       8.51 MB

     Dynamical RAM for               rhoin:       2.84 MB

     Dynamical RAM for            rho*nmix:      20.65 MB

     Dynamical RAM for           G-vectors:       5.30 MB

     Dynamical RAM for          h,s,v(r/c):       0.08 MB

     Dynamical RAM for          <psi|beta>:       0.02 MB

     Dynamical RAM for                 psi:       4.84 MB

     Dynamical RAM for                hpsi:       4.84 MB

     Dynamical RAM for      wfcinit/wfcrot:       4.85 MB

     Estimated static dynamical RAM per process >     195.19 MB

     Estimated max dynamical RAM per process >     225.62 MB
 ----2D----2D----2D----2D----2D----2D----2D----2D----2D----2D----2D----2D
  The code is running with the 2D cutoff
  Please refer to:
  Sohier, T., Calandra, M., & Mauri, F. (2017), 
  Density functional perturbation theory for gated two-dimensional heterostructures:
  Theoretical developments and application to flexural phonons in graphene.
  Physical Review B, 96(7), 75448. https://doi.org/10.1103/PhysRevB.96.075448
 ----2D----2D----2D----2D----2D----2D----2D----2D----2D----2D----2D----2D

     Initial potential from superposition of free atoms

     starting charge      41.9980, renormalised to      42.0000

     negative rho (up, down):  8.430E-06 0.000E+00
     Starting wfcs are   34 randomized atomic wfcs

     total cpu time spent up to now is        3.1 secs

     Self-consistent Calculation
[tb_dev] Currently allocated     1.51E+00 Mbytes, locked:    0 /   5
[tb_pin] Currently allocated     0.00E+00 Mbytes, locked:    0 /   0

     iteration #  1     ecut=    60.00 Ry     beta= 0.50
     Davidson diagonalization with overlap

---- Real-time Memory Report at c_bands before calling an iterative solver
           803 MiB given to the printing process from OS
             0 MiB allocation reported by mallinfo(arena+hblkhd)
          8491 MiB available memory on the node where the printing process lives
     GPU memory used/free/total (MiB): 1823 / 10090 / 11914
------------------
     ethr =  1.00E-02,  avg # of iterations =  2.0

     total cpu time spent up to now is        6.6 secs

     total energy              =    -262.51143708 Ry
     estimated scf accuracy    <       2.20899315 Ry
[tb_dev] Currently allocated     2.67E-05 Mbytes, locked:    0 /   1
[tb_pin] Currently allocated     0.00E+00 Mbytes, locked:    0 /   0

     iteration #  2     ecut=    60.00 Ry     beta= 0.50
     Davidson diagonalization with overlap

---- Real-time Memory Report at c_bands before calling an iterative solver
           813 MiB given to the printing process from OS
             0 MiB allocation reported by mallinfo(arena+hblkhd)
          8488 MiB available memory on the node where the printing process lives
     GPU memory used/free/total (MiB): 1839 / 10074 / 11914
------------------
     ethr =  5.26E-03,  avg # of iterations =  6.4

     total cpu time spent up to now is       12.7 secs

     total energy              =    -262.73965654 Ry
     estimated scf accuracy    <       2.82033366 Ry
[tb_dev] Currently allocated     2.67E-05 Mbytes, locked:    0 /   1
[tb_pin] Currently allocated     0.00E+00 Mbytes, locked:    0 /   0

     iteration #  3     ecut=    60.00 Ry     beta= 0.50
     Davidson diagonalization with overlap

---- Real-time Memory Report at c_bands before calling an iterative solver
           827 MiB given to the printing process from OS
             0 MiB allocation reported by mallinfo(arena+hblkhd)
          8479 MiB available memory on the node where the printing process lives
     GPU memory used/free/total (MiB): 1839 / 10074 / 11914
------------------
     ethr =  5.26E-03,  avg # of iterations =  5.0

     total cpu time spent up to now is       17.4 secs

     total energy              =    -263.27944567 Ry
     estimated scf accuracy    <       0.31254271 Ry
[tb_dev] Currently allocated     2.67E-05 Mbytes, locked:    0 /   1
[tb_pin] Currently allocated     0.00E+00 Mbytes, locked:    0 /   0

     iteration #  4     ecut=    60.00 Ry     beta= 0.50
     Davidson diagonalization with overlap

---- Real-time Memory Report at c_bands before calling an iterative solver
           830 MiB given to the printing process from OS
             0 MiB allocation reported by mallinfo(arena+hblkhd)
          8473 MiB available memory on the node where the printing process lives
     GPU memory used/free/total (MiB): 1839 / 10074 / 11914
------------------
     ethr =  7.44E-04,  avg # of iterations =  2.9

     total cpu time spent up to now is       21.2 secs

     total energy              =    -263.29288089 Ry
     estimated scf accuracy    <       0.06466763 Ry
[tb_dev] Currently allocated     2.67E-05 Mbytes, locked:    0 /   1
[tb_pin] Currently allocated     0.00E+00 Mbytes, locked:    0 /   0

     iteration #  5     ecut=    60.00 Ry     beta= 0.50
     Davidson diagonalization with overlap

---- Real-time Memory Report at c_bands before calling an iterative solver
           834 MiB given to the printing process from OS
             0 MiB allocation reported by mallinfo(arena+hblkhd)
          8471 MiB available memory on the node where the printing process lives
     GPU memory used/free/total (MiB): 1839 / 10074 / 11914
------------------
     ethr =  1.54E-04,  avg # of iterations =  6.3

     total cpu time spent up to now is       26.9 secs

     total energy              =    -263.32111740 Ry
     estimated scf accuracy    <       0.07478996 Ry
[tb_dev] Currently allocated     2.67E-05 Mbytes, locked:    0 /   1
[tb_pin] Currently allocated     0.00E+00 Mbytes, locked:    0 /   0

     iteration #  6     ecut=    60.00 Ry     beta= 0.50
     Davidson diagonalization with overlap

---- Real-time Memory Report at c_bands before calling an iterative solver
           837 MiB given to the printing process from OS
             0 MiB allocation reported by mallinfo(arena+hblkhd)
          8467 MiB available memory on the node where the printing process lives
     GPU memory used/free/total (MiB): 1841 / 10072 / 11914
------------------
     ethr =  1.54E-04,  avg # of iterations =  2.8

     total cpu time spent up to now is       30.6 secs

     total energy              =    -263.31950046 Ry
     estimated scf accuracy    <       0.02738188 Ry
[tb_dev] Currently allocated     2.67E-05 Mbytes, locked:    0 /   1
[tb_pin] Currently allocated     0.00E+00 Mbytes, locked:    0 /   0

     iteration #  7     ecut=    60.00 Ry     beta= 0.50
     Davidson diagonalization with overlap

---- Real-time Memory Report at c_bands before calling an iterative solver
           841 MiB given to the printing process from OS
             0 MiB allocation reported by mallinfo(arena+hblkhd)
          8464 MiB available memory on the node where the printing process lives
     GPU memory used/free/total (MiB): 1841 / 10072 / 11914
------------------
     ethr =  6.52E-05,  avg # of iterations =  5.5

     total cpu time spent up to now is       35.6 secs

     total energy              =    -263.32467500 Ry
     estimated scf accuracy    <       0.00197782 Ry
[tb_dev] Currently allocated     2.67E-05 Mbytes, locked:    0 /   1
[tb_pin] Currently allocated     0.00E+00 Mbytes, locked:    0 /   0

     iteration #  8     ecut=    60.00 Ry     beta= 0.50
     Davidson diagonalization with overlap

---- Real-time Memory Report at c_bands before calling an iterative solver
           844 MiB given to the printing process from OS
             0 MiB allocation reported by mallinfo(arena+hblkhd)
          8462 MiB available memory on the node where the printing process lives
     GPU memory used/free/total (MiB): 1841 / 10072 / 11914
------------------
     ethr =  4.71E-06,  avg # of iterations =  7.1

     total cpu time spent up to now is       42.0 secs

     total energy              =    -263.32495251 Ry
     estimated scf accuracy    <       0.00588141 Ry
[tb_dev] Currently allocated     2.67E-05 Mbytes, locked:    0 /   1
[tb_pin] Currently allocated     0.00E+00 Mbytes, locked:    0 /   0

     iteration #  9     ecut=    60.00 Ry     beta= 0.50
     Davidson diagonalization with overlap

---- Real-time Memory Report at c_bands before calling an iterative solver
           847 MiB given to the printing process from OS
             0 MiB allocation reported by mallinfo(arena+hblkhd)
          8458 MiB available memory on the node where the printing process lives
     GPU memory used/free/total (MiB): 1841 / 10072 / 11914
------------------
     ethr =  4.71E-06,  avg # of iterations =  4.3

     total cpu time spent up to now is       46.5 secs

     total energy              =    -263.32507805 Ry
     estimated scf accuracy    <       0.00100849 Ry
[tb_dev] Currently allocated     2.67E-05 Mbytes, locked:    0 /   1
[tb_pin] Currently allocated     0.00E+00 Mbytes, locked:    0 /   0

     iteration # 10     ecut=    60.00 Ry     beta= 0.50
     Davidson diagonalization with overlap

---- Real-time Memory Report at c_bands before calling an iterative solver
           851 MiB given to the printing process from OS
             0 MiB allocation reported by mallinfo(arena+hblkhd)
          8455 MiB available memory on the node where the printing process lives
     GPU memory used/free/total (MiB): 1841 / 10072 / 11914
------------------
     ethr =  2.40E-06,  avg # of iterations =  5.3

     total cpu time spent up to now is       51.4 secs

     total energy              =    -263.32534995 Ry
     estimated scf accuracy    <       0.00005249 Ry
[tb_dev] Currently allocated     2.67E-05 Mbytes, locked:    0 /   1
[tb_pin] Currently allocated     0.00E+00 Mbytes, locked:    0 /   0

     iteration # 11     ecut=    60.00 Ry     beta= 0.50
     Davidson diagonalization with overlap

---- Real-time Memory Report at c_bands before calling an iterative solver
           851 MiB given to the printing process from OS
             0 MiB allocation reported by mallinfo(arena+hblkhd)
          8456 MiB available memory on the node where the printing process lives
     GPU memory used/free/total (MiB): 1841 / 10072 / 11914
------------------
     ethr =  1.25E-07,  avg # of iterations =  7.5

     total cpu time spent up to now is       58.1 secs

     total energy              =    -263.32532123 Ry
     estimated scf accuracy    <       0.00032362 Ry
[tb_dev] Currently allocated     2.67E-05 Mbytes, locked:    0 /   1
[tb_pin] Currently allocated     0.00E+00 Mbytes, locked:    0 /   0

     iteration # 12     ecut=    60.00 Ry     beta= 0.50
     Davidson diagonalization with overlap

---- Real-time Memory Report at c_bands before calling an iterative solver
           852 MiB given to the printing process from OS
             0 MiB allocation reported by mallinfo(arena+hblkhd)
          8455 MiB available memory on the node where the printing process lives
     GPU memory used/free/total (MiB): 1841 / 10072 / 11914
------------------
     ethr =  1.25E-07,  avg # of iterations =  6.2

     total cpu time spent up to now is       63.7 secs

     total energy              =    -263.32534348 Ry
     estimated scf accuracy    <       0.00001766 Ry
[tb_dev] Currently allocated     2.67E-05 Mbytes, locked:    0 /   1
[tb_pin] Currently allocated     0.00E+00 Mbytes, locked:    0 /   0

     iteration # 13     ecut=    60.00 Ry     beta= 0.50
     Davidson diagonalization with overlap

---- Real-time Memory Report at c_bands before calling an iterative solver
           852 MiB given to the printing process from OS
             0 MiB allocation reported by mallinfo(arena+hblkhd)
          8455 MiB available memory on the node where the printing process lives
     GPU memory used/free/total (MiB): 1841 / 10072 / 11914
------------------
     ethr =  4.21E-08,  avg # of iterations =  6.1

     total cpu time spent up to now is       69.4 secs

     total energy              =    -263.32534940 Ry
     estimated scf accuracy    <       0.00000675 Ry
[tb_dev] Currently allocated     2.67E-05 Mbytes, locked:    0 /   1
[tb_pin] Currently allocated     0.00E+00 Mbytes, locked:    0 /   0

     iteration # 14     ecut=    60.00 Ry     beta= 0.50
     Davidson diagonalization with overlap

---- Real-time Memory Report at c_bands before calling an iterative solver
           852 MiB given to the printing process from OS
             0 MiB allocation reported by mallinfo(arena+hblkhd)
          8456 MiB available memory on the node where the printing process lives
     GPU memory used/free/total (MiB): 1841 / 10072 / 11914
------------------
     ethr =  1.61E-08,  avg # of iterations =  2.0

     total cpu time spent up to now is       72.5 secs

     total energy              =    -263.32534898 Ry
     estimated scf accuracy    <       0.00000308 Ry
[tb_dev] Currently allocated     2.67E-05 Mbytes, locked:    0 /   1
[tb_pin] Currently allocated     0.00E+00 Mbytes, locked:    0 /   0

     iteration # 15     ecut=    60.00 Ry     beta= 0.50
     Davidson diagonalization with overlap

---- Real-time Memory Report at c_bands before calling an iterative solver
           852 MiB given to the printing process from OS
             0 MiB allocation reported by mallinfo(arena+hblkhd)
          8455 MiB available memory on the node where the printing process lives
     GPU memory used/free/total (MiB): 1841 / 10072 / 11914
------------------
     ethr =  7.32E-09,  avg # of iterations =  5.4

     total cpu time spent up to now is       77.8 secs

     total energy              =    -263.32534973 Ry
     estimated scf accuracy    <       0.00000034 Ry
[tb_dev] Currently allocated     2.67E-05 Mbytes, locked:    0 /   1
[tb_pin] Currently allocated     0.00E+00 Mbytes, locked:    0 /   0

     iteration # 16     ecut=    60.00 Ry     beta= 0.50
     Davidson diagonalization with overlap

---- Real-time Memory Report at c_bands before calling an iterative solver
           852 MiB given to the printing process from OS
             0 MiB allocation reported by mallinfo(arena+hblkhd)
          8429 MiB available memory on the node where the printing process lives
     GPU memory used/free/total (MiB): 1841 / 10072 / 11914
------------------
     ethr =  8.07E-10,  avg # of iterations =  3.8

     total cpu time spent up to now is       82.0 secs

     total energy              =    -263.32534973 Ry
     estimated scf accuracy    <       0.00000023 Ry
[tb_dev] Currently allocated     2.67E-05 Mbytes, locked:    0 /   1
[tb_pin] Currently allocated     0.00E+00 Mbytes, locked:    0 /   0

     iteration # 17     ecut=    60.00 Ry     beta= 0.50
     Davidson diagonalization with overlap

---- Real-time Memory Report at c_bands before calling an iterative solver
           852 MiB given to the printing process from OS
             0 MiB allocation reported by mallinfo(arena+hblkhd)
          8396 MiB available memory on the node where the printing process lives
     GPU memory used/free/total (MiB): 1841 / 10072 / 11914
------------------
     ethr =  5.53E-10,  avg # of iterations =  5.2

     total cpu time spent up to now is       86.9 secs

     total energy              =    -263.32534978 Ry
     estimated scf accuracy    <       0.00000002 Ry
[tb_dev] Currently allocated     2.67E-05 Mbytes, locked:    0 /   1
[tb_pin] Currently allocated     0.00E+00 Mbytes, locked:    0 /   0

     iteration # 18     ecut=    60.00 Ry     beta= 0.50
     Davidson diagonalization with overlap

---- Real-time Memory Report at c_bands before calling an iterative solver
           853 MiB given to the printing process from OS
             0 MiB allocation reported by mallinfo(arena+hblkhd)
          8414 MiB available memory on the node where the printing process lives
     GPU memory used/free/total (MiB): 1841 / 10072 / 11914
------------------
     ethr =  3.75E-11,  avg # of iterations =  5.1

     total cpu time spent up to now is       92.1 secs

     total energy              =    -263.32534978 Ry
     estimated scf accuracy    <       0.00000002 Ry
[tb_dev] Currently allocated     2.67E-05 Mbytes, locked:    0 /   1
[tb_pin] Currently allocated     0.00E+00 Mbytes, locked:    0 /   0

     iteration # 19     ecut=    60.00 Ry     beta= 0.50
     Davidson diagonalization with overlap

---- Real-time Memory Report at c_bands before calling an iterative solver
           853 MiB given to the printing process from OS
             0 MiB allocation reported by mallinfo(arena+hblkhd)
          8420 MiB available memory on the node where the printing process lives
     GPU memory used/free/total (MiB): 1841 / 10072 / 11914
------------------
     ethr =  3.75E-11,  avg # of iterations =  4.6

     total cpu time spent up to now is       96.6 secs

     total energy              =    -263.32534978 Ry
     estimated scf accuracy    <          1.5E-10 Ry
[tb_dev] Currently allocated     2.67E-05 Mbytes, locked:    0 /   1
[tb_pin] Currently allocated     0.00E+00 Mbytes, locked:    0 /   0

     iteration # 20     ecut=    60.00 Ry     beta= 0.50
     Davidson diagonalization with overlap

---- Real-time Memory Report at c_bands before calling an iterative solver
           853 MiB given to the printing process from OS
             0 MiB allocation reported by mallinfo(arena+hblkhd)
          8419 MiB available memory on the node where the printing process lives
     GPU memory used/free/total (MiB): 1841 / 10072 / 11914
------------------
     ethr =  3.66E-13,  avg # of iterations =  8.8

     total cpu time spent up to now is      105.0 secs

     total energy              =    -263.32534978 Ry
     estimated scf accuracy    <          3.9E-09 Ry
[tb_dev] Currently allocated     2.67E-05 Mbytes, locked:    0 /   1
[tb_pin] Currently allocated     0.00E+00 Mbytes, locked:    0 /   0

     iteration # 21     ecut=    60.00 Ry     beta= 0.50
     Davidson diagonalization with overlap

---- Real-time Memory Report at c_bands before calling an iterative solver
           853 MiB given to the printing process from OS
             0 MiB allocation reported by mallinfo(arena+hblkhd)
          8420 MiB available memory on the node where the printing process lives
     GPU memory used/free/total (MiB): 1841 / 10072 / 11914
------------------
     ethr =  3.66E-13,  avg # of iterations =  8.4

     total cpu time spent up to now is      113.0 secs

     total energy              =    -263.32534978 Ry
     estimated scf accuracy    <          2.3E-10 Ry
[tb_dev] Currently allocated     2.67E-05 Mbytes, locked:    0 /   1
[tb_pin] Currently allocated     0.00E+00 Mbytes, locked:    0 /   0

     iteration # 22     ecut=    60.00 Ry     beta= 0.50
     Davidson diagonalization with overlap

---- Real-time Memory Report at c_bands before calling an iterative solver
           853 MiB given to the printing process from OS
             0 MiB allocation reported by mallinfo(arena+hblkhd)
         10057 MiB available memory on the node where the printing process lives
     GPU memory used/free/total (MiB): 1841 / 10072 / 11914
------------------
     ethr =  3.66E-13,  avg # of iterations =  4.6

     total cpu time spent up to now is      118.0 secs

     End of self-consistent calculation

          k = 0.0000 0.0000 0.0000 (  7657 PWs)   bands (ev):

   -77.6778 -48.8832 -48.8832 -48.8510 -24.6520 -24.5731 -21.8207 -20.3597
   -14.0322 -11.3935  -9.4653  -9.2151  -9.2150  -9.1676  -9.1675  -8.7919
    -8.7919  -7.4452  -7.4449  -7.4333  -5.2288

     occupation numbers 
     1.0000   1.0000   1.0000   1.0000   1.0000   1.0000   1.0000   1.0000
     1.0000   1.0000   1.0000   1.0000   1.0000   1.0000   1.0000   1.0000
     1.0000   1.0000   1.0000   1.0000   1.0000

          k = 0.0000 0.1050 0.0000 (  7619 PWs)   bands (ev):

   -77.6747 -48.9074 -48.8887 -48.8465 -24.5060 -24.4293 -21.7063 -20.2980
   -13.9131 -11.3373  -9.9282  -9.8287  -9.3454  -9.3112  -9.2353  -9.0455
    -8.6982  -7.7469  -7.5956  -7.2213  -5.3394

     occupation numbers 
     1.0000   1.0000   1.0000   1.0000   1.0000   1.0000   1.0000   1.0000
     1.0000   1.0000   1.0000   1.0000   1.0000   1.0000   1.0000   1.0000
     1.0000   1.0000   1.0000   1.0000   1.0000

          k = 0.0000 0.2099 0.0000 (  7593 PWs)   bands (ev):

   -77.6662 -48.9721 -48.9033 -48.8346 -24.0804 -24.0098 -21.3911 -20.1311
   -13.6215 -11.4016 -11.2315 -11.0822  -9.6830  -9.6650  -9.6648  -9.0093
    -8.4255  -8.1579  -7.9544  -7.3199  -5.7191

     occupation numbers 
     1.0000   1.0000   1.0000   1.0000   1.0000   1.0000   1.0000   1.0000
     1.0000   1.0000   1.0000   1.0000   1.0000   1.0000   1.0000   1.0000
     1.0000   1.0000   1.0000   1.0000   1.0000

          k = 0.0000 0.3149 0.0000 (  7563 PWs)   bands (ev):

   -77.6550 -49.0560 -48.9224 -48.8190 -23.4183 -23.3569 -20.9638 -19.9177
   -13.6119 -12.9757 -12.4209 -11.0088 -10.3498 -10.0908 -10.0681  -8.8192
    -8.6282  -8.3704  -8.0277  -7.5328  -6.1295

     occupation numbers 
     1.0000   1.0000   1.0000   1.0000   1.0000   1.0000   1.0000   1.0000
     1.0000   1.0000   1.0000   1.0000   1.0000   1.0000   1.0000   1.0000
     1.0000   1.0000   1.0000   1.0000   1.0000

          k = 0.0000 0.4199 0.0000 (  7528 PWs)   bands (ev):

   -77.6447 -49.1323 -48.9399 -48.8046 -22.6256 -22.5754 -20.5843 -19.7663
   -14.6889 -14.4244 -12.4154 -11.1833 -10.7780 -10.4300 -10.3972  -9.2137
    -8.6959  -8.4124  -7.6437  -7.6411  -6.2685

     occupation numbers 
     1.0000   1.0000   1.0000   1.0000   1.0000   1.0000   1.0000   1.0000
     1.0000   1.0000   1.0000   1.0000   1.0000   1.0000   1.0000   1.0000
     1.0000   1.0000   1.0000   1.0000   1.0000

          k = 0.0000 0.5249 0.0000 (  7518 PWs)   bands (ev):

   -77.6386 -49.1773 -48.9503 -48.7961 -21.9723 -21.9321 -20.4295 -19.7666
   -15.5456 -15.3037 -12.2275 -11.5795 -10.9232 -10.6178 -10.5792  -9.3736
    -8.8761  -8.1527  -7.6720  -7.3978  -6.2258

     occupation numbers 
     1.0000   1.0000   1.0000   1.0000   1.0000   1.0000   1.0000   1.0000
     1.0000   1.0000   1.0000   1.0000   1.0000   1.0000   1.0000   1.0000
     1.0000   1.0000   1.0000   1.0000   1.0000

          k = 0.0909 0.1575 0.0000 (  7591 PWs)   bands (ev):

   -77.6688 -48.9504 -48.9002 -48.8384 -24.2201 -24.1476 -21.4913 -20.1834
   -13.7048 -11.2595 -10.7918 -10.7635  -9.7771  -9.6577  -9.3462  -9.0712
    -8.5404  -8.0079  -7.9119  -7.2019  -5.5943

     occupation numbers 
     1.0000   1.0000   1.0000   1.0000   1.0000   1.0000   1.0000   1.0000
     1.0000   1.0000   1.0000   1.0000   1.0000   1.0000   1.0000   1.0000
     1.0000   1.0000   1.0000   1.0000   1.0000

          k = 0.0909 0.2624 0.0000 (  7569 PWs)   bands (ev):

   -77.6590 -49.0210 -48.9207 -48.8246 -23.6746 -23.6096 -21.1180 -19.9907
   -13.4738 -12.2536 -11.9900 -11.0284 -10.4163 -10.2055  -9.8417  -8.8385
    -8.6736  -8.2534  -8.0537  -7.3893  -6.0053

     occupation numbers 
     1.0000   1.0000   1.0000   1.0000   1.0000   1.0000   1.0000   1.0000
     1.0000   1.0000   1.0000   1.0000   1.0000   1.0000   1.0000   1.0000
     1.0000   1.0000   1.0000   1.0000   1.0000

          k = 0.0909 0.3674 0.0000 (  7562 PWs)   bands (ev):

   -77.6483 -49.0970 -48.9431 -48.8096 -22.9383 -22.8834 -20.7081 -19.8012
   -14.0730 -13.7245 -12.4408 -11.0998 -10.8366 -10.6599 -10.3716  -9.3085
    -8.5879  -8.2535  -7.9538  -7.5881  -6.2584

     occupation numbers 
     1.0000   1.0000   1.0000   1.0000   1.0000   1.0000   1.0000   1.0000
     1.0000   1.0000   1.0000   1.0000   1.0000   1.0000   1.0000   1.0000
     1.0000   1.0000   1.0000   1.0000   1.0000

          k = 0.0909 0.4724 0.0000 (  7517 PWs)   bands (ev):

   -77.6401 -49.1544 -48.9602 -48.7981 -22.1794 -22.1356 -20.4423 -19.7289
   -15.1194 -14.8747 -12.2587 -11.5000 -11.0827 -10.8342 -10.7682  -9.5297
    -8.7195  -8.1964  -7.8300  -7.5473  -6.2242

     occupation numbers 
     1.0000   1.0000   1.0000   1.0000   1.0000   1.0000   1.0000   1.0000
     1.0000   1.0000   1.0000   1.0000   1.0000   1.0000   1.0000   1.0000
     1.0000   1.0000   1.0000   1.0000   1.0000

          k = 0.0909 0.5774 0.0000 (  7510 PWs)   bands (ev):

   -77.6370 -49.1757 -48.9666 -48.7938 -21.8014 -21.7625 -20.3953 -19.7580
   -15.5614 -15.3190 -12.1400 -11.6989 -11.1427 -11.0564 -10.8494  -9.4772
    -8.9159  -8.0608  -7.7799  -7.5134  -6.1511

     occupation numbers 
     1.0000   1.0000   1.0000   1.0000   1.0000   1.0000   1.0000   1.0000
     1.0000   1.0000   1.0000   1.0000   1.0000   1.0000   1.0000   1.0000
     1.0000   1.0000   1.0000   1.0000   1.0000

          k = 0.1818 0.3149 0.0000 (  7565 PWs)   bands (ev):

   -77.6496 -49.0770 -48.9512 -48.8115 -23.0494 -22.9928 -20.7569 -19.8157
   -13.7438 -13.2672 -12.3354 -11.3450 -11.2007 -10.7659 -10.2104  -9.4429
    -8.6029  -8.2478  -7.8909  -7.6124  -6.2553

     occupation numbers 
     1.0000   1.0000   1.0000   1.0000   1.0000   1.0000   1.0000   1.0000
     1.0000   1.0000   1.0000   1.0000   1.0000   1.0000   1.0000   1.0000
     1.0000   1.0000   1.0000   1.0000   1.0000

          k = 0.1818 0.4199 0.0000 (  7510 PWs)   bands (ev):

   -77.6410 -49.1242 -48.9831 -48.7994 -22.3149 -22.2683 -20.4512 -19.6966
   -14.5359 -14.2568 -12.2824 -12.0225 -11.8545 -10.7362 -10.5798  -9.8735
    -8.5376  -8.4226  -7.9825  -7.6012  -6.2370

     occupation numbers 
     1.0000   1.0000   1.0000   1.0000   1.0000   1.0000   1.0000   1.0000
     1.0000   1.0000   1.0000   1.0000   1.0000   1.0000   1.0000   1.0000
     1.0000   1.0000   1.0000   1.0000   1.0000

          k = 0.1818 0.5249 0.0000 (  7532 PWs)   bands (ev):

   -77.6358 -49.1508 -49.0033 -48.7922 -21.7285 -21.6890 -20.3363 -19.6973
   -15.1654 -14.9192 -12.5376 -12.3651 -11.6597 -11.0897 -10.8933  -9.6724
    -8.9044  -8.5326  -7.9737  -7.4345  -6.0602

     occupation numbers 
     1.0000   1.0000   1.0000   1.0000   1.0000   1.0000   1.0000   1.0000
     1.0000   1.0000   1.0000   1.0000   1.0000   1.0000   1.0000   1.0000
     1.0000   1.0000   1.0000   1.0000   1.0000

          k = 0.2727 0.4724 0.0000 (  7553 PWs)   bands (ev):

   -77.6354 -49.1294 -49.0291 -48.7915 -21.7162 -21.6762 -20.3056 -19.6610
   -14.7729 -14.4993 -13.1435 -13.0059 -11.7110 -10.9408 -10.6675  -9.8600
    -9.2008  -8.6279  -7.9942  -7.4164  -6.0237

     occupation numbers 
     1.0000   1.0000   1.0000   1.0000   1.0000   1.0000   1.0000   1.0000
     1.0000   1.0000   1.0000   1.0000   1.0000   1.0000   1.0000   1.0000
     1.0000   1.0000   1.0000   1.0000   1.0000

          k = 0.2727 0.5774 0.0000 (  7528 PWs)   bands (ev):

   -77.6333 -49.1238 -49.0539 -48.7886 -21.4441 -21.4025 -20.2836 -19.6722
   -14.8051 -14.5250 -13.5856 -13.4838 -11.3954 -11.1168 -10.7558  -9.7908
    -9.3935  -8.9461  -7.9306  -7.3161  -5.8712

     occupation numbers 
     1.0000   1.0000   1.0000   1.0000   1.0000   1.0000   1.0000   1.0000
     1.0000   1.0000   1.0000   1.0000   1.0000   1.0000   1.0000   1.0000
     1.0000   1.0000   1.0000   1.0000   1.0000

          k =-0.0909 0.0525 0.0000 (  7619 PWs)   bands (ev):

   -77.6747 -48.9074 -48.8887 -48.8465 -24.5060 -24.4293 -21.7063 -20.2980
   -13.9131 -11.3373  -9.9283  -9.8288  -9.3454  -9.3112  -9.2354  -9.0455
    -8.6982  -7.7471  -7.5954  -7.2214  -5.3395

     occupation numbers 
     1.0000   1.0000   1.0000   1.0000   1.0000   1.0000   1.0000   1.0000
     1.0000   1.0000   1.0000   1.0000   1.0000   1.0000   1.0000   1.0000
     1.0000   1.0000   1.0000   1.0000   1.0000

          k = 0.0909 0.0525 0.0000 (  7619 PWs)   bands (ev):

   -77.6747 -48.9074 -48.8887 -48.8465 -24.5060 -24.4293 -21.7063 -20.2980
   -13.9131 -11.3373  -9.9282  -9.8287  -9.3454  -9.3112  -9.2354  -9.0455
    -8.6982  -7.7469  -7.5956  -7.2213  -5.3394

     occupation numbers 
     1.0000   1.0000   1.0000   1.0000   1.0000   1.0000   1.0000   1.0000
     1.0000   1.0000   1.0000   1.0000   1.0000   1.0000   1.0000   1.0000
     1.0000   1.0000   1.0000   1.0000   1.0000

          k =-0.1818 0.1050 0.0000 (  7593 PWs)   bands (ev):

   -77.6662 -48.9721 -48.9033 -48.8346 -24.0804 -24.0098 -21.3911 -20.1311
   -13.6215 -11.4016 -11.2315 -11.0822  -9.6830  -9.6649  -9.6648  -9.0092
    -8.4254  -8.1580  -7.9542  -7.3200  -5.7192

     occupation numbers 
     1.0000   1.0000   1.0000   1.0000   1.0000   1.0000   1.0000   1.0000
     1.0000   1.0000   1.0000   1.0000   1.0000   1.0000   1.0000   1.0000
     1.0000   1.0000   1.0000   1.0000   1.0000

          k = 0.1818 0.1050 0.0000 (  7593 PWs)   bands (ev):

   -77.6662 -48.9721 -48.9033 -48.8346 -24.0804 -24.0098 -21.3911 -20.1311
   -13.6215 -11.4016 -11.2315 -11.0822  -9.6830  -9.6650  -9.6648  -9.0093
    -8.4255  -8.1579  -7.9544  -7.3199  -5.7191

     occupation numbers 
     1.0000   1.0000   1.0000   1.0000   1.0000   1.0000   1.0000   1.0000
     1.0000   1.0000   1.0000   1.0000   1.0000   1.0000   1.0000   1.0000
     1.0000   1.0000   1.0000   1.0000   1.0000

          k =-0.2727 0.1575 0.0000 (  7563 PWs)   bands (ev):

   -77.6550 -49.0560 -48.9224 -48.8190 -23.4183 -23.3569 -20.9638 -19.9178
   -13.6119 -12.9757 -12.4209 -11.0088 -10.3498 -10.0907 -10.0680  -8.8192
    -8.6281  -8.3702  -8.0276  -7.5329  -6.1295

     occupation numbers 
     1.0000   1.0000   1.0000   1.0000   1.0000   1.0000   1.0000   1.0000
     1.0000   1.0000   1.0000   1.0000   1.0000   1.0000   1.0000   1.0000
     1.0000   1.0000   1.0000   1.0000   1.0000

          k = 0.2727 0.1575 0.0000 (  7563 PWs)   bands (ev):

   -77.6550 -49.0560 -48.9224 -48.8190 -23.4183 -23.3569 -20.9638 -19.9177
   -13.6119 -12.9757 -12.4209 -11.0088 -10.3498 -10.0908 -10.0681  -8.8192
    -8.6281  -8.3704  -8.0277  -7.5328  -6.1295

     occupation numbers 
     1.0000   1.0000   1.0000   1.0000   1.0000   1.0000   1.0000   1.0000
     1.0000   1.0000   1.0000   1.0000   1.0000   1.0000   1.0000   1.0000
     1.0000   1.0000   1.0000   1.0000   1.0000

          k =-0.3636 0.2099 0.0000 (  7528 PWs)   bands (ev):

   -77.6447 -49.1323 -48.9399 -48.8046 -22.6256 -22.5754 -20.5843 -19.7663
   -14.6889 -14.4244 -12.4154 -11.1833 -10.7781 -10.4299 -10.3972  -9.2137
    -8.6957  -8.4124  -7.6436  -7.6412  -6.2686

     occupation numbers 
     1.0000   1.0000   1.0000   1.0000   1.0000   1.0000   1.0000   1.0000
     1.0000   1.0000   1.0000   1.0000   1.0000   1.0000   1.0000   1.0000
     1.0000   1.0000   1.0000   1.0000   1.0000

          k = 0.3636 0.2099 0.0000 (  7528 PWs)   bands (ev):

   -77.6447 -49.1323 -48.9399 -48.8046 -22.6256 -22.5754 -20.5843 -19.7662
   -14.6889 -14.4244 -12.4154 -11.1833 -10.7780 -10.4300 -10.3973  -9.2137
    -8.6959  -8.4124  -7.6437  -7.6411  -6.2685

     occupation numbers 
     1.0000   1.0000   1.0000   1.0000   1.0000   1.0000   1.0000   1.0000
     1.0000   1.0000   1.0000   1.0000   1.0000   1.0000   1.0000   1.0000
     1.0000   1.0000   1.0000   1.0000   1.0000

          k =-0.4545 0.2624 0.0000 (  7518 PWs)   bands (ev):

   -77.6386 -49.1773 -48.9503 -48.7961 -21.9723 -21.9321 -20.4295 -19.7666
   -15.5456 -15.3037 -12.2276 -11.5795 -10.9232 -10.6178 -10.5792  -9.3736
    -8.8759  -8.1526  -7.6721  -7.3976  -6.2259

     occupation numbers 
     1.0000   1.0000   1.0000   1.0000   1.0000   1.0000   1.0000   1.0000
     1.0000   1.0000   1.0000   1.0000   1.0000   1.0000   1.0000   1.0000
     1.0000   1.0000   1.0000   1.0000   1.0000

          k = 0.4545 0.2624 0.0000 (  7518 PWs)   bands (ev):

   -77.6386 -49.1773 -48.9503 -48.7961 -21.9723 -21.9321 -20.4295 -19.7666
   -15.5456 -15.3037 -12.2276 -11.5795 -10.9232 -10.6178 -10.5792  -9.3736
    -8.8761  -8.1527  -7.6720  -7.3978  -6.2258

     occupation numbers 
     1.0000   1.0000   1.0000   1.0000   1.0000   1.0000   1.0000   1.0000
     1.0000   1.0000   1.0000   1.0000   1.0000   1.0000   1.0000   1.0000
     1.0000   1.0000   1.0000   1.0000   1.0000

          k =-0.0909 0.1575 0.0000 (  7591 PWs)   bands (ev):

   -77.6688 -48.9504 -48.9002 -48.8384 -24.2201 -24.1476 -21.4913 -20.1834
   -13.7048 -11.2595 -10.7918 -10.7635  -9.7771  -9.6576  -9.3462  -9.0712
    -8.5403  -8.0078  -7.9120  -7.2019  -5.5944

     occupation numbers 
     1.0000   1.0000   1.0000   1.0000   1.0000   1.0000   1.0000   1.0000
     1.0000   1.0000   1.0000   1.0000   1.0000   1.0000   1.0000   1.0000
     1.0000   1.0000   1.0000   1.0000   1.0000

          k = 0.1818-0.0000 0.0000 (  7591 PWs)   bands (ev):

   -77.6688 -48.9504 -48.9002 -48.8384 -24.2201 -24.1476 -21.4913 -20.1834
   -13.7048 -11.2595 -10.7918 -10.7635  -9.7771  -9.6576  -9.3462  -9.0712
    -8.5403  -8.0077  -7.9120  -7.2019  -5.5944

     occupation numbers 
     1.0000   1.0000   1.0000   1.0000   1.0000   1.0000   1.0000   1.0000
     1.0000   1.0000   1.0000   1.0000   1.0000   1.0000   1.0000   1.0000
     1.0000   1.0000   1.0000   1.0000   1.0000

          k =-0.0909 0.2624 0.0000 (  7569 PWs)   bands (ev):

   -77.6590 -49.0210 -48.9207 -48.8246 -23.6746 -23.6096 -21.1180 -19.9907
   -13.4738 -12.2536 -11.9901 -11.0285 -10.4163 -10.2054  -9.8417  -8.8385
    -8.6735  -8.2534  -8.0538  -7.3893  -6.0054

     occupation numbers 
     1.0000   1.0000   1.0000   1.0000   1.0000   1.0000   1.0000   1.0000
     1.0000   1.0000   1.0000   1.0000   1.0000   1.0000   1.0000   1.0000
     1.0000   1.0000   1.0000   1.0000   1.0000

          k =-0.1818 0.2099 0.0000 (  7569 PWs)   bands (ev):

   -77.6590 -49.0210 -48.9207 -48.8246 -23.6746 -23.6096 -21.1180 -19.9907
   -13.4738 -12.2536 -11.9901 -11.0285 -10.4163 -10.2054  -9.8417  -8.8385
    -8.6735  -8.2533  -8.0537  -7.3894  -6.0054

     occupation numbers 
     1.0000   1.0000   1.0000   1.0000   1.0000   1.0000   1.0000   1.0000
     1.0000   1.0000   1.0000   1.0000   1.0000   1.0000   1.0000   1.0000
     1.0000   1.0000   1.0000   1.0000   1.0000

          k = 0.2727 0.0525 0.0000 (  7569 PWs)   bands (ev):

   -77.6590 -49.0210 -48.9207 -48.8246 -23.6746 -23.6096 -21.1180 -19.9907
   -13.4738 -12.2536 -11.9901 -11.0285 -10.4164 -10.2054  -9.8417  -8.8385
    -8.6735  -8.2534  -8.0538  -7.3893  -6.0054

     occupation numbers 
     1.0000   1.0000   1.0000   1.0000   1.0000   1.0000   1.0000   1.0000
     1.0000   1.0000   1.0000   1.0000   1.0000   1.0000   1.0000   1.0000
     1.0000   1.0000   1.0000   1.0000   1.0000

          k =-0.1818-0.2099 0.0000 (  7569 PWs)   bands (ev):

   -77.6590 -49.0210 -48.9207 -48.8246 -23.6746 -23.6096 -21.1180 -19.9907
   -13.4738 -12.2536 -11.9900 -11.0284 -10.4163 -10.2055  -9.8417  -8.8385
    -8.6736  -8.2534  -8.0537  -7.3893  -6.0053

     occupation numbers 
     1.0000   1.0000   1.0000   1.0000   1.0000   1.0000   1.0000   1.0000
     1.0000   1.0000   1.0000   1.0000   1.0000   1.0000   1.0000   1.0000
     1.0000   1.0000   1.0000   1.0000   1.0000

          k = 0.2727-0.0525 0.0000 (  7569 PWs)   bands (ev):

   -77.6590 -49.0210 -48.9207 -48.8246 -23.6746 -23.6096 -21.1180 -19.9907
   -13.4738 -12.2536 -11.9901 -11.0285 -10.4163 -10.2054  -9.8417  -8.8385
    -8.6735  -8.2533  -8.0537  -7.3894  -6.0054

     occupation numbers 
     1.0000   1.0000   1.0000   1.0000   1.0000   1.0000   1.0000   1.0000
     1.0000   1.0000   1.0000   1.0000   1.0000   1.0000   1.0000   1.0000
     1.0000   1.0000   1.0000   1.0000   1.0000

          k =-0.0909 0.3674 0.0000 (  7562 PWs)   bands (ev):

   -77.6483 -49.0970 -48.9431 -48.8096 -22.9383 -22.8834 -20.7081 -19.8012
   -14.0730 -13.7245 -12.4408 -11.0998 -10.8366 -10.6599 -10.3716  -9.3084
    -8.5879  -8.2536  -7.9537  -7.5881  -6.2584

     occupation numbers 
     1.0000   1.0000   1.0000   1.0000   1.0000   1.0000   1.0000   1.0000
     1.0000   1.0000   1.0000   1.0000   1.0000   1.0000   1.0000   1.0000
     1.0000   1.0000   1.0000   1.0000   1.0000

          k =-0.2727 0.2624 0.0000 (  7562 PWs)   bands (ev):

   -77.6483 -49.0970 -48.9431 -48.8096 -22.9383 -22.8834 -20.7081 -19.8012
   -14.0730 -13.7245 -12.4408 -11.0998 -10.8366 -10.6599 -10.3716  -9.3084
    -8.5879  -8.2534  -7.9537  -7.5882  -6.2585

     occupation numbers 
     1.0000   1.0000   1.0000   1.0000   1.0000   1.0000   1.0000   1.0000
     1.0000   1.0000   1.0000   1.0000   1.0000   1.0000   1.0000   1.0000
     1.0000   1.0000   1.0000   1.0000   1.0000

          k = 0.3636 0.1050 0.0000 (  7562 PWs)   bands (ev):

   -77.6483 -49.0970 -48.9431 -48.8096 -22.9383 -22.8834 -20.7081 -19.8012
   -14.0730 -13.7245 -12.4408 -11.0998 -10.8366 -10.6599 -10.3716  -9.3084
    -8.5879  -8.2536  -7.9537  -7.5881  -6.2584

     occupation numbers 
     1.0000   1.0000   1.0000   1.0000   1.0000   1.0000   1.0000   1.0000
     1.0000   1.0000   1.0000   1.0000   1.0000   1.0000   1.0000   1.0000
     1.0000   1.0000   1.0000   1.0000   1.0000

          k =-0.2727-0.2624 0.0000 (  7562 PWs)   bands (ev):

   -77.6483 -49.0970 -48.9431 -48.8096 -22.9383 -22.8834 -20.7081 -19.8012
   -14.0730 -13.7245 -12.4408 -11.0998 -10.8366 -10.6599 -10.3716  -9.3085
    -8.5879  -8.2535  -7.9538  -7.5881  -6.2584

     occupation numbers 
     1.0000   1.0000   1.0000   1.0000   1.0000   1.0000   1.0000   1.0000
     1.0000   1.0000   1.0000   1.0000   1.0000   1.0000   1.0000   1.0000
     1.0000   1.0000   1.0000   1.0000   1.0000

          k = 0.3636-0.1050 0.0000 (  7562 PWs)   bands (ev):

   -77.6483 -49.0970 -48.9431 -48.8096 -22.9383 -22.8834 -20.7081 -19.8012
   -14.0730 -13.7245 -12.4408 -11.0998 -10.8366 -10.6599 -10.3716  -9.3084
    -8.5879  -8.2534  -7.9537  -7.5881  -6.2585

     occupation numbers 
     1.0000   1.0000   1.0000   1.0000   1.0000   1.0000   1.0000   1.0000
     1.0000   1.0000   1.0000   1.0000   1.0000   1.0000   1.0000   1.0000
     1.0000   1.0000   1.0000   1.0000   1.0000

          k =-0.0909 0.4724 0.0000 (  7517 PWs)   bands (ev):

   -77.6401 -49.1544 -48.9602 -48.7981 -22.1794 -22.1356 -20.4423 -19.7289
   -15.1194 -14.8747 -12.2587 -11.5000 -11.0827 -10.8342 -10.7682  -9.5297
    -8.7195  -8.1965  -7.8300  -7.5473  -6.2242

     occupation numbers 
     1.0000   1.0000   1.0000   1.0000   1.0000   1.0000   1.0000   1.0000
     1.0000   1.0000   1.0000   1.0000   1.0000   1.0000   1.0000   1.0000
     1.0000   1.0000   1.0000   1.0000   1.0000

          k =-0.3636 0.3149 0.0000 (  7517 PWs)   bands (ev):

   -77.6401 -49.1544 -48.9602 -48.7981 -22.1794 -22.1356 -20.4423 -19.7289
   -15.1194 -14.8747 -12.2587 -11.5000 -11.0826 -10.8342 -10.7682  -9.5297
    -8.7194  -8.1964  -7.8300  -7.5474  -6.2243

     occupation numbers 
     1.0000   1.0000   1.0000   1.0000   1.0000   1.0000   1.0000   1.0000
     1.0000   1.0000   1.0000   1.0000   1.0000   1.0000   1.0000   1.0000
     1.0000   1.0000   1.0000   1.0000   1.0000

          k = 0.4545 0.1575 0.0000 (  7517 PWs)   bands (ev):

   -77.6401 -49.1544 -48.9602 -48.7981 -22.1794 -22.1356 -20.4423 -19.7288
   -15.1194 -14.8747 -12.2587 -11.5000 -11.0827 -10.8342 -10.7682  -9.5297
    -8.7195  -8.1964  -7.8300  -7.5473  -6.2242

     occupation numbers 
     1.0000   1.0000   1.0000   1.0000   1.0000   1.0000   1.0000   1.0000
     1.0000   1.0000   1.0000   1.0000   1.0000   1.0000   1.0000   1.0000
     1.0000   1.0000   1.0000   1.0000   1.0000

          k =-0.3636-0.3149 0.0000 (  7517 PWs)   bands (ev):

   -77.6401 -49.1544 -48.9602 -48.7981 -22.1794 -22.1356 -20.4423 -19.7288
   -15.1194 -14.8747 -12.2587 -11.5000 -11.0827 -10.8342 -10.7682  -9.5297
    -8.7195  -8.1964  -7.8300  -7.5474  -6.2242

     occupation numbers 
     1.0000   1.0000   1.0000   1.0000   1.0000   1.0000   1.0000   1.0000
     1.0000   1.0000   1.0000   1.0000   1.0000   1.0000   1.0000   1.0000
     1.0000   1.0000   1.0000   1.0000   1.0000

          k = 0.4545-0.1575 0.0000 (  7517 PWs)   bands (ev):

   -77.6401 -49.1544 -48.9602 -48.7981 -22.1794 -22.1356 -20.4423 -19.7289
   -15.1194 -14.8747 -12.2587 -11.5000 -11.0826 -10.8341 -10.7682  -9.5297
    -8.7194  -8.1964  -7.8300  -7.5474  -6.2243

     occupation numbers 
     1.0000   1.0000   1.0000   1.0000   1.0000   1.0000   1.0000   1.0000
     1.0000   1.0000   1.0000   1.0000   1.0000   1.0000   1.0000   1.0000
     1.0000   1.0000   1.0000   1.0000   1.0000

          k =-0.4545 0.3674 0.0000 (  7510 PWs)   bands (ev):

   -77.6370 -49.1757 -48.9666 -48.7938 -21.8014 -21.7625 -20.3953 -19.7580
   -15.5615 -15.3190 -12.1400 -11.6988 -11.1427 -11.0563 -10.8494  -9.4772
    -8.9158  -8.0608  -7.7798  -7.5134  -6.1511

     occupation numbers 
     1.0000   1.0000   1.0000   1.0000   1.0000   1.0000   1.0000   1.0000
     1.0000   1.0000   1.0000   1.0000   1.0000   1.0000   1.0000   1.0000
     1.0000   1.0000   1.0000   1.0000   1.0000

          k = 0.5455 0.2099 0.0000 (  7510 PWs)   bands (ev):

   -77.6370 -49.1757 -48.9666 -48.7938 -21.8014 -21.7625 -20.3953 -19.7580
   -15.5614 -15.3190 -12.1400 -11.6989 -11.1428 -11.0564 -10.8494  -9.4772
    -8.9159  -8.0608  -7.7799  -7.5134  -6.1511

     occupation numbers 
     1.0000   1.0000   1.0000   1.0000   1.0000   1.0000   1.0000   1.0000
     1.0000   1.0000   1.0000   1.0000   1.0000   1.0000   1.0000   1.0000
     1.0000   1.0000   1.0000   1.0000   1.0000

          k =-0.1818 0.3149 0.0000 (  7565 PWs)   bands (ev):

   -77.6496 -49.0770 -48.9512 -48.8115 -23.0494 -22.9928 -20.7569 -19.8157
   -13.7438 -13.2672 -12.3354 -11.3449 -11.2007 -10.7660 -10.2104  -9.4428
    -8.6029  -8.2477  -7.8909  -7.6123  -6.2553

     occupation numbers 
     1.0000   1.0000   1.0000   1.0000   1.0000   1.0000   1.0000   1.0000
     1.0000   1.0000   1.0000   1.0000   1.0000   1.0000   1.0000   1.0000
     1.0000   1.0000   1.0000   1.0000   1.0000

          k = 0.3636-0.0000 0.0000 (  7565 PWs)   bands (ev):

   -77.6496 -49.0770 -48.9512 -48.8115 -23.0494 -22.9928 -20.7569 -19.8157
   -13.7438 -13.2672 -12.3354 -11.3450 -11.2007 -10.7660 -10.2103  -9.4428
    -8.6029  -8.2478  -7.8909  -7.6123  -6.2554

     occupation numbers 
     1.0000   1.0000   1.0000   1.0000   1.0000   1.0000   1.0000   1.0000
     1.0000   1.0000   1.0000   1.0000   1.0000   1.0000   1.0000   1.0000
     1.0000   1.0000   1.0000   1.0000   1.0000

          k =-0.1818 0.4199 0.0000 (  7510 PWs)   bands (ev):

   -77.6410 -49.1241 -48.9831 -48.7994 -22.3149 -22.2683 -20.4512 -19.6966
   -14.5359 -14.2568 -12.2824 -12.0225 -11.8544 -10.7362 -10.5798  -9.8735
    -8.5376  -8.4225  -7.9825  -7.6012  -6.2370

     occupation numbers 
     1.0000   1.0000   1.0000   1.0000   1.0000   1.0000   1.0000   1.0000
     1.0000   1.0000   1.0000   1.0000   1.0000   1.0000   1.0000   1.0000
     1.0000   1.0000   1.0000   1.0000   1.0000

          k =-0.2727 0.3674 0.0000 (  7510 PWs)   bands (ev):

   -77.6410 -49.1241 -48.9831 -48.7994 -22.3149 -22.2683 -20.4512 -19.6966
   -14.5359 -14.2569 -12.2824 -12.0225 -11.8544 -10.7362 -10.5798  -9.8734
    -8.5376  -8.4225  -7.9825  -7.6012  -6.2370

     occupation numbers 
     1.0000   1.0000   1.0000   1.0000   1.0000   1.0000   1.0000   1.0000
     1.0000   1.0000   1.0000   1.0000   1.0000   1.0000   1.0000   1.0000
     1.0000   1.0000   1.0000   1.0000   1.0000

          k = 0.4545 0.0525 0.0000 (  7510 PWs)   bands (ev):

   -77.6410 -49.1241 -48.9831 -48.7994 -22.3149 -22.2683 -20.4512 -19.6966
   -14.5359 -14.2568 -12.2824 -12.0225 -11.8544 -10.7362 -10.5798  -9.8735
    -8.5376  -8.4225  -7.9825  -7.6012  -6.2370

     occupation numbers 
     1.0000   1.0000   1.0000   1.0000   1.0000   1.0000   1.0000   1.0000
     1.0000   1.0000   1.0000   1.0000   1.0000   1.0000   1.0000   1.0000
     1.0000   1.0000   1.0000   1.0000   1.0000

          k =-0.2727-0.3674 0.0000 (  7510 PWs)   bands (ev):

   -77.6410 -49.1242 -48.9831 -48.7994 -22.3149 -22.2683 -20.4512 -19.6966
   -14.5359 -14.2568 -12.2824 -12.0225 -11.8545 -10.7362 -10.5798  -9.8735
    -8.5376  -8.4226  -7.9825  -7.6012  -6.2370

     occupation numbers 
     1.0000   1.0000   1.0000   1.0000   1.0000   1.0000   1.0000   1.0000
     1.0000   1.0000   1.0000   1.0000   1.0000   1.0000   1.0000   1.0000
     1.0000   1.0000   1.0000   1.0000   1.0000

          k = 0.4545-0.0525 0.0000 (  7510 PWs)   bands (ev):

   -77.6410 -49.1241 -48.9831 -48.7994 -22.3149 -22.2683 -20.4512 -19.6966
   -14.5359 -14.2569 -12.2824 -12.0225 -11.8544 -10.7362 -10.5798  -9.8734
    -8.5376  -8.4225  -7.9825  -7.6012  -6.2370

     occupation numbers 
     1.0000   1.0000   1.0000   1.0000   1.0000   1.0000   1.0000   1.0000
     1.0000   1.0000   1.0000   1.0000   1.0000   1.0000   1.0000   1.0000
     1.0000   1.0000   1.0000   1.0000   1.0000

          k =-0.1818 0.5249 0.0000 (  7532 PWs)   bands (ev):

   -77.6358 -49.1508 -49.0033 -48.7922 -21.7285 -21.6890 -20.3363 -19.6973
   -15.1654 -14.9192 -12.5376 -12.3651 -11.6597 -11.0896 -10.8933  -9.6724
    -8.9044  -8.5326  -7.9737  -7.4345  -6.0602

     occupation numbers 
     1.0000   1.0000   1.0000   1.0000   1.0000   1.0000   1.0000   1.0000
     1.0000   1.0000   1.0000   1.0000   1.0000   1.0000   1.0000   1.0000
     1.0000   1.0000   1.0000   1.0000   1.0000

          k =-0.3636 0.4199 0.0000 (  7532 PWs)   bands (ev):

   -77.6358 -49.1508 -49.0033 -48.7922 -21.7285 -21.6890 -20.3363 -19.6973
   -15.1654 -14.9192 -12.5376 -12.3650 -11.6597 -11.0896 -10.8933  -9.6724
    -8.9044  -8.5325  -7.9737  -7.4345  -6.0603

     occupation numbers 
     1.0000   1.0000   1.0000   1.0000   1.0000   1.0000   1.0000   1.0000
     1.0000   1.0000   1.0000   1.0000   1.0000   1.0000   1.0000   1.0000
     1.0000   1.0000   1.0000   1.0000   1.0000

          k = 0.5455 0.1050 0.0000 (  7532 PWs)   bands (ev):

   -77.6358 -49.1508 -49.0033 -48.7922 -21.7285 -21.6890 -20.3363 -19.6973
   -15.1654 -14.9192 -12.5376 -12.3651 -11.6597 -11.0896 -10.8932  -9.6724
    -8.9044  -8.5326  -7.9737  -7.4345  -6.0602

     occupation numbers 
     1.0000   1.0000   1.0000   1.0000   1.0000   1.0000   1.0000   1.0000
     1.0000   1.0000   1.0000   1.0000   1.0000   1.0000   1.0000   1.0000
     1.0000   1.0000   1.0000   1.0000   1.0000

          k =-0.3636-0.4199 0.0000 (  7532 PWs)   bands (ev):

   -77.6358 -49.1508 -49.0033 -48.7922 -21.7285 -21.6890 -20.3363 -19.6973
   -15.1654 -14.9192 -12.5376 -12.3651 -11.6597 -11.0896 -10.8933  -9.6724
    -8.9044  -8.5326  -7.9737  -7.4345  -6.0602

     occupation numbers 
     1.0000   1.0000   1.0000   1.0000   1.0000   1.0000   1.0000   1.0000
     1.0000   1.0000   1.0000   1.0000   1.0000   1.0000   1.0000   1.0000
     1.0000   1.0000   1.0000   1.0000   1.0000

          k = 0.5455-0.1050 0.0000 (  7532 PWs)   bands (ev):

   -77.6358 -49.1508 -49.0033 -48.7922 -21.7285 -21.6890 -20.3363 -19.6973
   -15.1654 -14.9192 -12.5376 -12.3650 -11.6597 -11.0896 -10.8933  -9.6723
    -8.9044  -8.5325  -7.9737  -7.4345  -6.0603

     occupation numbers 
     1.0000   1.0000   1.0000   1.0000   1.0000   1.0000   1.0000   1.0000
     1.0000   1.0000   1.0000   1.0000   1.0000   1.0000   1.0000   1.0000
     1.0000   1.0000   1.0000   1.0000   1.0000

          k =-0.2727 0.4724 0.0000 (  7553 PWs)   bands (ev):

   -77.6354 -49.1294 -49.0291 -48.7915 -21.7162 -21.6762 -20.3055 -19.6610
   -14.7729 -14.4993 -13.1435 -13.0058 -11.7110 -10.9408 -10.6675  -9.8600
    -9.2008  -8.6279  -7.9942  -7.4164  -6.0237

     occupation numbers 
     1.0000   1.0000   1.0000   1.0000   1.0000   1.0000   1.0000   1.0000
     1.0000   1.0000   1.0000   1.0000   1.0000   1.0000   1.0000   1.0000
     1.0000   1.0000   1.0000   1.0000   1.0000

          k = 0.5455-0.0000 0.0000 (  7553 PWs)   bands (ev):

   -77.6354 -49.1294 -49.0291 -48.7915 -21.7162 -21.6762 -20.3055 -19.6610
   -14.7729 -14.4993 -13.1435 -13.0058 -11.7110 -10.9408 -10.6675  -9.8600
    -9.2008  -8.6278  -7.9942  -7.4164  -6.0237

     occupation numbers 
     1.0000   1.0000   1.0000   1.0000   1.0000   1.0000   1.0000   1.0000
     1.0000   1.0000   1.0000   1.0000   1.0000   1.0000   1.0000   1.0000
     1.0000   1.0000   1.0000   1.0000   1.0000

          k =-0.3636 0.5249 0.0000 (  7528 PWs)   bands (ev):

   -77.6333 -49.1238 -49.0539 -48.7886 -21.4441 -21.4025 -20.2836 -19.6722
   -14.8051 -14.5251 -13.5856 -13.4838 -11.3954 -11.1168 -10.7558  -9.7908
    -9.3935  -8.9461  -7.9306  -7.3161  -5.8712

     occupation numbers 
     1.0000   1.0000   1.0000   1.0000   1.0000   1.0000   1.0000   1.0000
     1.0000   1.0000   1.0000   1.0000   1.0000   1.0000   1.0000   1.0000
     1.0000   1.0000   1.0000   1.0000   1.0000

          k = 0.6364 0.0525 0.0000 (  7528 PWs)   bands (ev):

   -77.6333 -49.1238 -49.0539 -48.7886 -21.4441 -21.4025 -20.2836 -19.6722
   -14.8051 -14.5250 -13.5856 -13.4838 -11.3954 -11.1168 -10.7558  -9.7908
    -9.3935  -8.9461  -7.9306  -7.3161  -5.8712

     occupation numbers 
     1.0000   1.0000   1.0000   1.0000   1.0000   1.0000   1.0000   1.0000
     1.0000   1.0000   1.0000   1.0000   1.0000   1.0000   1.0000   1.0000
     1.0000   1.0000   1.0000   1.0000   1.0000

     highest occupied level (ev):    -5.2288

!    total energy              =    -263.32534978 Ry
     estimated scf accuracy    <          4.2E-11 Ry

     The total energy is the sum of the following terms:
     one-electron contribution =   -4607.82566704 Ry
     hartree contribution      =    2300.64421871 Ry
     xc contribution           =     -44.84740215 Ry
     ewald contribution        =    2088.70350069 Ry

     convergence has been achieved in  22 iterations

     Forces acting on atoms (cartesian axes, Ry/au):

     atom    1 type  1   force =     0.00006410   -0.00003767    0.00024561
     atom    2 type  3   force =    -0.00008661    0.00005085   -0.01444775
     atom    3 type  3   force =    -0.00004018    0.00002209    0.01323168
     atom    4 type  3   force =     0.00000913   -0.00000378    0.00903136
     atom    5 type  3   force =    -0.00002463    0.00001335   -0.00873782
     atom    6 type  2   force =     0.00003873   -0.00002297    0.00959089
     atom    7 type  2   force =     0.00003945   -0.00002186   -0.00891396
     The non-local contrib.  to forces
     atom    1 type  1   force =     0.00000934   -0.00000512   -0.00539813
     atom    2 type  3   force =    -0.00018728    0.00011523   -0.08999258
     atom    3 type  3   force =    -0.00011223    0.00005273    0.11431188
     atom    4 type  3   force =    -0.00005391    0.00003386   -0.84244867
     atom    5 type  3   force =    -0.00010183    0.00005726    0.81059266
     atom    6 type  2   force =    -0.00000187    0.00000479   -0.10520123
     atom    7 type  2   force =     0.00001072   -0.00001312    0.08879721
     The ionic contribution  to forces
     atom    1 type  1   force =     0.00019708   -0.00011667   -0.20520799
     atom    2 type  3   force =    -0.00010120    0.00004083  -43.53543210
     atom    3 type  3   force =    -0.00012929    0.00010377   43.70921937
     atom    4 type  3   force =    -0.00000314    0.00000683   90.16222022
     atom    5 type  3   force =    -0.00000710    0.00000091  -90.03610273
     atom    6 type  2   force =     0.00002335   -0.00000118  -62.74093265
     atom    7 type  2   force =     0.00002031   -0.00003449   62.64623589
     The local contribution  to forces
     atom    1 type  1   force =    -0.00018332    0.00010780    0.21087646
     atom    2 type  3   force =     0.00016074   -0.00008143   43.61095556
     atom    3 type  3   force =     0.00016020   -0.00011065  -43.81032093
     atom    4 type  3   force =     0.00002509   -0.00002069  -89.31077166
     atom    5 type  3   force =     0.00004318   -0.00002104   89.21673756
     atom    6 type  2   force =    -0.00002386   -0.00000281   62.85569075
     atom    7 type  2   force =    -0.00003269    0.00004953  -62.74397865
     The core correction contribution to forces
     atom    1 type  1   force =     0.00000000    0.00000000    0.00000000
     atom    2 type  3   force =     0.00000000    0.00000000    0.00000000
     atom    3 type  3   force =     0.00000000    0.00000000    0.00000000
     atom    4 type  3   force =     0.00000000    0.00000000    0.00000000
     atom    5 type  3   force =     0.00000000    0.00000000    0.00000000
     atom    6 type  2   force =     0.00000000    0.00000000    0.00000000
     atom    7 type  2   force =     0.00000000    0.00000000    0.00000000
     The Hubbard contrib.    to forces
     atom    1 type  1   force =     0.00000000    0.00000000    0.00000000
     atom    2 type  3   force =     0.00000000    0.00000000    0.00000000
     atom    3 type  3   force =     0.00000000    0.00000000    0.00000000
     atom    4 type  3   force =     0.00000000    0.00000000    0.00000000
     atom    5 type  3   force =     0.00000000    0.00000000    0.00000000
     atom    6 type  2   force =     0.00000000    0.00000000    0.00000000
     atom    7 type  2   force =     0.00000000    0.00000000    0.00000000
     The SCF correction term to forces
     atom    1 type  1   force =    -0.00000011    0.00000011   -0.00005959
     atom    2 type  3   force =     0.00000002   -0.00000001   -0.00001348
     atom    3 type  3   force =     0.00000003    0.00000003   -0.00001349
     atom    4 type  3   force =    -0.00000003    0.00000000   -0.00000339
     atom    5 type  3   force =     0.00000002   -0.00000000   -0.00000017
     atom    6 type  2   force =    -0.00000000    0.00000000   -0.00000085
     atom    7 type  2   force =     0.00000000    0.00000000   -0.00000327

     Total force =     0.026707     Total SCF correction =     0.000063

     BFGS Geometry Optimization
     Energy error            =      7.1E-04 Ry
     Gradient error          =      1.4E-02 Ry/Bohr

     number of scf cycles    =   1
     number of bfgs steps    =   0

     energy             new  =    -263.3253497842 Ry

     new trust radius        =       0.0144480985 bohr
     new conv_thr            =            1.0E-10 Ry


ATOMIC_POSITIONS (crystal)
Cr               0.8571351767        0.1428478113        0.4278112710
N                0.5237869572        0.4761974871        0.3726768293
N                0.5237933919        0.4761880363        0.4836150758
N                0.8571338215        0.1428338730        0.5944886040
N                0.1904696595        0.8095221303        0.2628563912
Si               0.5238107280        0.4761809703        0.2890975784
Si               0.5238042652        0.4761636918        0.5678182503



     Writing config-only to output data dir ./tmp/crsi2n4.save/ :
     XML data file
     NEW-OLD atomic charge density approx. for the potential

     negative rho (up, down):  5.077E-07 0.000E+00

     total cpu time spent up to now is      118.6 secs

     Self-consistent Calculation
[tb_dev] Currently allocated     0.00E+00 Mbytes, locked:    0 /   0
[tb_pin] Currently allocated     0.00E+00 Mbytes, locked:    0 /   0

     iteration #  1     ecut=    60.00 Ry     beta= 0.50
     Davidson diagonalization with overlap

---- Real-time Memory Report at c_bands before calling an iterative solver
           855 MiB given to the printing process from OS
             0 MiB allocation reported by mallinfo(arena+hblkhd)
         10057 MiB available memory on the node where the printing process lives
     GPU memory used/free/total (MiB): 1849 / 10064 / 11914
------------------
     ethr =  1.00E-06,  avg # of iterations =  6.6

     negative rho (up, down):  1.792E-08 0.000E+00

     total cpu time spent up to now is      126.1 secs

     total energy              =    -263.32519818 Ry
     estimated scf accuracy    <       0.00078896 Ry
[tb_dev] Currently allocated     2.67E-05 Mbytes, locked:    0 /   1
[tb_pin] Currently allocated     0.00E+00 Mbytes, locked:    0 /   0

     iteration #  2     ecut=    60.00 Ry     beta= 0.50
     Davidson diagonalization with overlap

---- Real-time Memory Report at c_bands before calling an iterative solver
           855 MiB given to the printing process from OS
             0 MiB allocation reported by mallinfo(arena+hblkhd)
          9981 MiB available memory on the node where the printing process lives
     GPU memory used/free/total (MiB): 1849 / 10064 / 11914
------------------
     ethr =  1.88E-06,  avg # of iterations =  7.5

     negative rho (up, down):  1.632E-07 0.000E+00

     total cpu time spent up to now is      133.0 secs

     total energy              =    -263.32511595 Ry
     estimated scf accuracy    <       0.00414407 Ry
[tb_dev] Currently allocated     2.67E-05 Mbytes, locked:    0 /   1
[tb_pin] Currently allocated     0.00E+00 Mbytes, locked:    0 /   0

     iteration #  3     ecut=    60.00 Ry     beta= 0.50
     Davidson diagonalization with overlap

---- Real-time Memory Report at c_bands before calling an iterative solver
           855 MiB given to the printing process from OS
             0 MiB allocation reported by mallinfo(arena+hblkhd)
          9244 MiB available memory on the node where the printing process lives
     GPU memory used/free/total (MiB): 1849 / 10064 / 11914
------------------
     ethr =  1.88E-06,  avg # of iterations =  6.5

     negative rho (up, down):  3.352E-08 0.000E+00

     total cpu time spent up to now is      138.7 secs

     total energy              =    -263.32558398 Ry
     estimated scf accuracy    <       0.00002187 Ry
[tb_dev] Currently allocated     2.67E-05 Mbytes, locked:    0 /   1
[tb_pin] Currently allocated     0.00E+00 Mbytes, locked:    0 /   0

     iteration #  4     ecut=    60.00 Ry     beta= 0.50
     Davidson diagonalization with overlap

---- Real-time Memory Report at c_bands before calling an iterative solver
           855 MiB given to the printing process from OS
             0 MiB allocation reported by mallinfo(arena+hblkhd)
          9243 MiB available memory on the node where the printing process lives
     GPU memory used/free/total (MiB): 1849 / 10064 / 11914
------------------
     ethr =  5.21E-08,  avg # of iterations =  7.5

     negative rho (up, down):  1.219E-08 0.000E+00

     total cpu time spent up to now is      145.2 secs

     total energy              =    -263.32560143 Ry
     estimated scf accuracy    <       0.00003978 Ry
[tb_dev] Currently allocated     2.67E-05 Mbytes, locked:    0 /   1
[tb_pin] Currently allocated     0.00E+00 Mbytes, locked:    0 /   0

     iteration #  5     ecut=    60.00 Ry     beta= 0.50
     Davidson diagonalization with overlap

---- Real-time Memory Report at c_bands before calling an iterative solver
           855 MiB given to the printing process from OS
             0 MiB allocation reported by mallinfo(arena+hblkhd)
          9244 MiB available memory on the node where the printing process lives
     GPU memory used/free/total (MiB): 1849 / 10064 / 11914
------------------
     ethr =  5.21E-08,  avg # of iterations =  5.7

     total cpu time spent up to now is      150.4 secs

     total energy              =    -263.32560302 Ry
     estimated scf accuracy    <       0.00002102 Ry
[tb_dev] Currently allocated     2.67E-05 Mbytes, locked:    0 /   1
[tb_pin] Currently allocated     0.00E+00 Mbytes, locked:    0 /   0

     iteration #  6     ecut=    60.00 Ry     beta= 0.50
     Davidson diagonalization with overlap

---- Real-time Memory Report at c_bands before calling an iterative solver
           855 MiB given to the printing process from OS
             0 MiB allocation reported by mallinfo(arena+hblkhd)
          9247 MiB available memory on the node where the printing process lives
     GPU memory used/free/total (MiB): 1849 / 10064 / 11914
------------------
     ethr =  5.00E-08,  avg # of iterations =  3.1

     total cpu time spent up to now is      154.2 secs

     total energy              =    -263.32560397 Ry
     estimated scf accuracy    <       0.00000305 Ry
[tb_dev] Currently allocated     2.67E-05 Mbytes, locked:    0 /   1
[tb_pin] Currently allocated     0.00E+00 Mbytes, locked:    0 /   0

     iteration #  7     ecut=    60.00 Ry     beta= 0.50
     Davidson diagonalization with overlap

---- Real-time Memory Report at c_bands before calling an iterative solver
           855 MiB given to the printing process from OS
             0 MiB allocation reported by mallinfo(arena+hblkhd)
          9247 MiB available memory on the node where the printing process lives
     GPU memory used/free/total (MiB): 1849 / 10064 / 11914
------------------
     ethr =  7.26E-09,  avg # of iterations =  8.1

     total cpu time spent up to now is      160.8 secs

     total energy              =    -263.32560599 Ry
     estimated scf accuracy    <       0.00000762 Ry
[tb_dev] Currently allocated     2.67E-05 Mbytes, locked:    0 /   1
[tb_pin] Currently allocated     0.00E+00 Mbytes, locked:    0 /   0

     iteration #  8     ecut=    60.00 Ry     beta= 0.50
     Davidson diagonalization with overlap

---- Real-time Memory Report at c_bands before calling an iterative solver
           855 MiB given to the printing process from OS
             0 MiB allocation reported by mallinfo(arena+hblkhd)
          9072 MiB available memory on the node where the printing process lives
     GPU memory used/free/total (MiB): 1849 / 10064 / 11914
------------------
     ethr =  7.26E-09,  avg # of iterations =  1.3

     total cpu time spent up to now is      163.7 secs

     total energy              =    -263.32560465 Ry
     estimated scf accuracy    <       0.00000486 Ry
[tb_dev] Currently allocated     2.67E-05 Mbytes, locked:    0 /   1
[tb_pin] Currently allocated     0.00E+00 Mbytes, locked:    0 /   0

     iteration #  9     ecut=    60.00 Ry     beta= 0.50
     Davidson diagonalization with overlap

---- Real-time Memory Report at c_bands before calling an iterative solver
           856 MiB given to the printing process from OS
             0 MiB allocation reported by mallinfo(arena+hblkhd)
          9056 MiB available memory on the node where the printing process lives
     GPU memory used/free/total (MiB): 1849 / 10064 / 11914
------------------
     ethr =  7.26E-09,  avg # of iterations =  6.0

     total cpu time spent up to now is      169.0 secs

     total energy              =    -263.32560579 Ry
     estimated scf accuracy    <       0.00000087 Ry
[tb_dev] Currently allocated     2.67E-05 Mbytes, locked:    0 /   1
[tb_pin] Currently allocated     0.00E+00 Mbytes, locked:    0 /   0

     iteration # 10     ecut=    60.00 Ry     beta= 0.50
     Davidson diagonalization with overlap

---- Real-time Memory Report at c_bands before calling an iterative solver
           860 MiB given to the printing process from OS
             0 MiB allocation reported by mallinfo(arena+hblkhd)
          8845 MiB available memory on the node where the printing process lives
     GPU memory used/free/total (MiB): 1849 / 10064 / 11914
------------------
     ethr =  2.08E-09,  avg # of iterations =  1.2

     total cpu time spent up to now is      172.0 secs

     total energy              =    -263.32560563 Ry
     estimated scf accuracy    <       0.00000055 Ry
[tb_dev] Currently allocated     2.67E-05 Mbytes, locked:    0 /   1
[tb_pin] Currently allocated     0.00E+00 Mbytes, locked:    0 /   0

     iteration # 11     ecut=    60.00 Ry     beta= 0.50
     Davidson diagonalization with overlap

---- Real-time Memory Report at c_bands before calling an iterative solver
           860 MiB given to the printing process from OS
             0 MiB allocation reported by mallinfo(arena+hblkhd)
          8437 MiB available memory on the node where the printing process lives
     GPU memory used/free/total (MiB): 1849 / 10064 / 11914
------------------
     ethr =  1.32E-09,  avg # of iterations =  5.9

     total cpu time spent up to now is      177.4 secs

     total energy              =    -263.32560580 Ry
     estimated scf accuracy    <       0.00000023 Ry
[tb_dev] Currently allocated     2.67E-05 Mbytes, locked:    0 /   1
[tb_pin] Currently allocated     0.00E+00 Mbytes, locked:    0 /   0

     iteration # 12     ecut=    60.00 Ry     beta= 0.50
     Davidson diagonalization with overlap

---- Real-time Memory Report at c_bands before calling an iterative solver
           860 MiB given to the printing process from OS
             0 MiB allocation reported by mallinfo(arena+hblkhd)
          8435 MiB available memory on the node where the printing process lives
     GPU memory used/free/total (MiB): 1849 / 10064 / 11914
------------------
     ethr =  5.44E-10,  avg # of iterations =  1.0

     total cpu time spent up to now is      180.0 secs

     total energy              =    -263.32560578 Ry
     estimated scf accuracy    <       0.00000015 Ry
[tb_dev] Currently allocated     2.67E-05 Mbytes, locked:    0 /   1
[tb_pin] Currently allocated     0.00E+00 Mbytes, locked:    0 /   0

     iteration # 13     ecut=    60.00 Ry     beta= 0.50
     Davidson diagonalization with overlap

---- Real-time Memory Report at c_bands before calling an iterative solver
           861 MiB given to the printing process from OS
             0 MiB allocation reported by mallinfo(arena+hblkhd)
          8435 MiB available memory on the node where the printing process lives
     GPU memory used/free/total (MiB): 1849 / 10064 / 11914
------------------
     ethr =  3.57E-10,  avg # of iterations =  3.7

     total cpu time spent up to now is      183.8 secs

     total energy              =    -263.32560579 Ry
     estimated scf accuracy    <       0.00000001 Ry
[tb_dev] Currently allocated     2.67E-05 Mbytes, locked:    0 /   1
[tb_pin] Currently allocated     0.00E+00 Mbytes, locked:    0 /   0

     iteration # 14     ecut=    60.00 Ry     beta= 0.50
     Davidson diagonalization with overlap

---- Real-time Memory Report at c_bands before calling an iterative solver
           861 MiB given to the printing process from OS
             0 MiB allocation reported by mallinfo(arena+hblkhd)
          8435 MiB available memory on the node where the printing process lives
     GPU memory used/free/total (MiB): 1849 / 10064 / 11914
------------------
     ethr =  3.24E-11,  avg # of iterations =  7.0

     total cpu time spent up to now is      190.1 secs

     total energy              =    -263.32560580 Ry
     estimated scf accuracy    <          8.8E-09 Ry
[tb_dev] Currently allocated     2.67E-05 Mbytes, locked:    0 /   1
[tb_pin] Currently allocated     0.00E+00 Mbytes, locked:    0 /   0

     iteration # 15     ecut=    60.00 Ry     beta= 0.50
     Davidson diagonalization with overlap

---- Real-time Memory Report at c_bands before calling an iterative solver
           861 MiB given to the printing process from OS
             0 MiB allocation reported by mallinfo(arena+hblkhd)
          8433 MiB available memory on the node where the printing process lives
     GPU memory used/free/total (MiB): 1849 / 10064 / 11914
------------------
     ethr =  2.09E-11,  avg # of iterations =  1.7

     total cpu time spent up to now is      193.2 secs

     total energy              =    -263.32560580 Ry
     estimated scf accuracy    <          5.8E-09 Ry
[tb_dev] Currently allocated     2.67E-05 Mbytes, locked:    0 /   1
[tb_pin] Currently allocated     0.00E+00 Mbytes, locked:    0 /   0

     iteration # 16     ecut=    60.00 Ry     beta= 0.50
     Davidson diagonalization with overlap

---- Real-time Memory Report at c_bands before calling an iterative solver
           862 MiB given to the printing process from OS
             0 MiB allocation reported by mallinfo(arena+hblkhd)
          8432 MiB available memory on the node where the printing process lives
     GPU memory used/free/total (MiB): 1849 / 10064 / 11914
------------------
     ethr =  1.38E-11,  avg # of iterations =  5.0

     total cpu time spent up to now is      197.9 secs

     total energy              =    -263.32560580 Ry
     estimated scf accuracy    <          1.5E-09 Ry
[tb_dev] Currently allocated     2.67E-05 Mbytes, locked:    0 /   1
[tb_pin] Currently allocated     0.00E+00 Mbytes, locked:    0 /   0

     iteration # 17     ecut=    60.00 Ry     beta= 0.50
     Davidson diagonalization with overlap

---- Real-time Memory Report at c_bands before calling an iterative solver
           862 MiB given to the printing process from OS
             0 MiB allocation reported by mallinfo(arena+hblkhd)
          8434 MiB available memory on the node where the printing process lives
     GPU memory used/free/total (MiB): 1849 / 10064 / 11914
------------------
     ethr =  3.69E-12,  avg # of iterations =  4.7

     total cpu time spent up to now is      202.5 secs

     total energy              =    -263.32560580 Ry
     estimated scf accuracy    <          1.3E-10 Ry
[tb_dev] Currently allocated     2.67E-05 Mbytes, locked:    0 /   1
[tb_pin] Currently allocated     0.00E+00 Mbytes, locked:    0 /   0

     iteration # 18     ecut=    60.00 Ry     beta= 0.50
     Davidson diagonalization with overlap

---- Real-time Memory Report at c_bands before calling an iterative solver
           862 MiB given to the printing process from OS
             0 MiB allocation reported by mallinfo(arena+hblkhd)
          8435 MiB available memory on the node where the printing process lives
     GPU memory used/free/total (MiB): 1849 / 10064 / 11914
------------------
     ethr =  3.17E-13,  avg # of iterations =  8.3

     total cpu time spent up to now is      210.3 secs

     total energy              =    -263.32560580 Ry
     estimated scf accuracy    <          2.2E-09 Ry
[tb_dev] Currently allocated     2.67E-05 Mbytes, locked:    0 /   1
[tb_pin] Currently allocated     0.00E+00 Mbytes, locked:    0 /   0

     iteration # 19     ecut=    60.00 Ry     beta= 0.50
     Davidson diagonalization with overlap

---- Real-time Memory Report at c_bands before calling an iterative solver
           862 MiB given to the printing process from OS
             0 MiB allocation reported by mallinfo(arena+hblkhd)
          8435 MiB available memory on the node where the printing process lives
     GPU memory used/free/total (MiB): 1849 / 10064 / 11914
------------------
     ethr =  3.17E-13,  avg # of iterations =  5.2

     total cpu time spent up to now is      215.3 secs

     total energy              =    -263.32560580 Ry
     estimated scf accuracy    <          9.2E-10 Ry
[tb_dev] Currently allocated     2.67E-05 Mbytes, locked:    0 /   1
[tb_pin] Currently allocated     0.00E+00 Mbytes, locked:    0 /   0

     iteration # 20     ecut=    60.00 Ry     beta= 0.50
     Davidson diagonalization with overlap

---- Real-time Memory Report at c_bands before calling an iterative solver
           862 MiB given to the printing process from OS
             0 MiB allocation reported by mallinfo(arena+hblkhd)
          8436 MiB available memory on the node where the printing process lives
     GPU memory used/free/total (MiB): 1849 / 10064 / 11914
------------------
     ethr =  3.17E-13,  avg # of iterations =  7.8

     total cpu time spent up to now is      222.2 secs

     End of self-consistent calculation

          k = 0.0000 0.0000 0.0000 (  7657 PWs)   bands (ev):

   -77.8495 -49.0507 -49.0507 -49.0237 -24.7055 -24.6199 -21.9443 -20.5345
   -14.1576 -11.4736  -9.5234  -9.2412  -9.2411  -9.1702  -9.1702  -8.8859
    -8.8857  -7.5914  -7.5909  -7.5847  -5.4198

     occupation numbers 
     1.0000   1.0000   1.0000   1.0000   1.0000   1.0000   1.0000   1.0000
     1.0000   1.0000   1.0000   1.0000   1.0000   1.0000   1.0000   1.0000
     1.0000   1.0000   1.0000   1.0000   1.0000

          k = 0.0000 0.1050 0.0000 (  7619 PWs)   bands (ev):

   -77.8464 -49.0748 -49.0561 -49.0193 -24.5593 -24.4761 -21.8306 -20.4726
   -14.0388 -11.4214  -9.9503  -9.8370  -9.3608  -9.3159  -9.2856  -9.1575
    -8.8048  -7.8833  -7.7398  -7.3817  -5.5316

     occupation numbers 
     1.0000   1.0000   1.0000   1.0000   1.0000   1.0000   1.0000   1.0000
     1.0000   1.0000   1.0000   1.0000   1.0000   1.0000   1.0000   1.0000
     1.0000   1.0000   1.0000   1.0000   1.0000

          k = 0.0000 0.2099 0.0000 (  7593 PWs)   bands (ev):

   -77.8379 -49.1391 -49.0707 -49.0074 -24.1329 -24.0562 -21.5172 -20.3050
   -13.7469 -11.4609 -11.2460 -11.1333  -9.7890  -9.6927  -9.6741  -9.0667
    -8.5428  -8.2919  -8.0951  -7.4841  -5.9091

     occupation numbers 
     1.0000   1.0000   1.0000   1.0000   1.0000   1.0000   1.0000   1.0000
     1.0000   1.0000   1.0000   1.0000   1.0000   1.0000   1.0000   1.0000
     1.0000   1.0000   1.0000   1.0000   1.0000

          k = 0.0000 0.3149 0.0000 (  7563 PWs)   bands (ev):

   -77.8268 -49.2225 -49.0897 -48.9919 -23.4690 -23.4022 -21.0926 -20.0910
   -13.7009 -13.0001 -12.4774 -11.1198 -10.4858 -10.1034 -10.0786  -8.9240
    -8.7247  -8.5067  -8.1535  -7.6738  -6.3098

     occupation numbers 
     1.0000   1.0000   1.0000   1.0000   1.0000   1.0000   1.0000   1.0000
     1.0000   1.0000   1.0000   1.0000   1.0000   1.0000   1.0000   1.0000
     1.0000   1.0000   1.0000   1.0000   1.0000

          k = 0.0000 0.4199 0.0000 (  7528 PWs)   bands (ev):

   -77.8166 -49.2984 -49.1071 -48.9776 -22.6722 -22.6179 -20.7178 -19.9401
   -14.7259 -14.4497 -12.5324 -11.3287 -10.9187 -10.4458 -10.4083  -9.3602
    -8.8302  -8.4731  -7.7769  -7.7495  -6.4394

     occupation numbers 
     1.0000   1.0000   1.0000   1.0000   1.0000   1.0000   1.0000   1.0000
     1.0000   1.0000   1.0000   1.0000   1.0000   1.0000   1.0000   1.0000
     1.0000   1.0000   1.0000   1.0000   1.0000

          k = 0.0000 0.5249 0.0000 (  7518 PWs)   bands (ev):

   -77.8105 -49.3431 -49.1174 -48.9691 -22.0099 -21.9682 -20.5720 -19.9443
   -15.5754 -15.3310 -12.3641 -11.7271 -11.0787 -10.6352 -10.5907  -9.5254
    -9.0093  -8.2115  -7.7552  -7.5372  -6.3955

     occupation numbers 
     1.0000   1.0000   1.0000   1.0000   1.0000   1.0000   1.0000   1.0000
     1.0000   1.0000   1.0000   1.0000   1.0000   1.0000   1.0000   1.0000
     1.0000   1.0000   1.0000   1.0000   1.0000

          k = 0.0909 0.1575 0.0000 (  7591 PWs)   bands (ev):

   -77.8406 -49.1175 -49.0676 -49.0111 -24.2729 -24.1941 -21.6168 -20.3576
   -13.8308 -11.3520 -10.8045 -10.7739  -9.8349  -9.6698  -9.4180  -9.1276
    -8.6595  -8.1526  -8.0393  -7.3686  -5.7856

     occupation numbers 
     1.0000   1.0000   1.0000   1.0000   1.0000   1.0000   1.0000   1.0000
     1.0000   1.0000   1.0000   1.0000   1.0000   1.0000   1.0000   1.0000
     1.0000   1.0000   1.0000   1.0000   1.0000

          k = 0.0909 0.2624 0.0000 (  7569 PWs)   bands (ev):

   -77.8308 -49.1877 -49.0880 -48.9975 -23.7260 -23.6554 -21.2456 -20.1642
   -13.5905 -12.2782 -12.0149 -11.1240 -10.4931 -10.2247  -9.9101  -8.9097
    -8.8025  -8.3777  -8.1756  -7.5524  -6.1895

     occupation numbers 
     1.0000   1.0000   1.0000   1.0000   1.0000   1.0000   1.0000   1.0000
     1.0000   1.0000   1.0000   1.0000   1.0000   1.0000   1.0000   1.0000
     1.0000   1.0000   1.0000   1.0000   1.0000

          k = 0.0909 0.3674 0.0000 (  7562 PWs)   bands (ev):

   -77.8201 -49.2632 -49.1103 -48.9825 -22.9870 -22.9274 -20.8393 -19.9746
   -14.1236 -13.7484 -12.5390 -11.2119 -10.9203 -10.7008 -10.4403  -9.4482
    -8.6566  -8.3777  -8.0890  -7.7145  -6.4305

     occupation numbers 
     1.0000   1.0000   1.0000   1.0000   1.0000   1.0000   1.0000   1.0000
     1.0000   1.0000   1.0000   1.0000   1.0000   1.0000   1.0000   1.0000
     1.0000   1.0000   1.0000   1.0000   1.0000

          k = 0.0909 0.4724 0.0000 (  7517 PWs)   bands (ev):

   -77.8119 -49.3204 -49.1274 -48.9711 -22.2213 -22.1747 -20.5805 -19.9048
   -15.1515 -14.9007 -12.3850 -11.6231 -11.1459 -10.8908 -10.8592  -9.6749
    -8.8481  -8.2718  -7.9594  -7.6492  -6.3884

     occupation numbers 
     1.0000   1.0000   1.0000   1.0000   1.0000   1.0000   1.0000   1.0000
     1.0000   1.0000   1.0000   1.0000   1.0000   1.0000   1.0000   1.0000
     1.0000   1.0000   1.0000   1.0000   1.0000

          k = 0.0909 0.5774 0.0000 (  7510 PWs)   bands (ev):

   -77.8089 -49.3415 -49.1337 -48.9669 -21.8353 -21.7957 -20.5415 -19.9381
   -15.5910 -15.3465 -12.2757 -11.8290 -11.2259 -11.0908 -10.9403  -9.6338
    -9.0441  -8.1334  -7.9017  -7.6108  -6.3143

     occupation numbers 
     1.0000   1.0000   1.0000   1.0000   1.0000   1.0000   1.0000   1.0000
     1.0000   1.0000   1.0000   1.0000   1.0000   1.0000   1.0000   1.0000
     1.0000   1.0000   1.0000   1.0000   1.0000

          k = 0.1818 0.3149 0.0000 (  7565 PWs)   bands (ev):

   -77.8214 -49.2433 -49.1184 -48.9844 -23.0986 -23.0372 -20.8875 -19.9890
   -13.8105 -13.2892 -12.4131 -11.4092 -11.2440 -10.8642 -10.3092  -9.5837
    -8.6634  -8.3776  -8.0095  -7.7663  -6.4279

     occupation numbers 
     1.0000   1.0000   1.0000   1.0000   1.0000   1.0000   1.0000   1.0000
     1.0000   1.0000   1.0000   1.0000   1.0000   1.0000   1.0000   1.0000
     1.0000   1.0000   1.0000   1.0000   1.0000

          k = 0.1818 0.4199 0.0000 (  7510 PWs)   bands (ev):

   -77.8128 -49.2902 -49.1501 -48.9724 -22.3591 -22.3090 -20.5871 -19.8718
   -14.5731 -14.2807 -12.3776 -12.0819 -11.9034 -10.8582 -10.7039 -10.0154
    -8.6630  -8.5334  -8.1093  -7.6944  -6.3976

     occupation numbers 
     1.0000   1.0000   1.0000   1.0000   1.0000   1.0000   1.0000   1.0000
     1.0000   1.0000   1.0000   1.0000   1.0000   1.0000   1.0000   1.0000
     1.0000   1.0000   1.0000   1.0000   1.0000

          k = 0.1818 0.5249 0.0000 (  7532 PWs)   bands (ev):

   -77.8077 -49.3167 -49.1702 -48.9652 -21.7624 -21.7220 -20.4826 -19.8784
   -15.1968 -14.9456 -12.6001 -12.4092 -11.7622 -11.2169 -11.0296  -9.8264
    -9.0419  -8.6838  -8.0403  -7.5198  -6.2174

     occupation numbers 
     1.0000   1.0000   1.0000   1.0000   1.0000   1.0000   1.0000   1.0000
     1.0000   1.0000   1.0000   1.0000   1.0000   1.0000   1.0000   1.0000
     1.0000   1.0000   1.0000   1.0000   1.0000

          k = 0.2727 0.4724 0.0000 (  7553 PWs)   bands (ev):

   -77.8072 -49.2954 -49.1960 -48.9646 -21.7507 -21.7096 -20.4511 -19.8422
   -14.8071 -14.5241 -13.1837 -13.0366 -11.8359 -11.0794 -10.8034 -10.0052
    -9.3569  -8.7816  -8.0582  -7.4991  -6.1796

     occupation numbers 
     1.0000   1.0000   1.0000   1.0000   1.0000   1.0000   1.0000   1.0000
     1.0000   1.0000   1.0000   1.0000   1.0000   1.0000   1.0000   1.0000
     1.0000   1.0000   1.0000   1.0000   1.0000

          k = 0.2727 0.5774 0.0000 (  7528 PWs)   bands (ev):

   -77.8051 -49.2897 -49.2207 -48.9617 -21.4701 -21.4280 -20.4390 -19.8594
   -14.8399 -14.5515 -13.6192 -13.5129 -11.5246 -11.2590 -10.8952  -9.9296
    -9.5664  -9.1048  -7.9820  -7.3965  -6.0279

     occupation numbers 
     1.0000   1.0000   1.0000   1.0000   1.0000   1.0000   1.0000   1.0000
     1.0000   1.0000   1.0000   1.0000   1.0000   1.0000   1.0000   1.0000
     1.0000   1.0000   1.0000   1.0000   1.0000

          k =-0.0909 0.0525 0.0000 (  7619 PWs)   bands (ev):

   -77.8464 -49.0748 -49.0561 -49.0193 -24.5593 -24.4761 -21.8306 -20.4726
   -14.0389 -11.4214  -9.9504  -9.8370  -9.3607  -9.3159  -9.2857  -9.1577
    -8.8047  -7.8830  -7.7402  -7.3817  -5.5316

     occupation numbers 
     1.0000   1.0000   1.0000   1.0000   1.0000   1.0000   1.0000   1.0000
     1.0000   1.0000   1.0000   1.0000   1.0000   1.0000   1.0000   1.0000
     1.0000   1.0000   1.0000   1.0000   1.0000

          k = 0.0909 0.0525 0.0000 (  7619 PWs)   bands (ev):

   -77.8464 -49.0748 -49.0561 -49.0193 -24.5593 -24.4761 -21.8306 -20.4726
   -14.0388 -11.4214  -9.9503  -9.8370  -9.3608  -9.3159  -9.2856  -9.1575
    -8.8048  -7.8833  -7.7398  -7.3817  -5.5316

     occupation numbers 
     1.0000   1.0000   1.0000   1.0000   1.0000   1.0000   1.0000   1.0000
     1.0000   1.0000   1.0000   1.0000   1.0000   1.0000   1.0000   1.0000
     1.0000   1.0000   1.0000   1.0000   1.0000

          k =-0.1818 0.1050 0.0000 (  7593 PWs)   bands (ev):

   -77.8379 -49.1391 -49.0707 -49.0074 -24.1329 -24.0562 -21.5172 -20.3050
   -13.7469 -11.4609 -11.2460 -11.1333  -9.7891  -9.6926  -9.6742  -9.0667
    -8.5427  -8.2917  -8.0953  -7.4842  -5.9090

     occupation numbers 
     1.0000   1.0000   1.0000   1.0000   1.0000   1.0000   1.0000   1.0000
     1.0000   1.0000   1.0000   1.0000   1.0000   1.0000   1.0000   1.0000
     1.0000   1.0000   1.0000   1.0000   1.0000

          k = 0.1818 0.1050 0.0000 (  7593 PWs)   bands (ev):

   -77.8379 -49.1391 -49.0707 -49.0074 -24.1329 -24.0562 -21.5172 -20.3050
   -13.7469 -11.4609 -11.2460 -11.1333  -9.7890  -9.6927  -9.6741  -9.0667
    -8.5428  -8.2919  -8.0951  -7.4841  -5.9091

     occupation numbers 
     1.0000   1.0000   1.0000   1.0000   1.0000   1.0000   1.0000   1.0000
     1.0000   1.0000   1.0000   1.0000   1.0000   1.0000   1.0000   1.0000
     1.0000   1.0000   1.0000   1.0000   1.0000

          k =-0.2727 0.1575 0.0000 (  7563 PWs)   bands (ev):

   -77.8268 -49.2225 -49.0897 -48.9919 -23.4690 -23.4022 -21.0926 -20.0910
   -13.7010 -13.0001 -12.4774 -11.1197 -10.4859 -10.1032 -10.0786  -8.9240
    -8.7247  -8.5068  -8.1534  -7.6739  -6.3097

     occupation numbers 
     1.0000   1.0000   1.0000   1.0000   1.0000   1.0000   1.0000   1.0000
     1.0000   1.0000   1.0000   1.0000   1.0000   1.0000   1.0000   1.0000
     1.0000   1.0000   1.0000   1.0000   1.0000

          k = 0.2727 0.1575 0.0000 (  7563 PWs)   bands (ev):

   -77.8268 -49.2225 -49.0897 -48.9919 -23.4690 -23.4022 -21.0926 -20.0910
   -13.7009 -13.0001 -12.4774 -11.1198 -10.4858 -10.1034 -10.0786  -8.9240
    -8.7247  -8.5067  -8.1535  -7.6738  -6.3098

     occupation numbers 
     1.0000   1.0000   1.0000   1.0000   1.0000   1.0000   1.0000   1.0000
     1.0000   1.0000   1.0000   1.0000   1.0000   1.0000   1.0000   1.0000
     1.0000   1.0000   1.0000   1.0000   1.0000

          k =-0.3636 0.2099 0.0000 (  7528 PWs)   bands (ev):

   -77.8166 -49.2984 -49.1071 -48.9776 -22.6722 -22.6179 -20.7178 -19.9400
   -14.7260 -14.4497 -12.5325 -11.3287 -10.9187 -10.4457 -10.4083  -9.3603
    -8.8303  -8.4731  -7.7769  -7.7496  -6.4392

     occupation numbers 
     1.0000   1.0000   1.0000   1.0000   1.0000   1.0000   1.0000   1.0000
     1.0000   1.0000   1.0000   1.0000   1.0000   1.0000   1.0000   1.0000
     1.0000   1.0000   1.0000   1.0000   1.0000

          k = 0.3636 0.2099 0.0000 (  7528 PWs)   bands (ev):

   -77.8166 -49.2984 -49.1071 -48.9776 -22.6722 -22.6179 -20.7178 -19.9401
   -14.7259 -14.4497 -12.5324 -11.3287 -10.9187 -10.4458 -10.4083  -9.3603
    -8.8302  -8.4731  -7.7769  -7.7495  -6.4394

     occupation numbers 
     1.0000   1.0000   1.0000   1.0000   1.0000   1.0000   1.0000   1.0000
     1.0000   1.0000   1.0000   1.0000   1.0000   1.0000   1.0000   1.0000
     1.0000   1.0000   1.0000   1.0000   1.0000

          k =-0.4545 0.2624 0.0000 (  7518 PWs)   bands (ev):

   -77.8105 -49.3431 -49.1174 -48.9691 -22.0099 -21.9682 -20.5720 -19.9443
   -15.5755 -15.3310 -12.3642 -11.7271 -11.0787 -10.6351 -10.5907  -9.5254
    -9.0094  -8.2114  -7.7553  -7.5371  -6.3953

     occupation numbers 
     1.0000   1.0000   1.0000   1.0000   1.0000   1.0000   1.0000   1.0000
     1.0000   1.0000   1.0000   1.0000   1.0000   1.0000   1.0000   1.0000
     1.0000   1.0000   1.0000   1.0000   1.0000

          k = 0.4545 0.2624 0.0000 (  7518 PWs)   bands (ev):

   -77.8105 -49.3431 -49.1174 -48.9691 -22.0099 -21.9682 -20.5719 -19.9443
   -15.5755 -15.3311 -12.3641 -11.7271 -11.0787 -10.6352 -10.5907  -9.5254
    -9.0093  -8.2114  -7.7552  -7.5372  -6.3955

     occupation numbers 
     1.0000   1.0000   1.0000   1.0000   1.0000   1.0000   1.0000   1.0000
     1.0000   1.0000   1.0000   1.0000   1.0000   1.0000   1.0000   1.0000
     1.0000   1.0000   1.0000   1.0000   1.0000

          k =-0.0909 0.1575 0.0000 (  7591 PWs)   bands (ev):

   -77.8406 -49.1175 -49.0676 -49.0111 -24.2729 -24.1941 -21.6168 -20.3575
   -13.8308 -11.3519 -10.8046 -10.7738  -9.8349  -9.6697  -9.4181  -9.1276
    -8.6593  -8.1528  -8.0390  -7.3688  -5.7856

     occupation numbers 
     1.0000   1.0000   1.0000   1.0000   1.0000   1.0000   1.0000   1.0000
     1.0000   1.0000   1.0000   1.0000   1.0000   1.0000   1.0000   1.0000
     1.0000   1.0000   1.0000   1.0000   1.0000

          k = 0.1818-0.0000 0.0000 (  7591 PWs)   bands (ev):

   -77.8406 -49.1175 -49.0676 -49.0111 -24.2729 -24.1941 -21.6168 -20.3575
   -13.8308 -11.3519 -10.8046 -10.7738  -9.8349  -9.6697  -9.4181  -9.1276
    -8.6593  -8.1527  -8.0390  -7.3688  -5.7856

     occupation numbers 
     1.0000   1.0000   1.0000   1.0000   1.0000   1.0000   1.0000   1.0000
     1.0000   1.0000   1.0000   1.0000   1.0000   1.0000   1.0000   1.0000
     1.0000   1.0000   1.0000   1.0000   1.0000

          k =-0.0909 0.2624 0.0000 (  7569 PWs)   bands (ev):

   -77.8308 -49.1877 -49.0880 -48.9975 -23.7260 -23.6554 -21.2456 -20.1642
   -13.5905 -12.2782 -12.0149 -11.1240 -10.4931 -10.2247  -9.9101  -8.9098
    -8.8025  -8.3776  -8.1754  -7.5526  -6.1894

     occupation numbers 
     1.0000   1.0000   1.0000   1.0000   1.0000   1.0000   1.0000   1.0000
     1.0000   1.0000   1.0000   1.0000   1.0000   1.0000   1.0000   1.0000
     1.0000   1.0000   1.0000   1.0000   1.0000

          k =-0.1818 0.2099 0.0000 (  7569 PWs)   bands (ev):

   -77.8308 -49.1877 -49.0880 -48.9975 -23.7260 -23.6554 -21.2457 -20.1642
   -13.5905 -12.2782 -12.0150 -11.1239 -10.4931 -10.2246  -9.9101  -8.9098
    -8.8025  -8.3776  -8.1754  -7.5526  -6.1893

     occupation numbers 
     1.0000   1.0000   1.0000   1.0000   1.0000   1.0000   1.0000   1.0000
     1.0000   1.0000   1.0000   1.0000   1.0000   1.0000   1.0000   1.0000
     1.0000   1.0000   1.0000   1.0000   1.0000

          k = 0.2727 0.0525 0.0000 (  7569 PWs)   bands (ev):

   -77.8308 -49.1877 -49.0880 -48.9975 -23.7260 -23.6554 -21.2456 -20.1642
   -13.5905 -12.2782 -12.0149 -11.1240 -10.4931 -10.2247  -9.9101  -8.9098
    -8.8025  -8.3776  -8.1754  -7.5526  -6.1894

     occupation numbers 
     1.0000   1.0000   1.0000   1.0000   1.0000   1.0000   1.0000   1.0000
     1.0000   1.0000   1.0000   1.0000   1.0000   1.0000   1.0000   1.0000
     1.0000   1.0000   1.0000   1.0000   1.0000

          k =-0.1818-0.2099 0.0000 (  7569 PWs)   bands (ev):

   -77.8308 -49.1877 -49.0880 -48.9975 -23.7260 -23.6554 -21.2456 -20.1642
   -13.5905 -12.2782 -12.0149 -11.1240 -10.4931 -10.2247  -9.9101  -8.9097
    -8.8025  -8.3777  -8.1756  -7.5524  -6.1895

     occupation numbers 
     1.0000   1.0000   1.0000   1.0000   1.0000   1.0000   1.0000   1.0000
     1.0000   1.0000   1.0000   1.0000   1.0000   1.0000   1.0000   1.0000
     1.0000   1.0000   1.0000   1.0000   1.0000

          k = 0.2727-0.0525 0.0000 (  7569 PWs)   bands (ev):

   -77.8308 -49.1877 -49.0880 -48.9975 -23.7260 -23.6554 -21.2457 -20.1642
   -13.5905 -12.2782 -12.0150 -11.1239 -10.4931 -10.2246  -9.9101  -8.9098
    -8.8025  -8.3776  -8.1754  -7.5526  -6.1893

     occupation numbers 
     1.0000   1.0000   1.0000   1.0000   1.0000   1.0000   1.0000   1.0000
     1.0000   1.0000   1.0000   1.0000   1.0000   1.0000   1.0000   1.0000
     1.0000   1.0000   1.0000   1.0000   1.0000

          k =-0.0909 0.3674 0.0000 (  7562 PWs)   bands (ev):

   -77.8201 -49.2632 -49.1103 -48.9825 -22.9870 -22.9274 -20.8393 -19.9746
   -14.1236 -13.7484 -12.5390 -11.2119 -10.9203 -10.7008 -10.4403  -9.4481
    -8.6566  -8.3777  -8.0890  -7.7146  -6.4304

     occupation numbers 
     1.0000   1.0000   1.0000   1.0000   1.0000   1.0000   1.0000   1.0000
     1.0000   1.0000   1.0000   1.0000   1.0000   1.0000   1.0000   1.0000
     1.0000   1.0000   1.0000   1.0000   1.0000

          k =-0.2727 0.2624 0.0000 (  7562 PWs)   bands (ev):

   -77.8201 -49.2632 -49.1103 -48.9825 -22.9870 -22.9274 -20.8393 -19.9745
   -14.1236 -13.7484 -12.5391 -11.2119 -10.9203 -10.7007 -10.4403  -9.4483
    -8.6567  -8.3777  -8.0889  -7.7146  -6.4304

     occupation numbers 
     1.0000   1.0000   1.0000   1.0000   1.0000   1.0000   1.0000   1.0000
     1.0000   1.0000   1.0000   1.0000   1.0000   1.0000   1.0000   1.0000
     1.0000   1.0000   1.0000   1.0000   1.0000

          k = 0.3636 0.1050 0.0000 (  7562 PWs)   bands (ev):

   -77.8201 -49.2632 -49.1103 -48.9825 -22.9870 -22.9274 -20.8393 -19.9745
   -14.1236 -13.7484 -12.5390 -11.2119 -10.9203 -10.7008 -10.4403  -9.4482
    -8.6566  -8.3777  -8.0890  -7.7146  -6.4304

     occupation numbers 
     1.0000   1.0000   1.0000   1.0000   1.0000   1.0000   1.0000   1.0000
     1.0000   1.0000   1.0000   1.0000   1.0000   1.0000   1.0000   1.0000
     1.0000   1.0000   1.0000   1.0000   1.0000

          k =-0.2727-0.2624 0.0000 (  7562 PWs)   bands (ev):

   -77.8201 -49.2632 -49.1103 -48.9825 -22.9870 -22.9274 -20.8393 -19.9746
   -14.1236 -13.7484 -12.5390 -11.2119 -10.9203 -10.7008 -10.4403  -9.4482
    -8.6566  -8.3776  -8.0890  -7.7145  -6.4305

     occupation numbers 
     1.0000   1.0000   1.0000   1.0000   1.0000   1.0000   1.0000   1.0000
     1.0000   1.0000   1.0000   1.0000   1.0000   1.0000   1.0000   1.0000
     1.0000   1.0000   1.0000   1.0000   1.0000

          k = 0.3636-0.1050 0.0000 (  7562 PWs)   bands (ev):

   -77.8201 -49.2632 -49.1103 -48.9825 -22.9870 -22.9274 -20.8393 -19.9745
   -14.1236 -13.7484 -12.5391 -11.2119 -10.9203 -10.7007 -10.4403  -9.4483
    -8.6567  -8.3777  -8.0889  -7.7146  -6.4304

     occupation numbers 
     1.0000   1.0000   1.0000   1.0000   1.0000   1.0000   1.0000   1.0000
     1.0000   1.0000   1.0000   1.0000   1.0000   1.0000   1.0000   1.0000
     1.0000   1.0000   1.0000   1.0000   1.0000

          k =-0.0909 0.4724 0.0000 (  7517 PWs)   bands (ev):

   -77.8119 -49.3203 -49.1274 -48.9711 -22.2213 -22.1747 -20.5805 -19.9047
   -15.1515 -14.9007 -12.3850 -11.6231 -11.1459 -10.8909 -10.8591  -9.6747
    -8.8482  -8.2719  -7.9595  -7.6492  -6.3883

     occupation numbers 
     1.0000   1.0000   1.0000   1.0000   1.0000   1.0000   1.0000   1.0000
     1.0000   1.0000   1.0000   1.0000   1.0000   1.0000   1.0000   1.0000
     1.0000   1.0000   1.0000   1.0000   1.0000

          k =-0.3636 0.3149 0.0000 (  7517 PWs)   bands (ev):

   -77.8119 -49.3203 -49.1274 -48.9711 -22.2213 -22.1747 -20.5805 -19.9047
   -15.1516 -14.9007 -12.3851 -11.6231 -11.1459 -10.8909 -10.8591  -9.6749
    -8.8482  -8.2718  -7.9595  -7.6493  -6.3883

     occupation numbers 
     1.0000   1.0000   1.0000   1.0000   1.0000   1.0000   1.0000   1.0000
     1.0000   1.0000   1.0000   1.0000   1.0000   1.0000   1.0000   1.0000
     1.0000   1.0000   1.0000   1.0000   1.0000

          k = 0.4545 0.1575 0.0000 (  7517 PWs)   bands (ev):

   -77.8119 -49.3203 -49.1274 -48.9711 -22.2213 -22.1747 -20.5805 -19.9047
   -15.1515 -14.9007 -12.3851 -11.6231 -11.1459 -10.8909 -10.8591  -9.6747
    -8.8482  -8.2718  -7.9595  -7.6492  -6.3883

     occupation numbers 
     1.0000   1.0000   1.0000   1.0000   1.0000   1.0000   1.0000   1.0000
     1.0000   1.0000   1.0000   1.0000   1.0000   1.0000   1.0000   1.0000
     1.0000   1.0000   1.0000   1.0000   1.0000

          k =-0.3636-0.3149 0.0000 (  7517 PWs)   bands (ev):

   -77.8119 -49.3204 -49.1274 -48.9711 -22.2213 -22.1747 -20.5805 -19.9047
   -15.1515 -14.9007 -12.3850 -11.6231 -11.1459 -10.8908 -10.8592  -9.6749
    -8.8480  -8.2718  -7.9594  -7.6493  -6.3884

     occupation numbers 
     1.0000   1.0000   1.0000   1.0000   1.0000   1.0000   1.0000   1.0000
     1.0000   1.0000   1.0000   1.0000   1.0000   1.0000   1.0000   1.0000
     1.0000   1.0000   1.0000   1.0000   1.0000

          k = 0.4545-0.1575 0.0000 (  7517 PWs)   bands (ev):

   -77.8119 -49.3203 -49.1274 -48.9711 -22.2213 -22.1747 -20.5805 -19.9047
   -15.1516 -14.9007 -12.3851 -11.6231 -11.1460 -10.8909 -10.8591  -9.6748
    -8.8482  -8.2718  -7.9595  -7.6493  -6.3883

     occupation numbers 
     1.0000   1.0000   1.0000   1.0000   1.0000   1.0000   1.0000   1.0000
     1.0000   1.0000   1.0000   1.0000   1.0000   1.0000   1.0000   1.0000
     1.0000   1.0000   1.0000   1.0000   1.0000

          k =-0.4545 0.3674 0.0000 (  7510 PWs)   bands (ev):

   -77.8089 -49.3415 -49.1337 -48.9669 -21.8354 -21.7957 -20.5416 -19.9380
   -15.5911 -15.3465 -12.2758 -11.8290 -11.2259 -11.0909 -10.9402  -9.6338
    -9.0441  -8.1333  -7.9018  -7.6109  -6.3142

     occupation numbers 
     1.0000   1.0000   1.0000   1.0000   1.0000   1.0000   1.0000   1.0000
     1.0000   1.0000   1.0000   1.0000   1.0000   1.0000   1.0000   1.0000
     1.0000   1.0000   1.0000   1.0000   1.0000

          k = 0.5455 0.2099 0.0000 (  7510 PWs)   bands (ev):

   -77.8089 -49.3415 -49.1337 -48.9669 -21.8354 -21.7957 -20.5415 -19.9381
   -15.5910 -15.3465 -12.2757 -11.8290 -11.2260 -11.0908 -10.9403  -9.6338
    -9.0441  -8.1334  -7.9017  -7.6108  -6.3143

     occupation numbers 
     1.0000   1.0000   1.0000   1.0000   1.0000   1.0000   1.0000   1.0000
     1.0000   1.0000   1.0000   1.0000   1.0000   1.0000   1.0000   1.0000
     1.0000   1.0000   1.0000   1.0000   1.0000

          k =-0.1818 0.3149 0.0000 (  7565 PWs)   bands (ev):

   -77.8214 -49.2433 -49.1184 -48.9844 -23.0986 -23.0372 -20.8875 -19.9890
   -13.8105 -13.2892 -12.4131 -11.4092 -11.2440 -10.8641 -10.3093  -9.5838
    -8.6634  -8.3775  -8.0094  -7.7665  -6.4277

     occupation numbers 
     1.0000   1.0000   1.0000   1.0000   1.0000   1.0000   1.0000   1.0000
     1.0000   1.0000   1.0000   1.0000   1.0000   1.0000   1.0000   1.0000
     1.0000   1.0000   1.0000   1.0000   1.0000

          k = 0.3636-0.0000 0.0000 (  7565 PWs)   bands (ev):

   -77.8214 -49.2433 -49.1184 -48.9844 -23.0986 -23.0372 -20.8875 -19.9890
   -13.8105 -13.2892 -12.4131 -11.4092 -11.2440 -10.8641 -10.3093  -9.5838
    -8.6634  -8.3775  -8.0094  -7.7665  -6.4277

     occupation numbers 
     1.0000   1.0000   1.0000   1.0000   1.0000   1.0000   1.0000   1.0000
     1.0000   1.0000   1.0000   1.0000   1.0000   1.0000   1.0000   1.0000
     1.0000   1.0000   1.0000   1.0000   1.0000

          k =-0.1818 0.4199 0.0000 (  7510 PWs)   bands (ev):

   -77.8128 -49.2902 -49.1501 -48.9724 -22.3591 -22.3090 -20.5871 -19.8718
   -14.5731 -14.2807 -12.3776 -12.0820 -11.9034 -10.8583 -10.7040 -10.0152
    -8.6630  -8.5335  -8.1095  -7.6944  -6.3974

     occupation numbers 
     1.0000   1.0000   1.0000   1.0000   1.0000   1.0000   1.0000   1.0000
     1.0000   1.0000   1.0000   1.0000   1.0000   1.0000   1.0000   1.0000
     1.0000   1.0000   1.0000   1.0000   1.0000

          k =-0.2727 0.3674 0.0000 (  7510 PWs)   bands (ev):

   -77.8128 -49.2902 -49.1501 -48.9724 -22.3591 -22.3090 -20.5871 -19.8718
   -14.5731 -14.2807 -12.3777 -12.0819 -11.9034 -10.8582 -10.7040 -10.0153
    -8.6630  -8.5334  -8.1095  -7.6944  -6.3974

     occupation numbers 
     1.0000   1.0000   1.0000   1.0000   1.0000   1.0000   1.0000   1.0000
     1.0000   1.0000   1.0000   1.0000   1.0000   1.0000   1.0000   1.0000
     1.0000   1.0000   1.0000   1.0000   1.0000

          k = 0.4545 0.0525 0.0000 (  7510 PWs)   bands (ev):

   -77.8128 -49.2902 -49.1501 -48.9724 -22.3591 -22.3090 -20.5871 -19.8718
   -14.5731 -14.2807 -12.3777 -12.0820 -11.9034 -10.8583 -10.7040 -10.0152
    -8.6630  -8.5335  -8.1095  -7.6944  -6.3974

     occupation numbers 
     1.0000   1.0000   1.0000   1.0000   1.0000   1.0000   1.0000   1.0000
     1.0000   1.0000   1.0000   1.0000   1.0000   1.0000   1.0000   1.0000
     1.0000   1.0000   1.0000   1.0000   1.0000

          k =-0.2727-0.3674 0.0000 (  7510 PWs)   bands (ev):

   -77.8128 -49.2902 -49.1501 -48.9724 -22.3591 -22.3090 -20.5871 -19.8718
   -14.5731 -14.2807 -12.3776 -12.0819 -11.9034 -10.8581 -10.7039 -10.0154
    -8.6630  -8.5334  -8.1093  -7.6944  -6.3976

     occupation numbers 
     1.0000   1.0000   1.0000   1.0000   1.0000   1.0000   1.0000   1.0000
     1.0000   1.0000   1.0000   1.0000   1.0000   1.0000   1.0000   1.0000
     1.0000   1.0000   1.0000   1.0000   1.0000

          k = 0.4545-0.0525 0.0000 (  7510 PWs)   bands (ev):

   -77.8128 -49.2902 -49.1501 -48.9724 -22.3591 -22.3090 -20.5871 -19.8718
   -14.5731 -14.2807 -12.3777 -12.0819 -11.9034 -10.8582 -10.7040 -10.0153
    -8.6630  -8.5334  -8.1095  -7.6944  -6.3974

     occupation numbers 
     1.0000   1.0000   1.0000   1.0000   1.0000   1.0000   1.0000   1.0000
     1.0000   1.0000   1.0000   1.0000   1.0000   1.0000   1.0000   1.0000
     1.0000   1.0000   1.0000   1.0000   1.0000

          k =-0.1818 0.5249 0.0000 (  7532 PWs)   bands (ev):

   -77.8077 -49.3167 -49.1702 -48.9652 -21.7624 -21.7220 -20.4826 -19.8784
   -15.1968 -14.9456 -12.6001 -12.4092 -11.7622 -11.2169 -11.0297  -9.8262
    -9.0420  -8.6839  -8.0403  -7.5197  -6.2173

     occupation numbers 
     1.0000   1.0000   1.0000   1.0000   1.0000   1.0000   1.0000   1.0000
     1.0000   1.0000   1.0000   1.0000   1.0000   1.0000   1.0000   1.0000
     1.0000   1.0000   1.0000   1.0000   1.0000

          k =-0.3636 0.4199 0.0000 (  7532 PWs)   bands (ev):

   -77.8077 -49.3167 -49.1702 -48.9652 -21.7624 -21.7220 -20.4826 -19.8784
   -15.1968 -14.9456 -12.6002 -12.4092 -11.7622 -11.2169 -11.0297  -9.8264
    -9.0419  -8.6838  -8.0404  -7.5198  -6.2173

     occupation numbers 
     1.0000   1.0000   1.0000   1.0000   1.0000   1.0000   1.0000   1.0000
     1.0000   1.0000   1.0000   1.0000   1.0000   1.0000   1.0000   1.0000
     1.0000   1.0000   1.0000   1.0000   1.0000

          k = 0.5455 0.1050 0.0000 (  7532 PWs)   bands (ev):

   -77.8077 -49.3167 -49.1702 -48.9652 -21.7624 -21.7220 -20.4826 -19.8784
   -15.1968 -14.9456 -12.6002 -12.4092 -11.7622 -11.2169 -11.0297  -9.8262
    -9.0420  -8.6839  -8.0403  -7.5197  -6.2173

     occupation numbers 
     1.0000   1.0000   1.0000   1.0000   1.0000   1.0000   1.0000   1.0000
     1.0000   1.0000   1.0000   1.0000   1.0000   1.0000   1.0000   1.0000
     1.0000   1.0000   1.0000   1.0000   1.0000

          k =-0.3636-0.4199 0.0000 (  7532 PWs)   bands (ev):

   -77.8077 -49.3167 -49.1702 -48.9652 -21.7624 -21.7220 -20.4826 -19.8784
   -15.1968 -14.9456 -12.6001 -12.4092 -11.7622 -11.2169 -11.0296  -9.8264
    -9.0419  -8.6838  -8.0403  -7.5198  -6.2174

     occupation numbers 
     1.0000   1.0000   1.0000   1.0000   1.0000   1.0000   1.0000   1.0000
     1.0000   1.0000   1.0000   1.0000   1.0000   1.0000   1.0000   1.0000
     1.0000   1.0000   1.0000   1.0000   1.0000

          k = 0.5455-0.1050 0.0000 (  7532 PWs)   bands (ev):

   -77.8077 -49.3167 -49.1702 -48.9652 -21.7624 -21.7220 -20.4826 -19.8784
   -15.1968 -14.9456 -12.6002 -12.4092 -11.7622 -11.2169 -11.0297  -9.8263
    -9.0419  -8.6838  -8.0403  -7.5198  -6.2173

     occupation numbers 
     1.0000   1.0000   1.0000   1.0000   1.0000   1.0000   1.0000   1.0000
     1.0000   1.0000   1.0000   1.0000   1.0000   1.0000   1.0000   1.0000
     1.0000   1.0000   1.0000   1.0000   1.0000

          k =-0.2727 0.4724 0.0000 (  7553 PWs)   bands (ev):

   -77.8072 -49.2954 -49.1960 -48.9646 -21.7507 -21.7096 -20.4511 -19.8421
   -14.8072 -14.5241 -13.1837 -13.0366 -11.8360 -11.0795 -10.8035 -10.0050
    -9.3568  -8.7817  -8.0583  -7.4991  -6.1795

     occupation numbers 
     1.0000   1.0000   1.0000   1.0000   1.0000   1.0000   1.0000   1.0000
     1.0000   1.0000   1.0000   1.0000   1.0000   1.0000   1.0000   1.0000
     1.0000   1.0000   1.0000   1.0000   1.0000

          k = 0.5455-0.0000 0.0000 (  7553 PWs)   bands (ev):

   -77.8072 -49.2954 -49.1960 -48.9646 -21.7507 -21.7096 -20.4511 -19.8421
   -14.8072 -14.5241 -13.1837 -13.0366 -11.8360 -11.0795 -10.8035 -10.0050
    -9.3568  -8.7817  -8.0583  -7.4991  -6.1795

     occupation numbers 
     1.0000   1.0000   1.0000   1.0000   1.0000   1.0000   1.0000   1.0000
     1.0000   1.0000   1.0000   1.0000   1.0000   1.0000   1.0000   1.0000
     1.0000   1.0000   1.0000   1.0000   1.0000

          k =-0.3636 0.5249 0.0000 (  7528 PWs)   bands (ev):

   -77.8051 -49.2897 -49.2207 -48.9617 -21.4701 -21.4280 -20.4390 -19.8594
   -14.8400 -14.5515 -13.6191 -13.5129 -11.5246 -11.2591 -10.8952  -9.9296
    -9.5663  -9.1048  -7.9820  -7.3965  -6.0279

     occupation numbers 
     1.0000   1.0000   1.0000   1.0000   1.0000   1.0000   1.0000   1.0000
     1.0000   1.0000   1.0000   1.0000   1.0000   1.0000   1.0000   1.0000
     1.0000   1.0000   1.0000   1.0000   1.0000

          k = 0.6364 0.0525 0.0000 (  7528 PWs)   bands (ev):

   -77.8051 -49.2897 -49.2207 -48.9617 -21.4701 -21.4280 -20.4390 -19.8594
   -14.8399 -14.5515 -13.6192 -13.5129 -11.5246 -11.2590 -10.8952  -9.9296
    -9.5664  -9.1048  -7.9820  -7.3965  -6.0279

     occupation numbers 
     1.0000   1.0000   1.0000   1.0000   1.0000   1.0000   1.0000   1.0000
     1.0000   1.0000   1.0000   1.0000   1.0000   1.0000   1.0000   1.0000
     1.0000   1.0000   1.0000   1.0000   1.0000

     highest occupied level (ev):    -5.4198

!    total energy              =    -263.32560580 Ry
     estimated scf accuracy    <          1.4E-11 Ry

     The total energy is the sum of the following terms:
     one-electron contribution =   -4604.18948183 Ry
     hartree contribution      =    2298.65103308 Ry
     xc contribution           =     -44.84066327 Ry
     ewald contribution        =    2087.05350622 Ry

     convergence has been achieved in  20 iterations

     Forces acting on atoms (cartesian axes, Ry/au):

     atom    1 type  1   force =     0.00000940   -0.00000587   -0.00050697
     atom    2 type  3   force =    -0.00002210    0.00001313    0.00459412
     atom    3 type  3   force =    -0.00003038    0.00001673   -0.00347026
     atom    4 type  3   force =     0.00001701   -0.00000869    0.00293416
     atom    5 type  3   force =    -0.00000369    0.00000147   -0.00261187
     atom    6 type  2   force =     0.00000477   -0.00000342   -0.00814029
     atom    7 type  2   force =     0.00002500   -0.00001335    0.00720111
     The non-local contrib.  to forces
     atom    1 type  1   force =    -0.00000849    0.00000517   -0.00563297
     atom    2 type  3   force =    -0.00008887    0.00005769   -0.07576653
     atom    3 type  3   force =    -0.00009966    0.00004610    0.10086569
     atom    4 type  3   force =    -0.00006758    0.00004148   -0.86896027
     atom    5 type  3   force =    -0.00011603    0.00006569    0.83803600
     atom    6 type  2   force =    -0.00007693    0.00004772   -0.12299712
     atom    7 type  2   force =    -0.00001903    0.00000490    0.10369358
     The ionic contribution  to forces
     atom    1 type  1   force =    -0.00051274    0.00029616   -0.19298001
     atom    2 type  3   force =     0.00025319   -0.00016740  -43.58638458
     atom    3 type  3   force =     0.00012487   -0.00004234   43.75090706
     atom    4 type  3   force =     0.00005781   -0.00002974   90.23912926
     atom    5 type  3   force =     0.00012753   -0.00007613  -90.11584524
     atom    6 type  2   force =    -0.00004740    0.00003875  -62.68465327
     atom    7 type  2   force =    -0.00000327   -0.00001931   62.58982678
     The local contribution  to forces
     atom    1 type  1   force =     0.00048473   -0.00028060    0.19806436
     atom    2 type  3   force =    -0.00023242    0.00014946   43.66670328
     atom    3 type  3   force =    -0.00010159    0.00003958  -43.85529529
     atom    4 type  3   force =    -0.00001921    0.00000616  -89.36728520
     atom    5 type  3   force =    -0.00006117    0.00003851   89.27515146
     atom    6 type  2   force =     0.00008312   -0.00006329   62.79946438
     atom    7 type  2   force =     0.00000132    0.00002765  -62.68636977
     The core correction contribution to forces
     atom    1 type  1   force =     0.00000000    0.00000000    0.00000000
     atom    2 type  3   force =     0.00000000    0.00000000    0.00000000
     atom    3 type  3   force =     0.00000000    0.00000000    0.00000000
     atom    4 type  3   force =     0.00000000    0.00000000    0.00000000
     atom    5 type  3   force =     0.00000000    0.00000000    0.00000000
     atom    6 type  2   force =     0.00000000    0.00000000    0.00000000
     atom    7 type  2   force =     0.00000000    0.00000000    0.00000000
     The Hubbard contrib.    to forces
     atom    1 type  1   force =     0.00000000    0.00000000    0.00000000
     atom    2 type  3   force =     0.00000000    0.00000000    0.00000000
     atom    3 type  3   force =     0.00000000    0.00000000    0.00000000
     atom    4 type  3   force =     0.00000000    0.00000000    0.00000000
     atom    5 type  3   force =     0.00000000    0.00000000    0.00000000
     atom    6 type  2   force =     0.00000000    0.00000000    0.00000000
     atom    7 type  2   force =     0.00000000    0.00000000    0.00000000
     The SCF correction term to forces
     atom    1 type  1   force =    -0.00000007   -0.00000001   -0.00000712
     atom    2 type  3   force =     0.00000002   -0.00000003   -0.00000684
     atom    3 type  3   force =     0.00000001   -0.00000001    0.00000350
     atom    4 type  3   force =    -0.00000000    0.00000000    0.00000159
     atom    5 type  3   force =     0.00000000    0.00000000   -0.00000287
     atom    6 type  2   force =     0.00000000   -0.00000000   -0.00000307
     atom    7 type  2   force =    -0.00000000   -0.00000000    0.00000174

     Total force =     0.012921     Total SCF correction =     0.000012
     Energy error            =      2.6E-04 Ry
     Gradient error          =      8.1E-03 Ry/Bohr

     number of scf cycles    =   2
     number of bfgs steps    =   1

     energy             old  =    -263.3253497842 Ry
     energy             new  =    -263.3256057960 Ry

     CASE: energy            _new < energy            _old

     new trust radius        =       0.0054463534 bohr
     new conv_thr            =            2.6E-12 Ry


ATOMIC_POSITIONS (crystal)
Cr               0.8571367791        0.1428460767        0.4278018106
N                0.5237838567        0.4762007052        0.3727341706
N                0.5237898983        0.4761912929        0.4835771467
N                0.8571356901        0.1428323340        0.5945676376
N                0.1904689551        0.8095226421        0.2627844164
Si               0.5238115724        0.4761799397        0.2889587906
Si               0.5238072483        0.4761610095        0.5679400277



     Writing config-only to output data dir ./tmp/crsi2n4.save/ :
     XML data file
     NEW-OLD atomic charge density approx. for the potential

     total cpu time spent up to now is      222.8 secs

     Self-consistent Calculation
[tb_dev] Currently allocated     0.00E+00 Mbytes, locked:    0 /   0
[tb_pin] Currently allocated     0.00E+00 Mbytes, locked:    0 /   0

     iteration #  1     ecut=    60.00 Ry     beta= 0.50
     Davidson diagonalization with overlap

---- Real-time Memory Report at c_bands before calling an iterative solver
           862 MiB given to the printing process from OS
             0 MiB allocation reported by mallinfo(arena+hblkhd)
          8443 MiB available memory on the node where the printing process lives
     GPU memory used/free/total (MiB): 1849 / 10064 / 11914
------------------
     ethr =  1.00E-06,  avg # of iterations =  3.0

     Threshold (ethr) on eigenvalues was too large:
     Diagonalizing with lowered threshold

     Davidson diagonalization with overlap

---- Real-time Memory Report at c_bands before calling an iterative solver
           862 MiB given to the printing process from OS
             0 MiB allocation reported by mallinfo(arena+hblkhd)
          8445 MiB available memory on the node where the printing process lives
     GPU memory used/free/total (MiB): 1849 / 10064 / 11914
------------------
     ethr =  8.46E-08,  avg # of iterations =  3.2

     total cpu time spent up to now is      231.1 secs

     total energy              =    -263.32566815 Ry
     estimated scf accuracy    <       0.00004019 Ry
[tb_dev] Currently allocated     2.67E-05 Mbytes, locked:    0 /   1
[tb_pin] Currently allocated     0.00E+00 Mbytes, locked:    0 /   0

     iteration #  2     ecut=    60.00 Ry     beta= 0.50
     Davidson diagonalization with overlap

---- Real-time Memory Report at c_bands before calling an iterative solver
           862 MiB given to the printing process from OS
             0 MiB allocation reported by mallinfo(arena+hblkhd)
          8446 MiB available memory on the node where the printing process lives
     GPU memory used/free/total (MiB): 1849 / 10064 / 11914
------------------
     ethr =  9.57E-08,  avg # of iterations =  7.8

     total cpu time spent up to now is      237.9 secs

     total energy              =    -263.32566386 Ry
     estimated scf accuracy    <       0.00020459 Ry
[tb_dev] Currently allocated     2.67E-05 Mbytes, locked:    0 /   1
[tb_pin] Currently allocated     0.00E+00 Mbytes, locked:    0 /   0

     iteration #  3     ecut=    60.00 Ry     beta= 0.50
     Davidson diagonalization with overlap

---- Real-time Memory Report at c_bands before calling an iterative solver
           862 MiB given to the printing process from OS
             0 MiB allocation reported by mallinfo(arena+hblkhd)
         10068 MiB available memory on the node where the printing process lives
     GPU memory used/free/total (MiB): 1849 / 10064 / 11914
------------------
     ethr =  9.57E-08,  avg # of iterations =  6.4

     total cpu time spent up to now is      243.7 secs

     total energy              =    -263.32568661 Ry
     estimated scf accuracy    <       0.00000276 Ry
[tb_dev] Currently allocated     2.67E-05 Mbytes, locked:    0 /   1
[tb_pin] Currently allocated     0.00E+00 Mbytes, locked:    0 /   0

     iteration #  4     ecut=    60.00 Ry     beta= 0.50
     Davidson diagonalization with overlap

---- Real-time Memory Report at c_bands before calling an iterative solver
           862 MiB given to the printing process from OS
             0 MiB allocation reported by mallinfo(arena+hblkhd)
          9271 MiB available memory on the node where the printing process lives
     GPU memory used/free/total (MiB): 1849 / 10064 / 11914
------------------
     ethr =  6.58E-09,  avg # of iterations =  7.4

     total cpu time spent up to now is      250.3 secs

     total energy              =    -263.32568725 Ry
     estimated scf accuracy    <       0.00000800 Ry
[tb_dev] Currently allocated     2.67E-05 Mbytes, locked:    0 /   1
[tb_pin] Currently allocated     0.00E+00 Mbytes, locked:    0 /   0

     iteration #  5     ecut=    60.00 Ry     beta= 0.50
     Davidson diagonalization with overlap

---- Real-time Memory Report at c_bands before calling an iterative solver
           862 MiB given to the printing process from OS
             0 MiB allocation reported by mallinfo(arena+hblkhd)
          9271 MiB available memory on the node where the printing process lives
     GPU memory used/free/total (MiB): 1849 / 10064 / 11914
------------------
     ethr =  6.58E-09,  avg # of iterations =  5.9

     total cpu time spent up to now is      255.7 secs

     total energy              =    -263.32568827 Ry
     estimated scf accuracy    <       0.00000180 Ry
[tb_dev] Currently allocated     2.67E-05 Mbytes, locked:    0 /   1
[tb_pin] Currently allocated     0.00E+00 Mbytes, locked:    0 /   0

     iteration #  6     ecut=    60.00 Ry     beta= 0.50
     Davidson diagonalization with overlap

---- Real-time Memory Report at c_bands before calling an iterative solver
           862 MiB given to the printing process from OS
             0 MiB allocation reported by mallinfo(arena+hblkhd)
          9270 MiB available memory on the node where the printing process lives
     GPU memory used/free/total (MiB): 1849 / 10064 / 11914
------------------
     ethr =  4.29E-09,  avg # of iterations =  2.0

     total cpu time spent up to now is      258.8 secs

     total energy              =    -263.32568825 Ry
     estimated scf accuracy    <       0.00000048 Ry
[tb_dev] Currently allocated     2.67E-05 Mbytes, locked:    0 /   1
[tb_pin] Currently allocated     0.00E+00 Mbytes, locked:    0 /   0

     iteration #  7     ecut=    60.00 Ry     beta= 0.50
     Davidson diagonalization with overlap

---- Real-time Memory Report at c_bands before calling an iterative solver
           862 MiB given to the printing process from OS
             0 MiB allocation reported by mallinfo(arena+hblkhd)
          9268 MiB available memory on the node where the printing process lives
     GPU memory used/free/total (MiB): 1849 / 10064 / 11914
------------------
     ethr =  1.14E-09,  avg # of iterations =  6.7

     total cpu time spent up to now is      264.7 secs

     total energy              =    -263.32568845 Ry
     estimated scf accuracy    <       0.00000045 Ry
[tb_dev] Currently allocated     2.67E-05 Mbytes, locked:    0 /   1
[tb_pin] Currently allocated     0.00E+00 Mbytes, locked:    0 /   0

     iteration #  8     ecut=    60.00 Ry     beta= 0.50
     Davidson diagonalization with overlap

---- Real-time Memory Report at c_bands before calling an iterative solver
           862 MiB given to the printing process from OS
             0 MiB allocation reported by mallinfo(arena+hblkhd)
          9261 MiB available memory on the node where the printing process lives
     GPU memory used/free/total (MiB): 1849 / 10064 / 11914
------------------
     ethr =  1.07E-09,  avg # of iterations =  1.0

     total cpu time spent up to now is      267.3 secs

     total energy              =    -263.32568839 Ry
     estimated scf accuracy    <       0.00000025 Ry
[tb_dev] Currently allocated     2.67E-05 Mbytes, locked:    0 /   1
[tb_pin] Currently allocated     0.00E+00 Mbytes, locked:    0 /   0

     iteration #  9     ecut=    60.00 Ry     beta= 0.50
     Davidson diagonalization with overlap

---- Real-time Memory Report at c_bands before calling an iterative solver
           862 MiB given to the printing process from OS
             0 MiB allocation reported by mallinfo(arena+hblkhd)
          9269 MiB available memory on the node where the printing process lives
     GPU memory used/free/total (MiB): 1849 / 10064 / 11914
------------------
     ethr =  6.03E-10,  avg # of iterations =  5.3

     total cpu time spent up to now is      272.4 secs

     total energy              =    -263.32568845 Ry
     estimated scf accuracy    <       0.00000002 Ry
[tb_dev] Currently allocated     2.67E-05 Mbytes, locked:    0 /   1
[tb_pin] Currently allocated     0.00E+00 Mbytes, locked:    0 /   0

     iteration # 10     ecut=    60.00 Ry     beta= 0.50
     Davidson diagonalization with overlap

---- Real-time Memory Report at c_bands before calling an iterative solver
           865 MiB given to the printing process from OS
             0 MiB allocation reported by mallinfo(arena+hblkhd)
          9167 MiB available memory on the node where the printing process lives
     GPU memory used/free/total (MiB): 1849 / 10064 / 11914
------------------
     ethr =  4.17E-11,  avg # of iterations =  4.9

     total cpu time spent up to now is      277.2 secs

     total energy              =    -263.32568845 Ry
     estimated scf accuracy    <          4.2E-09 Ry
[tb_dev] Currently allocated     2.67E-05 Mbytes, locked:    0 /   1
[tb_pin] Currently allocated     0.00E+00 Mbytes, locked:    0 /   0

     iteration # 11     ecut=    60.00 Ry     beta= 0.50
     Davidson diagonalization with overlap

---- Real-time Memory Report at c_bands before calling an iterative solver
           866 MiB given to the printing process from OS
             0 MiB allocation reported by mallinfo(arena+hblkhd)
          8893 MiB available memory on the node where the printing process lives
     GPU memory used/free/total (MiB): 1849 / 10064 / 11914
------------------
     ethr =  1.00E-11,  avg # of iterations =  6.0

     total cpu time spent up to now is      282.9 secs

     total energy              =    -263.32568845 Ry
     estimated scf accuracy    <          7.9E-10 Ry
[tb_dev] Currently allocated     2.67E-05 Mbytes, locked:    0 /   1
[tb_pin] Currently allocated     0.00E+00 Mbytes, locked:    0 /   0

     iteration # 12     ecut=    60.00 Ry     beta= 0.50
     Davidson diagonalization with overlap

---- Real-time Memory Report at c_bands before calling an iterative solver
           866 MiB given to the printing process from OS
             0 MiB allocation reported by mallinfo(arena+hblkhd)
          8454 MiB available memory on the node where the printing process lives
     GPU memory used/free/total (MiB): 1849 / 10064 / 11914
------------------
     ethr =  1.89E-12,  avg # of iterations =  4.4

     total cpu time spent up to now is      287.7 secs

     total energy              =    -263.32568845 Ry
     estimated scf accuracy    <          1.1E-10 Ry
[tb_dev] Currently allocated     2.67E-05 Mbytes, locked:    0 /   1
[tb_pin] Currently allocated     0.00E+00 Mbytes, locked:    0 /   0

     iteration # 13     ecut=    60.00 Ry     beta= 0.50
     Davidson diagonalization with overlap

---- Real-time Memory Report at c_bands before calling an iterative solver
           866 MiB given to the printing process from OS
             0 MiB allocation reported by mallinfo(arena+hblkhd)
          8451 MiB available memory on the node where the printing process lives
     GPU memory used/free/total (MiB): 1849 / 10064 / 11914
------------------
     ethr =  2.55E-13,  avg # of iterations =  7.6

     total cpu time spent up to now is      294.8 secs

     total energy              =    -263.32568845 Ry
     estimated scf accuracy    <          3.3E-10 Ry
[tb_dev] Currently allocated     2.67E-05 Mbytes, locked:    0 /   1
[tb_pin] Currently allocated     0.00E+00 Mbytes, locked:    0 /   0

     iteration # 14     ecut=    60.00 Ry     beta= 0.50
     Davidson diagonalization with overlap

---- Real-time Memory Report at c_bands before calling an iterative solver
           866 MiB given to the printing process from OS
             0 MiB allocation reported by mallinfo(arena+hblkhd)
          8451 MiB available memory on the node where the printing process lives
     GPU memory used/free/total (MiB): 1849 / 10064 / 11914
------------------
     ethr =  2.55E-13,  avg # of iterations =  3.8

     total cpu time spent up to now is      298.9 secs

     total energy              =    -263.32568845 Ry
     estimated scf accuracy    <          9.6E-11 Ry
[tb_dev] Currently allocated     2.67E-05 Mbytes, locked:    0 /   1
[tb_pin] Currently allocated     0.00E+00 Mbytes, locked:    0 /   0

     iteration # 15     ecut=    60.00 Ry     beta= 0.50
     Davidson diagonalization with overlap

---- Real-time Memory Report at c_bands before calling an iterative solver
           868 MiB given to the printing process from OS
             0 MiB allocation reported by mallinfo(arena+hblkhd)
          8450 MiB available memory on the node where the printing process lives
     GPU memory used/free/total (MiB): 1849 / 10064 / 11914
------------------
     ethr =  2.29E-13,  avg # of iterations =  6.6

     total cpu time spent up to now is      304.8 secs

     total energy              =    -263.32568845 Ry
     estimated scf accuracy    <          7.8E-11 Ry
[tb_dev] Currently allocated     2.67E-05 Mbytes, locked:    0 /   1
[tb_pin] Currently allocated     0.00E+00 Mbytes, locked:    0 /   0

     iteration # 16     ecut=    60.00 Ry     beta= 0.50
     Davidson diagonalization with overlap

---- Real-time Memory Report at c_bands before calling an iterative solver
           868 MiB given to the printing process from OS
             0 MiB allocation reported by mallinfo(arena+hblkhd)
          8450 MiB available memory on the node where the printing process lives
     GPU memory used/free/total (MiB): 1849 / 10064 / 11914
------------------
     ethr =  1.86E-13,  avg # of iterations =  1.0

     total cpu time spent up to now is      307.4 secs

     total energy              =    -263.32568845 Ry
     estimated scf accuracy    <          5.3E-11 Ry
[tb_dev] Currently allocated     2.67E-05 Mbytes, locked:    0 /   1
[tb_pin] Currently allocated     0.00E+00 Mbytes, locked:    0 /   0

     iteration # 17     ecut=    60.00 Ry     beta= 0.50
     Davidson diagonalization with overlap

---- Real-time Memory Report at c_bands before calling an iterative solver
           868 MiB given to the printing process from OS
             0 MiB allocation reported by mallinfo(arena+hblkhd)
          8450 MiB available memory on the node where the printing process lives
     GPU memory used/free/total (MiB): 1849 / 10064 / 11914
------------------
     ethr =  1.26E-13,  avg # of iterations =  4.8

     total cpu time spent up to now is      312.1 secs

     total energy              =    -263.32568845 Ry
     estimated scf accuracy    <          3.4E-12 Ry
[tb_dev] Currently allocated     2.67E-05 Mbytes, locked:    0 /   1
[tb_pin] Currently allocated     0.00E+00 Mbytes, locked:    0 /   0

     iteration # 18     ecut=    60.00 Ry     beta= 0.50
     Davidson diagonalization with overlap

---- Real-time Memory Report at c_bands before calling an iterative solver
           868 MiB given to the printing process from OS
             0 MiB allocation reported by mallinfo(arena+hblkhd)
          8449 MiB available memory on the node where the printing process lives
     GPU memory used/free/total (MiB): 1849 / 10064 / 11914
------------------
     ethr =  1.00E-13,  avg # of iterations =  1.0

     total cpu time spent up to now is      314.7 secs

     total energy              =    -263.32568845 Ry
     estimated scf accuracy    <          4.7E-12 Ry
[tb_dev] Currently allocated     2.67E-05 Mbytes, locked:    0 /   1
[tb_pin] Currently allocated     0.00E+00 Mbytes, locked:    0 /   0

     iteration # 19     ecut=    60.00 Ry     beta= 0.50
     Davidson diagonalization with overlap

---- Real-time Memory Report at c_bands before calling an iterative solver
           868 MiB given to the printing process from OS
             0 MiB allocation reported by mallinfo(arena+hblkhd)
          8448 MiB available memory on the node where the printing process lives
     GPU memory used/free/total (MiB): 1849 / 10064 / 11914
------------------
     ethr =  1.00E-13,  avg # of iterations =  1.0

     total cpu time spent up to now is      317.3 secs

     total energy              =    -263.32568845 Ry
     estimated scf accuracy    <          2.6E-12 Ry
[tb_dev] Currently allocated     2.67E-05 Mbytes, locked:    0 /   1
[tb_pin] Currently allocated     0.00E+00 Mbytes, locked:    0 /   0

     iteration # 20     ecut=    60.00 Ry     beta= 0.50
     Davidson diagonalization with overlap

---- Real-time Memory Report at c_bands before calling an iterative solver
           868 MiB given to the printing process from OS
             0 MiB allocation reported by mallinfo(arena+hblkhd)
          8448 MiB available memory on the node where the printing process lives
     GPU memory used/free/total (MiB): 1849 / 10064 / 11914
------------------
     ethr =  1.00E-13,  avg # of iterations =  1.0

     total cpu time spent up to now is      319.9 secs

     End of self-consistent calculation

          k = 0.0000 0.0000 0.0000 (  7657 PWs)   bands (ev):

   -77.8140 -49.0156 -49.0156 -48.9880 -24.6923 -24.6102 -21.9167 -20.4974
   -14.1299 -11.4619  -9.5149  -9.2320  -9.2319  -9.1685  -9.1684  -8.8648
    -8.8646  -7.5581  -7.5575  -7.5568  -5.3821

     occupation numbers 
     1.0000   1.0000   1.0000   1.0000   1.0000   1.0000   1.0000   1.0000
     1.0000   1.0000   1.0000   1.0000   1.0000   1.0000   1.0000   1.0000
     1.0000   1.0000   1.0000   1.0000   1.0000

          k = 0.0000 0.1050 0.0000 (  7619 PWs)   bands (ev):

   -77.8108 -49.0398 -49.0211 -48.9836 -24.5461 -24.4664 -21.8027 -20.4354
   -14.0110 -11.4087  -9.9442  -9.8343  -9.3544  -9.3145  -9.2784  -9.1311
    -8.7799  -7.8546  -7.7069  -7.3495  -5.4931

     occupation numbers 
     1.0000   1.0000   1.0000   1.0000   1.0000   1.0000   1.0000   1.0000
     1.0000   1.0000   1.0000   1.0000   1.0000   1.0000   1.0000   1.0000
     1.0000   1.0000   1.0000   1.0000   1.0000

          k = 0.0000 0.2099 0.0000 (  7593 PWs)   bands (ev):

   -77.8024 -49.1041 -49.0357 -48.9718 -24.1198 -24.0467 -21.4888 -20.2677
   -13.7189 -11.4501 -11.2404 -11.1256  -9.7599  -9.6858  -9.6742  -9.0583
    -8.5151  -8.2635  -8.0629  -7.4517  -5.8701

     occupation numbers 
     1.0000   1.0000   1.0000   1.0000   1.0000   1.0000   1.0000   1.0000
     1.0000   1.0000   1.0000   1.0000   1.0000   1.0000   1.0000   1.0000
     1.0000   1.0000   1.0000   1.0000   1.0000

          k = 0.0000 0.3149 0.0000 (  7563 PWs)   bands (ev):

   -77.7912 -49.1876 -49.0547 -48.9562 -23.4563 -23.3931 -21.0634 -20.0534
   -13.6801 -12.9951 -12.4648 -11.0981 -10.4548 -10.0968 -10.0775  -8.9025
    -8.7073  -8.4762  -8.1234  -7.6474  -6.2726

     occupation numbers 
     1.0000   1.0000   1.0000   1.0000   1.0000   1.0000   1.0000   1.0000
     1.0000   1.0000   1.0000   1.0000   1.0000   1.0000   1.0000   1.0000
     1.0000   1.0000   1.0000   1.0000   1.0000

          k = 0.0000 0.4199 0.0000 (  7528 PWs)   bands (ev):

   -77.7810 -49.2635 -49.0721 -48.9419 -22.6602 -22.6099 -20.6870 -19.9015
   -14.7172 -14.4452 -12.5056 -11.2960 -10.8889 -10.4394 -10.4064  -9.3311
    -8.8001  -8.4625  -7.7456  -7.7311  -6.4043

     occupation numbers 
     1.0000   1.0000   1.0000   1.0000   1.0000   1.0000   1.0000   1.0000
     1.0000   1.0000   1.0000   1.0000   1.0000   1.0000   1.0000   1.0000
     1.0000   1.0000   1.0000   1.0000   1.0000

          k = 0.0000 0.5249 0.0000 (  7518 PWs)   bands (ev):

   -77.7749 -49.3083 -49.0824 -48.9334 -21.9993 -21.9631 -20.5383 -19.9039
   -15.5687 -15.3267 -12.3329 -11.6934 -11.0452 -10.6287 -10.5885  -9.4959
    -8.9794  -8.2002  -7.7433  -7.5047  -6.3608

     occupation numbers 
     1.0000   1.0000   1.0000   1.0000   1.0000   1.0000   1.0000   1.0000
     1.0000   1.0000   1.0000   1.0000   1.0000   1.0000   1.0000   1.0000
     1.0000   1.0000   1.0000   1.0000   1.0000

          k = 0.0909 0.1575 0.0000 (  7591 PWs)   bands (ev):

   -77.8050 -49.0825 -49.0325 -48.9755 -24.2598 -24.1845 -21.5886 -20.3203
   -13.8027 -11.3370 -10.7981 -10.7733  -9.8187  -9.6657  -9.4026  -9.1194
    -8.6312  -8.1195  -8.0131  -7.3348  -5.7466

     occupation numbers 
     1.0000   1.0000   1.0000   1.0000   1.0000   1.0000   1.0000   1.0000
     1.0000   1.0000   1.0000   1.0000   1.0000   1.0000   1.0000   1.0000
     1.0000   1.0000   1.0000   1.0000   1.0000

          k = 0.0909 0.2624 0.0000 (  7569 PWs)   bands (ev):

   -77.7952 -49.1528 -49.0530 -48.9618 -23.7132 -23.6461 -21.2168 -20.1267
   -13.5639 -12.2731 -12.0090 -11.1064 -10.4728 -10.2192  -9.8958  -8.8957
    -8.7764  -8.3485  -8.1499  -7.5198  -6.1515

     occupation numbers 
     1.0000   1.0000   1.0000   1.0000   1.0000   1.0000   1.0000   1.0000
     1.0000   1.0000   1.0000   1.0000   1.0000   1.0000   1.0000   1.0000
     1.0000   1.0000   1.0000   1.0000   1.0000

          k = 0.0909 0.3674 0.0000 (  7562 PWs)   bands (ev):

   -77.7845 -49.2284 -49.0753 -48.9469 -22.9746 -22.9188 -20.8093 -19.9365
   -14.1115 -13.7439 -12.5168 -11.1857 -10.9010 -10.6915 -10.4267  -9.4184
    -8.6446  -8.3513  -8.0578  -7.6913  -6.3950

     occupation numbers 
     1.0000   1.0000   1.0000   1.0000   1.0000   1.0000   1.0000   1.0000
     1.0000   1.0000   1.0000   1.0000   1.0000   1.0000   1.0000   1.0000
     1.0000   1.0000   1.0000   1.0000   1.0000

          k = 0.0909 0.4724 0.0000 (  7517 PWs)   bands (ev):

   -77.7764 -49.2855 -49.0924 -48.9355 -22.2100 -22.1682 -20.5482 -19.8651
   -15.1441 -14.8964 -12.3560 -11.5935 -11.1298 -10.8775 -10.8426  -9.6452
    -8.8205  -8.2573  -7.9319  -7.6308  -6.3545

     occupation numbers 
     1.0000   1.0000   1.0000   1.0000   1.0000   1.0000   1.0000   1.0000
     1.0000   1.0000   1.0000   1.0000   1.0000   1.0000   1.0000   1.0000
     1.0000   1.0000   1.0000   1.0000   1.0000

          k = 0.0909 0.5774 0.0000 (  7510 PWs)   bands (ev):

   -77.7733 -49.3067 -49.0987 -48.9312 -21.8253 -21.7918 -20.5068 -19.8969
   -15.5844 -15.3421 -12.2446 -11.7981 -11.2039 -11.0861 -10.9209  -9.6021
    -9.0164  -8.1187  -7.8769  -7.5934  -6.2805

     occupation numbers 
     1.0000   1.0000   1.0000   1.0000   1.0000   1.0000   1.0000   1.0000
     1.0000   1.0000   1.0000   1.0000   1.0000   1.0000   1.0000   1.0000
     1.0000   1.0000   1.0000   1.0000   1.0000

          k = 0.1818 0.3149 0.0000 (  7565 PWs)   bands (ev):

   -77.7858 -49.2085 -49.0834 -48.9487 -23.0862 -23.0284 -20.8577 -19.9511
   -13.7947 -13.2850 -12.3959 -11.3923 -11.2330 -10.8455 -10.2881  -9.5526
    -8.6537  -8.3486  -7.9840  -7.7366  -6.3921

     occupation numbers 
     1.0000   1.0000   1.0000   1.0000   1.0000   1.0000   1.0000   1.0000
     1.0000   1.0000   1.0000   1.0000   1.0000   1.0000   1.0000   1.0000
     1.0000   1.0000   1.0000   1.0000   1.0000

          k = 0.1818 0.4199 0.0000 (  7510 PWs)   bands (ev):

   -77.7772 -49.2554 -49.1151 -48.9367 -22.3475 -22.3018 -20.5556 -19.8326
   -14.5643 -14.2766 -12.3550 -12.0663 -11.8931 -10.8320 -10.6770  -9.9853
    -8.6343  -8.5113  -8.0856  -7.6777  -6.3640

     occupation numbers 
     1.0000   1.0000   1.0000   1.0000   1.0000   1.0000   1.0000   1.0000
     1.0000   1.0000   1.0000   1.0000   1.0000   1.0000   1.0000   1.0000
     1.0000   1.0000   1.0000   1.0000   1.0000

          k = 0.1818 0.5249 0.0000 (  7532 PWs)   bands (ev):

   -77.7721 -49.2819 -49.1352 -48.9295 -21.7524 -21.7181 -20.4478 -19.8370
   -15.1896 -14.9413 -12.5843 -12.3984 -11.7401 -11.1886 -10.9992  -9.7943
    -9.0120  -8.6512  -8.0307  -7.5047  -6.1843

     occupation numbers 
     1.0000   1.0000   1.0000   1.0000   1.0000   1.0000   1.0000   1.0000
     1.0000   1.0000   1.0000   1.0000   1.0000   1.0000   1.0000   1.0000
     1.0000   1.0000   1.0000   1.0000   1.0000

          k = 0.2727 0.4724 0.0000 (  7553 PWs)   bands (ev):

   -77.7717 -49.2606 -49.1610 -48.9289 -21.7407 -21.7055 -20.4165 -19.8008
   -14.7992 -14.5201 -13.1728 -13.0304 -11.8078 -11.0485 -10.7730  -9.9743
    -9.3228  -8.7492  -8.0503  -7.4840  -6.1467

     occupation numbers 
     1.0000   1.0000   1.0000   1.0000   1.0000   1.0000   1.0000   1.0000
     1.0000   1.0000   1.0000   1.0000   1.0000   1.0000   1.0000   1.0000
     1.0000   1.0000   1.0000   1.0000   1.0000

          k = 0.2727 0.5774 0.0000 (  7528 PWs)   bands (ev):

   -77.7696 -49.2549 -49.1858 -48.9260 -21.4619 -21.4269 -20.4015 -19.8160
   -14.8318 -14.5472 -13.6098 -13.5075 -11.4961 -11.2271 -10.8633  -9.8976
    -9.5311  -9.0717  -7.9770  -7.3816  -5.9948

     occupation numbers 
     1.0000   1.0000   1.0000   1.0000   1.0000   1.0000   1.0000   1.0000
     1.0000   1.0000   1.0000   1.0000   1.0000   1.0000   1.0000   1.0000
     1.0000   1.0000   1.0000   1.0000   1.0000

          k =-0.0909 0.0525 0.0000 (  7619 PWs)   bands (ev):

   -77.8108 -49.0398 -49.0211 -48.9836 -24.5461 -24.4664 -21.8027 -20.4354
   -14.0110 -11.4086  -9.9442  -9.8344  -9.3543  -9.3145  -9.2784  -9.1312
    -8.7797  -7.8542  -7.7073  -7.3496  -5.4930

     occupation numbers 
     1.0000   1.0000   1.0000   1.0000   1.0000   1.0000   1.0000   1.0000
     1.0000   1.0000   1.0000   1.0000   1.0000   1.0000   1.0000   1.0000
     1.0000   1.0000   1.0000   1.0000   1.0000

          k = 0.0909 0.0525 0.0000 (  7619 PWs)   bands (ev):

   -77.8108 -49.0398 -49.0211 -48.9836 -24.5461 -24.4664 -21.8027 -20.4354
   -14.0110 -11.4087  -9.9442  -9.8343  -9.3544  -9.3145  -9.2784  -9.1311
    -8.7799  -7.8546  -7.7068  -7.3496  -5.4931

     occupation numbers 
     1.0000   1.0000   1.0000   1.0000   1.0000   1.0000   1.0000   1.0000
     1.0000   1.0000   1.0000   1.0000   1.0000   1.0000   1.0000   1.0000
     1.0000   1.0000   1.0000   1.0000   1.0000

          k =-0.1818 0.1050 0.0000 (  7593 PWs)   bands (ev):

   -77.8024 -49.1041 -49.0357 -48.9718 -24.1198 -24.0467 -21.4888 -20.2677
   -13.7189 -11.4501 -11.2405 -11.1256  -9.7601  -9.6856  -9.6743  -9.0583
    -8.5150  -8.2632  -8.0632  -7.4519  -5.8700

     occupation numbers 
     1.0000   1.0000   1.0000   1.0000   1.0000   1.0000   1.0000   1.0000
     1.0000   1.0000   1.0000   1.0000   1.0000   1.0000   1.0000   1.0000
     1.0000   1.0000   1.0000   1.0000   1.0000

          k = 0.1818 0.1050 0.0000 (  7593 PWs)   bands (ev):

   -77.8024 -49.1041 -49.0357 -48.9718 -24.1198 -24.0467 -21.4888 -20.2677
   -13.7189 -11.4501 -11.2404 -11.1256  -9.7599  -9.6858  -9.6742  -9.0583
    -8.5151  -8.2635  -8.0629  -7.4517  -5.8701

     occupation numbers 
     1.0000   1.0000   1.0000   1.0000   1.0000   1.0000   1.0000   1.0000
     1.0000   1.0000   1.0000   1.0000   1.0000   1.0000   1.0000   1.0000
     1.0000   1.0000   1.0000   1.0000   1.0000

          k =-0.2727 0.1575 0.0000 (  7563 PWs)   bands (ev):

   -77.7912 -49.1876 -49.0547 -48.9562 -23.4563 -23.3931 -21.0634 -20.0534
   -13.6801 -12.9951 -12.4648 -11.0979 -10.4549 -10.0967 -10.0776  -8.9025
    -8.7072  -8.4765  -8.1232  -7.6475  -6.2724

     occupation numbers 
     1.0000   1.0000   1.0000   1.0000   1.0000   1.0000   1.0000   1.0000
     1.0000   1.0000   1.0000   1.0000   1.0000   1.0000   1.0000   1.0000
     1.0000   1.0000   1.0000   1.0000   1.0000

          k = 0.2727 0.1575 0.0000 (  7563 PWs)   bands (ev):

   -77.7912 -49.1876 -49.0547 -48.9562 -23.4563 -23.3931 -21.0634 -20.0534
   -13.6801 -12.9951 -12.4648 -11.0980 -10.4548 -10.0968 -10.0775  -8.9025
    -8.7072  -8.4762  -8.1233  -7.6474  -6.2726

     occupation numbers 
     1.0000   1.0000   1.0000   1.0000   1.0000   1.0000   1.0000   1.0000
     1.0000   1.0000   1.0000   1.0000   1.0000   1.0000   1.0000   1.0000
     1.0000   1.0000   1.0000   1.0000   1.0000

          k =-0.3636 0.2099 0.0000 (  7528 PWs)   bands (ev):

   -77.7810 -49.2635 -49.0721 -48.9419 -22.6602 -22.6099 -20.6871 -19.9014
   -14.7172 -14.4452 -12.5057 -11.2960 -10.8888 -10.4394 -10.4064  -9.3312
    -8.8003  -8.4624  -7.7455  -7.7312  -6.4041

     occupation numbers 
     1.0000   1.0000   1.0000   1.0000   1.0000   1.0000   1.0000   1.0000
     1.0000   1.0000   1.0000   1.0000   1.0000   1.0000   1.0000   1.0000
     1.0000   1.0000   1.0000   1.0000   1.0000

          k = 0.3636 0.2099 0.0000 (  7528 PWs)   bands (ev):

   -77.7810 -49.2635 -49.0721 -48.9419 -22.6602 -22.6099 -20.6870 -19.9015
   -14.7172 -14.4452 -12.5056 -11.2960 -10.8889 -10.4394 -10.4064  -9.3312
    -8.8001  -8.4624  -7.7456  -7.7311  -6.4043

     occupation numbers 
     1.0000   1.0000   1.0000   1.0000   1.0000   1.0000   1.0000   1.0000
     1.0000   1.0000   1.0000   1.0000   1.0000   1.0000   1.0000   1.0000
     1.0000   1.0000   1.0000   1.0000   1.0000

          k =-0.4545 0.2624 0.0000 (  7518 PWs)   bands (ev):

   -77.7749 -49.3083 -49.0824 -48.9334 -21.9993 -21.9631 -20.5384 -19.9038
   -15.5688 -15.3267 -12.3331 -11.6934 -11.0452 -10.6287 -10.5885  -9.4958
    -8.9796  -8.2001  -7.7435  -7.5047  -6.3606

     occupation numbers 
     1.0000   1.0000   1.0000   1.0000   1.0000   1.0000   1.0000   1.0000
     1.0000   1.0000   1.0000   1.0000   1.0000   1.0000   1.0000   1.0000
     1.0000   1.0000   1.0000   1.0000   1.0000

          k = 0.4545 0.2624 0.0000 (  7518 PWs)   bands (ev):

   -77.7749 -49.3083 -49.0824 -48.9334 -21.9993 -21.9631 -20.5383 -19.9039
   -15.5687 -15.3267 -12.3329 -11.6934 -11.0452 -10.6287 -10.5885  -9.4959
    -8.9794  -8.2002  -7.7433  -7.5047  -6.3608

     occupation numbers 
     1.0000   1.0000   1.0000   1.0000   1.0000   1.0000   1.0000   1.0000
     1.0000   1.0000   1.0000   1.0000   1.0000   1.0000   1.0000   1.0000
     1.0000   1.0000   1.0000   1.0000   1.0000

          k =-0.0909 0.1575 0.0000 (  7591 PWs)   bands (ev):

   -77.8050 -49.0825 -49.0325 -48.9755 -24.2598 -24.1845 -21.5886 -20.3203
   -13.8027 -11.3369 -10.7982 -10.7733  -9.8187  -9.6656  -9.4027  -9.1195
    -8.6310  -8.1198  -8.0127  -7.3350  -5.7465

     occupation numbers 
     1.0000   1.0000   1.0000   1.0000   1.0000   1.0000   1.0000   1.0000
     1.0000   1.0000   1.0000   1.0000   1.0000   1.0000   1.0000   1.0000
     1.0000   1.0000   1.0000   1.0000   1.0000

          k = 0.1818-0.0000 0.0000 (  7591 PWs)   bands (ev):

   -77.8050 -49.0825 -49.0325 -48.9755 -24.2598 -24.1845 -21.5886 -20.3203
   -13.8027 -11.3369 -10.7982 -10.7733  -9.8187  -9.6656  -9.4027  -9.1195
    -8.6310  -8.1198  -8.0127  -7.3350  -5.7465

     occupation numbers 
     1.0000   1.0000   1.0000   1.0000   1.0000   1.0000   1.0000   1.0000
     1.0000   1.0000   1.0000   1.0000   1.0000   1.0000   1.0000   1.0000
     1.0000   1.0000   1.0000   1.0000   1.0000

          k =-0.0909 0.2624 0.0000 (  7569 PWs)   bands (ev):

   -77.7952 -49.1528 -49.0530 -48.9618 -23.7132 -23.6461 -21.2168 -20.1267
   -13.5639 -12.2731 -12.0091 -11.1063 -10.4729 -10.2192  -9.8959  -8.8957
    -8.7765  -8.3484  -8.1496  -7.5201  -6.1514

     occupation numbers 
     1.0000   1.0000   1.0000   1.0000   1.0000   1.0000   1.0000   1.0000
     1.0000   1.0000   1.0000   1.0000   1.0000   1.0000   1.0000   1.0000
     1.0000   1.0000   1.0000   1.0000   1.0000

          k =-0.1818 0.2099 0.0000 (  7569 PWs)   bands (ev):

   -77.7952 -49.1528 -49.0530 -48.9618 -23.7132 -23.6461 -21.2168 -20.1267
   -13.5640 -12.2731 -12.0091 -11.1063 -10.4729 -10.2191  -9.8959  -8.8957
    -8.7765  -8.3484  -8.1497  -7.5201  -6.1513

     occupation numbers 
     1.0000   1.0000   1.0000   1.0000   1.0000   1.0000   1.0000   1.0000
     1.0000   1.0000   1.0000   1.0000   1.0000   1.0000   1.0000   1.0000
     1.0000   1.0000   1.0000   1.0000   1.0000

          k = 0.2727 0.0525 0.0000 (  7569 PWs)   bands (ev):

   -77.7952 -49.1528 -49.0530 -48.9618 -23.7132 -23.6461 -21.2168 -20.1267
   -13.5639 -12.2731 -12.0091 -11.1063 -10.4729 -10.2192  -9.8959  -8.8958
    -8.7765  -8.3484  -8.1496  -7.5201  -6.1514

     occupation numbers 
     1.0000   1.0000   1.0000   1.0000   1.0000   1.0000   1.0000   1.0000
     1.0000   1.0000   1.0000   1.0000   1.0000   1.0000   1.0000   1.0000
     1.0000   1.0000   1.0000   1.0000   1.0000

          k =-0.1818-0.2099 0.0000 (  7569 PWs)   bands (ev):

   -77.7952 -49.1528 -49.0530 -48.9618 -23.7132 -23.6461 -21.2168 -20.1267
   -13.5639 -12.2731 -12.0090 -11.1064 -10.4728 -10.2192  -9.8958  -8.8957
    -8.7764  -8.3485  -8.1499  -7.5198  -6.1515

     occupation numbers 
     1.0000   1.0000   1.0000   1.0000   1.0000   1.0000   1.0000   1.0000
     1.0000   1.0000   1.0000   1.0000   1.0000   1.0000   1.0000   1.0000
     1.0000   1.0000   1.0000   1.0000   1.0000

          k = 0.2727-0.0525 0.0000 (  7569 PWs)   bands (ev):

   -77.7952 -49.1528 -49.0530 -48.9618 -23.7132 -23.6461 -21.2168 -20.1267
   -13.5640 -12.2731 -12.0091 -11.1063 -10.4729 -10.2191  -9.8959  -8.8958
    -8.7765  -8.3484  -8.1497  -7.5201  -6.1513

     occupation numbers 
     1.0000   1.0000   1.0000   1.0000   1.0000   1.0000   1.0000   1.0000
     1.0000   1.0000   1.0000   1.0000   1.0000   1.0000   1.0000   1.0000
     1.0000   1.0000   1.0000   1.0000   1.0000

          k =-0.0909 0.3674 0.0000 (  7562 PWs)   bands (ev):

   -77.7845 -49.2283 -49.0753 -48.9469 -22.9746 -22.9188 -20.8093 -19.9365
   -14.1115 -13.7439 -12.5168 -11.1857 -10.9010 -10.6915 -10.4267  -9.4183
    -8.6446  -8.3513  -8.0578  -7.6914  -6.3948

     occupation numbers 
     1.0000   1.0000   1.0000   1.0000   1.0000   1.0000   1.0000   1.0000
     1.0000   1.0000   1.0000   1.0000   1.0000   1.0000   1.0000   1.0000
     1.0000   1.0000   1.0000   1.0000   1.0000

          k =-0.2727 0.2624 0.0000 (  7562 PWs)   bands (ev):

   -77.7845 -49.2283 -49.0753 -48.9469 -22.9746 -22.9188 -20.8093 -19.9364
   -14.1116 -13.7439 -12.5169 -11.1857 -10.9010 -10.6914 -10.4268  -9.4185
    -8.6447  -8.3514  -8.0578  -7.6914  -6.3947

     occupation numbers 
     1.0000   1.0000   1.0000   1.0000   1.0000   1.0000   1.0000   1.0000
     1.0000   1.0000   1.0000   1.0000   1.0000   1.0000   1.0000   1.0000
     1.0000   1.0000   1.0000   1.0000   1.0000

          k = 0.3636 0.1050 0.0000 (  7562 PWs)   bands (ev):

   -77.7845 -49.2283 -49.0753 -48.9469 -22.9746 -22.9188 -20.8093 -19.9364
   -14.1115 -13.7439 -12.5168 -11.1857 -10.9010 -10.6915 -10.4267  -9.4183
    -8.6446  -8.3513  -8.0578  -7.6914  -6.3948

     occupation numbers 
     1.0000   1.0000   1.0000   1.0000   1.0000   1.0000   1.0000   1.0000
     1.0000   1.0000   1.0000   1.0000   1.0000   1.0000   1.0000   1.0000
     1.0000   1.0000   1.0000   1.0000   1.0000

          k =-0.2727-0.2624 0.0000 (  7562 PWs)   bands (ev):

   -77.7845 -49.2284 -49.0753 -48.9469 -22.9746 -22.9188 -20.8093 -19.9365
   -14.1115 -13.7439 -12.5168 -11.1857 -10.9010 -10.6916 -10.4267  -9.4184
    -8.6446  -8.3513  -8.0578  -7.6913  -6.3950

     occupation numbers 
     1.0000   1.0000   1.0000   1.0000   1.0000   1.0000   1.0000   1.0000
     1.0000   1.0000   1.0000   1.0000   1.0000   1.0000   1.0000   1.0000
     1.0000   1.0000   1.0000   1.0000   1.0000

          k = 0.3636-0.1050 0.0000 (  7562 PWs)   bands (ev):

   -77.7845 -49.2283 -49.0753 -48.9469 -22.9746 -22.9188 -20.8093 -19.9364
   -14.1116 -13.7439 -12.5169 -11.1857 -10.9010 -10.6914 -10.4268  -9.4185
    -8.6447  -8.3514  -8.0578  -7.6914  -6.3947

     occupation numbers 
     1.0000   1.0000   1.0000   1.0000   1.0000   1.0000   1.0000   1.0000
     1.0000   1.0000   1.0000   1.0000   1.0000   1.0000   1.0000   1.0000
     1.0000   1.0000   1.0000   1.0000   1.0000

          k =-0.0909 0.4724 0.0000 (  7517 PWs)   bands (ev):

   -77.7764 -49.2855 -49.0924 -48.9355 -22.2100 -22.1682 -20.5482 -19.8651
   -15.1441 -14.8964 -12.3561 -11.5936 -11.1298 -10.8776 -10.8426  -9.6449
    -8.8208  -8.2574  -7.9320  -7.6307  -6.3543

     occupation numbers 
     1.0000   1.0000   1.0000   1.0000   1.0000   1.0000   1.0000   1.0000
     1.0000   1.0000   1.0000   1.0000   1.0000   1.0000   1.0000   1.0000
     1.0000   1.0000   1.0000   1.0000   1.0000

          k =-0.3636 0.3149 0.0000 (  7517 PWs)   bands (ev):

   -77.7764 -49.2855 -49.0924 -48.9355 -22.2100 -22.1682 -20.5483 -19.8651
   -15.1441 -14.8964 -12.3562 -11.5935 -11.1298 -10.8776 -10.8424  -9.6452
    -8.8207  -8.2573  -7.9319  -7.6309  -6.3542

     occupation numbers 
     1.0000   1.0000   1.0000   1.0000   1.0000   1.0000   1.0000   1.0000
     1.0000   1.0000   1.0000   1.0000   1.0000   1.0000   1.0000   1.0000
     1.0000   1.0000   1.0000   1.0000   1.0000

          k = 0.4545 0.1575 0.0000 (  7517 PWs)   bands (ev):

   -77.7764 -49.2855 -49.0924 -48.9355 -22.2100 -22.1682 -20.5482 -19.8651
   -15.1441 -14.8964 -12.3561 -11.5936 -11.1298 -10.8776 -10.8425  -9.6449
    -8.8208  -8.2573  -7.9320  -7.6307  -6.3543

     occupation numbers 
     1.0000   1.0000   1.0000   1.0000   1.0000   1.0000   1.0000   1.0000
     1.0000   1.0000   1.0000   1.0000   1.0000   1.0000   1.0000   1.0000
     1.0000   1.0000   1.0000   1.0000   1.0000

          k =-0.3636-0.3149 0.0000 (  7517 PWs)   bands (ev):

   -77.7764 -49.2855 -49.0924 -48.9355 -22.2100 -22.1682 -20.5482 -19.8651
   -15.1441 -14.8964 -12.3560 -11.5935 -11.1298 -10.8775 -10.8426  -9.6452
    -8.8205  -8.2573  -7.9319  -7.6308  -6.3545

     occupation numbers 
     1.0000   1.0000   1.0000   1.0000   1.0000   1.0000   1.0000   1.0000
     1.0000   1.0000   1.0000   1.0000   1.0000   1.0000   1.0000   1.0000
     1.0000   1.0000   1.0000   1.0000   1.0000

          k = 0.4545-0.1575 0.0000 (  7517 PWs)   bands (ev):

   -77.7764 -49.2855 -49.0924 -48.9355 -22.2100 -22.1682 -20.5483 -19.8651
   -15.1441 -14.8964 -12.3562 -11.5935 -11.1298 -10.8776 -10.8424  -9.6452
    -8.8207  -8.2573  -7.9319  -7.6308  -6.3542

     occupation numbers 
     1.0000   1.0000   1.0000   1.0000   1.0000   1.0000   1.0000   1.0000
     1.0000   1.0000   1.0000   1.0000   1.0000   1.0000   1.0000   1.0000
     1.0000   1.0000   1.0000   1.0000   1.0000

          k =-0.4545 0.3674 0.0000 (  7510 PWs)   bands (ev):

   -77.7733 -49.3067 -49.0987 -48.9312 -21.8253 -21.7918 -20.5068 -19.8968
   -15.5845 -15.3421 -12.2448 -11.7980 -11.2038 -11.0862 -10.9208  -9.6022
    -9.0164  -8.1186  -7.8770  -7.5935  -6.2803

     occupation numbers 
     1.0000   1.0000   1.0000   1.0000   1.0000   1.0000   1.0000   1.0000
     1.0000   1.0000   1.0000   1.0000   1.0000   1.0000   1.0000   1.0000
     1.0000   1.0000   1.0000   1.0000   1.0000

          k = 0.5455 0.2099 0.0000 (  7510 PWs)   bands (ev):

   -77.7733 -49.3067 -49.0987 -48.9312 -21.8253 -21.7919 -20.5068 -19.8968
   -15.5844 -15.3422 -12.2446 -11.7981 -11.2039 -11.0861 -10.9209  -9.6021
    -9.0164  -8.1186  -7.8769  -7.5934  -6.2805

     occupation numbers 
     1.0000   1.0000   1.0000   1.0000   1.0000   1.0000   1.0000   1.0000
     1.0000   1.0000   1.0000   1.0000   1.0000   1.0000   1.0000   1.0000
     1.0000   1.0000   1.0000   1.0000   1.0000

          k =-0.1818 0.3149 0.0000 (  7565 PWs)   bands (ev):

   -77.7858 -49.2085 -49.0834 -48.9487 -23.0862 -23.0284 -20.8577 -19.9510
   -13.7947 -13.2850 -12.3959 -11.3923 -11.2330 -10.8454 -10.2883  -9.5527
    -8.6536  -8.3485  -7.9839  -7.7369  -6.3919

     occupation numbers 
     1.0000   1.0000   1.0000   1.0000   1.0000   1.0000   1.0000   1.0000
     1.0000   1.0000   1.0000   1.0000   1.0000   1.0000   1.0000   1.0000
     1.0000   1.0000   1.0000   1.0000   1.0000

          k = 0.3636-0.0000 0.0000 (  7565 PWs)   bands (ev):

   -77.7858 -49.2085 -49.0834 -48.9487 -23.0862 -23.0284 -20.8577 -19.9510
   -13.7947 -13.2850 -12.3959 -11.3923 -11.2330 -10.8454 -10.2882  -9.5527
    -8.6536  -8.3485  -7.9839  -7.7369  -6.3919

     occupation numbers 
     1.0000   1.0000   1.0000   1.0000   1.0000   1.0000   1.0000   1.0000
     1.0000   1.0000   1.0000   1.0000   1.0000   1.0000   1.0000   1.0000
     1.0000   1.0000   1.0000   1.0000   1.0000

          k =-0.1818 0.4199 0.0000 (  7510 PWs)   bands (ev):

   -77.7772 -49.2554 -49.1151 -48.9367 -22.3475 -22.3018 -20.5556 -19.8326
   -14.5643 -14.2766 -12.3550 -12.0663 -11.8931 -10.8322 -10.6771  -9.9850
    -8.6343  -8.5114  -8.0859  -7.6776  -6.3639

     occupation numbers 
     1.0000   1.0000   1.0000   1.0000   1.0000   1.0000   1.0000   1.0000
     1.0000   1.0000   1.0000   1.0000   1.0000   1.0000   1.0000   1.0000
     1.0000   1.0000   1.0000   1.0000   1.0000

          k =-0.2727 0.3674 0.0000 (  7510 PWs)   bands (ev):

   -77.7772 -49.2554 -49.1152 -48.9367 -22.3475 -22.3018 -20.5556 -19.8326
   -14.5644 -14.2766 -12.3551 -12.0663 -11.8931 -10.8321 -10.6772  -9.9852
    -8.6342  -8.5114  -8.0858  -7.6776  -6.3638

     occupation numbers 
     1.0000   1.0000   1.0000   1.0000   1.0000   1.0000   1.0000   1.0000
     1.0000   1.0000   1.0000   1.0000   1.0000   1.0000   1.0000   1.0000
     1.0000   1.0000   1.0000   1.0000   1.0000

          k = 0.4545 0.0525 0.0000 (  7510 PWs)   bands (ev):

   -77.7772 -49.2554 -49.1152 -48.9367 -22.3475 -22.3018 -20.5556 -19.8326
   -14.5643 -14.2766 -12.3550 -12.0663 -11.8931 -10.8322 -10.6771  -9.9850
    -8.6343  -8.5114  -8.0858  -7.6776  -6.3639

     occupation numbers 
     1.0000   1.0000   1.0000   1.0000   1.0000   1.0000   1.0000   1.0000
     1.0000   1.0000   1.0000   1.0000   1.0000   1.0000   1.0000   1.0000
     1.0000   1.0000   1.0000   1.0000   1.0000

          k =-0.2727-0.3674 0.0000 (  7510 PWs)   bands (ev):

   -77.7772 -49.2554 -49.1151 -48.9367 -22.3475 -22.3018 -20.5556 -19.8326
   -14.5643 -14.2766 -12.3550 -12.0663 -11.8931 -10.8320 -10.6771  -9.9853
    -8.6343  -8.5113  -8.0856  -7.6777  -6.3640

     occupation numbers 
     1.0000   1.0000   1.0000   1.0000   1.0000   1.0000   1.0000   1.0000
     1.0000   1.0000   1.0000   1.0000   1.0000   1.0000   1.0000   1.0000
     1.0000   1.0000   1.0000   1.0000   1.0000

          k = 0.4545-0.0525 0.0000 (  7510 PWs)   bands (ev):

   -77.7772 -49.2554 -49.1152 -48.9367 -22.3475 -22.3018 -20.5556 -19.8326
   -14.5644 -14.2766 -12.3551 -12.0663 -11.8931 -10.8321 -10.6771  -9.9852
    -8.6342  -8.5114  -8.0858  -7.6776  -6.3638

     occupation numbers 
     1.0000   1.0000   1.0000   1.0000   1.0000   1.0000   1.0000   1.0000
     1.0000   1.0000   1.0000   1.0000   1.0000   1.0000   1.0000   1.0000
     1.0000   1.0000   1.0000   1.0000   1.0000

          k =-0.1818 0.5249 0.0000 (  7532 PWs)   bands (ev):

   -77.7721 -49.2819 -49.1352 -48.9295 -21.7524 -21.7181 -20.4478 -19.8370
   -15.1896 -14.9413 -12.5843 -12.3984 -11.7401 -11.1887 -10.9993  -9.7941
    -9.0122  -8.6513  -8.0308  -7.5047  -6.1843

     occupation numbers 
     1.0000   1.0000   1.0000   1.0000   1.0000   1.0000   1.0000   1.0000
     1.0000   1.0000   1.0000   1.0000   1.0000   1.0000   1.0000   1.0000
     1.0000   1.0000   1.0000   1.0000   1.0000

          k =-0.3636 0.4199 0.0000 (  7532 PWs)   bands (ev):

   -77.7721 -49.2819 -49.1352 -48.9295 -21.7524 -21.7181 -20.4479 -19.8369
   -15.1896 -14.9413 -12.5843 -12.3984 -11.7402 -11.1887 -10.9993  -9.7943
    -9.0120  -8.6511  -8.0308  -7.5047  -6.1842

     occupation numbers 
     1.0000   1.0000   1.0000   1.0000   1.0000   1.0000   1.0000   1.0000
     1.0000   1.0000   1.0000   1.0000   1.0000   1.0000   1.0000   1.0000
     1.0000   1.0000   1.0000   1.0000   1.0000

          k = 0.5455 0.1050 0.0000 (  7532 PWs)   bands (ev):

   -77.7721 -49.2819 -49.1352 -48.9295 -21.7524 -21.7181 -20.4478 -19.8370
   -15.1896 -14.9413 -12.5843 -12.3984 -11.7401 -11.1887 -10.9993  -9.7941
    -9.0122  -8.6512  -8.0307  -7.5047  -6.1843

     occupation numbers 
     1.0000   1.0000   1.0000   1.0000   1.0000   1.0000   1.0000   1.0000
     1.0000   1.0000   1.0000   1.0000   1.0000   1.0000   1.0000   1.0000
     1.0000   1.0000   1.0000   1.0000   1.0000

          k =-0.3636-0.4199 0.0000 (  7532 PWs)   bands (ev):

   -77.7721 -49.2819 -49.1352 -48.9295 -21.7524 -21.7181 -20.4478 -19.8370
   -15.1896 -14.9413 -12.5843 -12.3984 -11.7401 -11.1886 -10.9992  -9.7944
    -9.0120  -8.6512  -8.0307  -7.5047  -6.1843

     occupation numbers 
     1.0000   1.0000   1.0000   1.0000   1.0000   1.0000   1.0000   1.0000
     1.0000   1.0000   1.0000   1.0000   1.0000   1.0000   1.0000   1.0000
     1.0000   1.0000   1.0000   1.0000   1.0000

          k = 0.5455-0.1050 0.0000 (  7532 PWs)   bands (ev):

   -77.7721 -49.2819 -49.1352 -48.9295 -21.7524 -21.7181 -20.4479 -19.8369
   -15.1896 -14.9413 -12.5843 -12.3984 -11.7402 -11.1887 -10.9993  -9.7943
    -9.0121  -8.6512  -8.0308  -7.5047  -6.1842

     occupation numbers 
     1.0000   1.0000   1.0000   1.0000   1.0000   1.0000   1.0000   1.0000
     1.0000   1.0000   1.0000   1.0000   1.0000   1.0000   1.0000   1.0000
     1.0000   1.0000   1.0000   1.0000   1.0000

          k =-0.2727 0.4724 0.0000 (  7553 PWs)   bands (ev):

   -77.7717 -49.2606 -49.1610 -48.9289 -21.7407 -21.7055 -20.4165 -19.8007
   -14.7992 -14.5201 -13.1727 -13.0304 -11.8078 -11.0486 -10.7731  -9.9740
    -9.3227  -8.7494  -8.0504  -7.4839  -6.1466

     occupation numbers 
     1.0000   1.0000   1.0000   1.0000   1.0000   1.0000   1.0000   1.0000
     1.0000   1.0000   1.0000   1.0000   1.0000   1.0000   1.0000   1.0000
     1.0000   1.0000   1.0000   1.0000   1.0000

          k = 0.5455-0.0000 0.0000 (  7553 PWs)   bands (ev):

   -77.7717 -49.2606 -49.1610 -48.9289 -21.7407 -21.7055 -20.4165 -19.8007
   -14.7992 -14.5201 -13.1727 -13.0304 -11.8078 -11.0486 -10.7731  -9.9740
    -9.3227  -8.7494  -8.0504  -7.4839  -6.1466

     occupation numbers 
     1.0000   1.0000   1.0000   1.0000   1.0000   1.0000   1.0000   1.0000
     1.0000   1.0000   1.0000   1.0000   1.0000   1.0000   1.0000   1.0000
     1.0000   1.0000   1.0000   1.0000   1.0000

          k =-0.3636 0.5249 0.0000 (  7528 PWs)   bands (ev):

   -77.7696 -49.2549 -49.1858 -48.9260 -21.4619 -21.4269 -20.4015 -19.8160
   -14.8318 -14.5472 -13.6098 -13.5075 -11.4961 -11.2272 -10.8633  -9.8976
    -9.5311  -9.0716  -7.9771  -7.3816  -5.9947

     occupation numbers 
     1.0000   1.0000   1.0000   1.0000   1.0000   1.0000   1.0000   1.0000
     1.0000   1.0000   1.0000   1.0000   1.0000   1.0000   1.0000   1.0000
     1.0000   1.0000   1.0000   1.0000   1.0000

          k = 0.6364 0.0525 0.0000 (  7528 PWs)   bands (ev):

   -77.7696 -49.2549 -49.1858 -48.9260 -21.4619 -21.4269 -20.4014 -19.8160
   -14.8318 -14.5472 -13.6098 -13.5075 -11.4961 -11.2271 -10.8633  -9.8977
    -9.5311  -9.0716  -7.9770  -7.3816  -5.9948

     occupation numbers 
     1.0000   1.0000   1.0000   1.0000   1.0000   1.0000   1.0000   1.0000
     1.0000   1.0000   1.0000   1.0000   1.0000   1.0000   1.0000   1.0000
     1.0000   1.0000   1.0000   1.0000   1.0000

     highest occupied level (ev):    -5.3821

!    total energy              =    -263.32568845 Ry
     estimated scf accuracy    <          1.9E-13 Ry

     The total energy is the sum of the following terms:
     one-electron contribution =   -4602.24028982 Ry
     hartree contribution      =    2297.71134990 Ry
     xc contribution           =     -44.83847745 Ry
     ewald contribution        =    2086.04172893 Ry

     convergence has been achieved in  20 iterations

     Forces acting on atoms (cartesian axes, Ry/au):

     atom    1 type  1   force =    -0.00000696    0.00000373    0.00010992
     atom    2 type  3   force =    -0.00001287    0.00000758   -0.00042449
     atom    3 type  3   force =    -0.00001470    0.00000775    0.00008343
     atom    4 type  3   force =     0.00001775   -0.00000919    0.00338361
     atom    5 type  3   force =    -0.00000152    0.00000026   -0.00339172
     atom    6 type  2   force =    -0.00000164    0.00000028   -0.00336826
     atom    7 type  2   force =     0.00001994   -0.00001042    0.00360750
     The non-local contrib.  to forces
     atom    1 type  1   force =    -0.00001406    0.00000841   -0.00551460
     atom    2 type  3   force =    -0.00007562    0.00004960   -0.07980904
     atom    3 type  3   force =    -0.00007276    0.00003110    0.10393231
     atom    4 type  3   force =    -0.00007512    0.00004573   -0.86677051
     atom    5 type  3   force =    -0.00012306    0.00006982    0.83433029
     atom    6 type  2   force =    -0.00009152    0.00005596   -0.11645148
     atom    7 type  2   force =    -0.00002495    0.00000870    0.09860602
     The ionic contribution  to forces
     atom    1 type  1   force =    -0.00073125    0.00042362   -0.20138506
     atom    2 type  3   force =     0.00034721   -0.00022317  -43.58004494
     atom    3 type  3   force =     0.00021292   -0.00009332   43.75156922
     atom    4 type  3   force =     0.00007455   -0.00003969   90.23236935
     atom    5 type  3   force =     0.00015354   -0.00009103  -90.10517594
     atom    6 type  2   force =    -0.00005860    0.00004457  -62.68842101
     atom    7 type  2   force =     0.00000163   -0.00002099   62.59108838
     The local contribution  to forces
     atom    1 type  1   force =     0.00069060   -0.00040068    0.20696016
     atom    2 type  3   force =    -0.00033221    0.00020877   43.65938030
     atom    3 type  3   force =    -0.00020260    0.00009759  -43.85546853
     atom    4 type  3   force =    -0.00002943    0.00001239  -89.36226505
     atom    5 type  3   force =    -0.00007975    0.00004908   89.26740420
     atom    6 type  2   force =     0.00010073   -0.00007264   62.80145451
     atom    7 type  2   force =    -0.00000450    0.00002949  -62.68613681
     The core correction contribution to forces
     atom    1 type  1   force =     0.00000000    0.00000000    0.00000000
     atom    2 type  3   force =     0.00000000    0.00000000    0.00000000
     atom    3 type  3   force =     0.00000000    0.00000000    0.00000000
     atom    4 type  3   force =     0.00000000    0.00000000    0.00000000
     atom    5 type  3   force =     0.00000000    0.00000000    0.00000000
     atom    6 type  2   force =     0.00000000    0.00000000    0.00000000
     atom    7 type  2   force =     0.00000000    0.00000000    0.00000000
     The Hubbard contrib.    to forces
     atom    1 type  1   force =     0.00000000    0.00000000    0.00000000
     atom    2 type  3   force =     0.00000000    0.00000000    0.00000000
     atom    3 type  3   force =     0.00000000    0.00000000    0.00000000
     atom    4 type  3   force =     0.00000000    0.00000000    0.00000000
     atom    5 type  3   force =     0.00000000    0.00000000    0.00000000
     atom    6 type  2   force =     0.00000000    0.00000000    0.00000000
     atom    7 type  2   force =     0.00000000    0.00000000    0.00000000
     The SCF correction term to forces
     atom    1 type  1   force =    -0.00000000    0.00000000   -0.00000051
     atom    2 type  3   force =     0.00000000    0.00000000   -0.00000073
     atom    3 type  3   force =     0.00000000    0.00000000    0.00000050
     atom    4 type  3   force =     0.00000000   -0.00000000   -0.00000010
     atom    5 type  3   force =    -0.00000000    0.00000000   -0.00000020
     atom    6 type  2   force =     0.00000000   -0.00000000   -0.00000021
     atom    7 type  2   force =    -0.00000000   -0.00000000   -0.00000002

     Total force =     0.006893     Total SCF correction =     0.000001
     Energy error            =      8.3E-05 Ry
     Gradient error          =      3.6E-03 Ry/Bohr

     number of scf cycles    =   3
     number of bfgs steps    =   2

     energy             old  =    -263.3256057960 Ry
     energy             new  =    -263.3256884499 Ry

     CASE: energy            _new < energy            _old

     new trust radius        =       0.0103407066 bohr
     new conv_thr            =            1.0E-12 Ry


ATOMIC_POSITIONS (crystal)
Cr               0.8571374046        0.1428451372        0.4278012077
N                0.5237767700        0.4762080156        0.3726999053
N                0.5237827302        0.4761977594        0.4836041089
N                0.8571418845        0.1428271389        0.5948311437
N                0.1904674411        0.8095235735        0.2625269063
Si               0.5238123819        0.4761785344        0.2887233566
Si               0.5238153876        0.4761538410        0.5681773716



     Writing config-only to output data dir ./tmp/crsi2n4.save/ :
     XML data file
     NEW-OLD atomic charge density approx. for the potential

     negative rho (up, down):  2.057E-08 0.000E+00

     total cpu time spent up to now is      320.5 secs

     Self-consistent Calculation
[tb_dev] Currently allocated     0.00E+00 Mbytes, locked:    0 /   0
[tb_pin] Currently allocated     0.00E+00 Mbytes, locked:    0 /   0

     iteration #  1     ecut=    60.00 Ry     beta= 0.50
     Davidson diagonalization with overlap

---- Real-time Memory Report at c_bands before calling an iterative solver
           868 MiB given to the printing process from OS
             0 MiB allocation reported by mallinfo(arena+hblkhd)
          8451 MiB available memory on the node where the printing process lives
     GPU memory used/free/total (MiB): 1849 / 10064 / 11914
------------------
     ethr =  1.00E-06,  avg # of iterations =  4.7

     total cpu time spent up to now is      326.0 secs

     total energy              =    -263.32576502 Ry
     estimated scf accuracy    <       0.00005817 Ry
[tb_dev] Currently allocated     2.67E-05 Mbytes, locked:    0 /   1
[tb_pin] Currently allocated     0.00E+00 Mbytes, locked:    0 /   0

     iteration #  2     ecut=    60.00 Ry     beta= 0.50
     Davidson diagonalization with overlap

---- Real-time Memory Report at c_bands before calling an iterative solver
           868 MiB given to the printing process from OS
             0 MiB allocation reported by mallinfo(arena+hblkhd)
          8451 MiB available memory on the node where the printing process lives
     GPU memory used/free/total (MiB): 1849 / 10064 / 11914
------------------
     ethr =  1.38E-07,  avg # of iterations =  6.3

     total cpu time spent up to now is      332.2 secs

     total energy              =    -263.32576420 Ry
     estimated scf accuracy    <       0.00013196 Ry
[tb_dev] Currently allocated     2.67E-05 Mbytes, locked:    0 /   1
[tb_pin] Currently allocated     0.00E+00 Mbytes, locked:    0 /   0

     iteration #  3     ecut=    60.00 Ry     beta= 0.50
     Davidson diagonalization with overlap

---- Real-time Memory Report at c_bands before calling an iterative solver
           868 MiB given to the printing process from OS
             0 MiB allocation reported by mallinfo(arena+hblkhd)
          8453 MiB available memory on the node where the printing process lives
     GPU memory used/free/total (MiB): 1849 / 10064 / 11914
------------------
     ethr =  1.38E-07,  avg # of iterations =  5.5

     total cpu time spent up to now is      337.4 secs

     total energy              =    -263.32578443 Ry
     estimated scf accuracy    <       0.00000757 Ry
[tb_dev] Currently allocated     2.67E-05 Mbytes, locked:    0 /   1
[tb_pin] Currently allocated     0.00E+00 Mbytes, locked:    0 /   0

     iteration #  4     ecut=    60.00 Ry     beta= 0.50
     Davidson diagonalization with overlap

---- Real-time Memory Report at c_bands before calling an iterative solver
           868 MiB given to the printing process from OS
             0 MiB allocation reported by mallinfo(arena+hblkhd)
          8452 MiB available memory on the node where the printing process lives
     GPU memory used/free/total (MiB): 1849 / 10064 / 11914
------------------
     ethr =  1.80E-08,  avg # of iterations =  5.1

     total cpu time spent up to now is      342.5 secs

     total energy              =    -263.32578499 Ry
     estimated scf accuracy    <       0.00000535 Ry
[tb_dev] Currently allocated     2.67E-05 Mbytes, locked:    0 /   1
[tb_pin] Currently allocated     0.00E+00 Mbytes, locked:    0 /   0

     iteration #  5     ecut=    60.00 Ry     beta= 0.50
     Davidson diagonalization with overlap

---- Real-time Memory Report at c_bands before calling an iterative solver
           868 MiB given to the printing process from OS
             0 MiB allocation reported by mallinfo(arena+hblkhd)
          8452 MiB available memory on the node where the printing process lives
     GPU memory used/free/total (MiB): 1849 / 10064 / 11914
------------------
     ethr =  1.27E-08,  avg # of iterations =  5.5

     total cpu time spent up to now is      347.7 secs

     total energy              =    -263.32578572 Ry
     estimated scf accuracy    <       0.00000253 Ry
[tb_dev] Currently allocated     2.67E-05 Mbytes, locked:    0 /   1
[tb_pin] Currently allocated     0.00E+00 Mbytes, locked:    0 /   0

     iteration #  6     ecut=    60.00 Ry     beta= 0.50
     Davidson diagonalization with overlap

---- Real-time Memory Report at c_bands before calling an iterative solver
           868 MiB given to the printing process from OS
             0 MiB allocation reported by mallinfo(arena+hblkhd)
          8451 MiB available memory on the node where the printing process lives
     GPU memory used/free/total (MiB): 1849 / 10064 / 11914
------------------
     ethr =  6.03E-09,  avg # of iterations =  5.2

     total cpu time spent up to now is      352.7 secs

     total energy              =    -263.32578628 Ry
     estimated scf accuracy    <       0.00000028 Ry
[tb_dev] Currently allocated     2.67E-05 Mbytes, locked:    0 /   1
[tb_pin] Currently allocated     0.00E+00 Mbytes, locked:    0 /   0

     iteration #  7     ecut=    60.00 Ry     beta= 0.50
     Davidson diagonalization with overlap

---- Real-time Memory Report at c_bands before calling an iterative solver
           868 MiB given to the printing process from OS
             0 MiB allocation reported by mallinfo(arena+hblkhd)
          9257 MiB available memory on the node where the printing process lives
     GPU memory used/free/total (MiB): 1849 / 10064 / 11914
------------------
     ethr =  6.68E-10,  avg # of iterations =  5.3

     total cpu time spent up to now is      357.9 secs

     total energy              =    -263.32578633 Ry
     estimated scf accuracy    <       0.00000004 Ry
[tb_dev] Currently allocated     2.67E-05 Mbytes, locked:    0 /   1
[tb_pin] Currently allocated     0.00E+00 Mbytes, locked:    0 /   0

     iteration #  8     ecut=    60.00 Ry     beta= 0.50
     Davidson diagonalization with overlap

---- Real-time Memory Report at c_bands before calling an iterative solver
           868 MiB given to the printing process from OS
             0 MiB allocation reported by mallinfo(arena+hblkhd)
          9255 MiB available memory on the node where the printing process lives
     GPU memory used/free/total (MiB): 1849 / 10064 / 11914
------------------
     ethr =  8.59E-11,  avg # of iterations =  6.8

     total cpu time spent up to now is      364.2 secs

     total energy              =    -263.32578634 Ry
     estimated scf accuracy    <          6.6E-09 Ry
[tb_dev] Currently allocated     2.67E-05 Mbytes, locked:    0 /   1
[tb_pin] Currently allocated     0.00E+00 Mbytes, locked:    0 /   0

     iteration #  9     ecut=    60.00 Ry     beta= 0.50
     Davidson diagonalization with overlap

---- Real-time Memory Report at c_bands before calling an iterative solver
           868 MiB given to the printing process from OS
             0 MiB allocation reported by mallinfo(arena+hblkhd)
          9250 MiB available memory on the node where the printing process lives
     GPU memory used/free/total (MiB): 1849 / 10064 / 11914
------------------
     ethr =  1.58E-11,  avg # of iterations =  5.5

     total cpu time spent up to now is      369.4 secs

     total energy              =    -263.32578634 Ry
     estimated scf accuracy    <          1.5E-10 Ry
[tb_dev] Currently allocated     2.67E-05 Mbytes, locked:    0 /   1
[tb_pin] Currently allocated     0.00E+00 Mbytes, locked:    0 /   0

     iteration # 10     ecut=    60.00 Ry     beta= 0.50
     Davidson diagonalization with overlap

---- Real-time Memory Report at c_bands before calling an iterative solver
           868 MiB given to the printing process from OS
             0 MiB allocation reported by mallinfo(arena+hblkhd)
          9248 MiB available memory on the node where the printing process lives
     GPU memory used/free/total (MiB): 1849 / 10064 / 11914
------------------
     ethr =  3.50E-13,  avg # of iterations =  7.7

     total cpu time spent up to now is      376.9 secs

     total energy              =    -263.32578634 Ry
     estimated scf accuracy    <          1.9E-10 Ry
[tb_dev] Currently allocated     2.67E-05 Mbytes, locked:    0 /   1
[tb_pin] Currently allocated     0.00E+00 Mbytes, locked:    0 /   0

     iteration # 11     ecut=    60.00 Ry     beta= 0.50
     Davidson diagonalization with overlap

---- Real-time Memory Report at c_bands before calling an iterative solver
           868 MiB given to the printing process from OS
             0 MiB allocation reported by mallinfo(arena+hblkhd)
          9248 MiB available memory on the node where the printing process lives
     GPU memory used/free/total (MiB): 1849 / 10064 / 11914
------------------
     ethr =  3.50E-13,  avg # of iterations =  6.0

     total cpu time spent up to now is      382.3 secs

     total energy              =    -263.32578634 Ry
     estimated scf accuracy    <          6.0E-11 Ry
[tb_dev] Currently allocated     2.67E-05 Mbytes, locked:    0 /   1
[tb_pin] Currently allocated     0.00E+00 Mbytes, locked:    0 /   0

     iteration # 12     ecut=    60.00 Ry     beta= 0.50
     Davidson diagonalization with overlap

---- Real-time Memory Report at c_bands before calling an iterative solver
           868 MiB given to the printing process from OS
             0 MiB allocation reported by mallinfo(arena+hblkhd)
          9247 MiB available memory on the node where the printing process lives
     GPU memory used/free/total (MiB): 1849 / 10064 / 11914
------------------
     ethr =  1.42E-13,  avg # of iterations =  2.3

     total cpu time spent up to now is      385.7 secs

     total energy              =    -263.32578634 Ry
     estimated scf accuracy    <          2.2E-11 Ry
[tb_dev] Currently allocated     2.67E-05 Mbytes, locked:    0 /   1
[tb_pin] Currently allocated     0.00E+00 Mbytes, locked:    0 /   0

     iteration # 13     ecut=    60.00 Ry     beta= 0.50
     Davidson diagonalization with overlap

---- Real-time Memory Report at c_bands before calling an iterative solver
           868 MiB given to the printing process from OS
             0 MiB allocation reported by mallinfo(arena+hblkhd)
          9119 MiB available memory on the node where the printing process lives
     GPU memory used/free/total (MiB): 1849 / 10064 / 11914
------------------
     ethr =  1.00E-13,  avg # of iterations =  5.9

     total cpu time spent up to now is      390.9 secs

     total energy              =    -263.32578634 Ry
     estimated scf accuracy    <          2.8E-11 Ry
[tb_dev] Currently allocated     2.67E-05 Mbytes, locked:    0 /   1
[tb_pin] Currently allocated     0.00E+00 Mbytes, locked:    0 /   0

     iteration # 14     ecut=    60.00 Ry     beta= 0.50
     Davidson diagonalization with overlap

---- Real-time Memory Report at c_bands before calling an iterative solver
           869 MiB given to the printing process from OS
             0 MiB allocation reported by mallinfo(arena+hblkhd)
          8833 MiB available memory on the node where the printing process lives
     GPU memory used/free/total (MiB): 1849 / 10064 / 11914
------------------
     ethr =  1.00E-13,  avg # of iterations =  1.0

     total cpu time spent up to now is      393.6 secs

     total energy              =    -263.32578634 Ry
     estimated scf accuracy    <          1.7E-11 Ry
[tb_dev] Currently allocated     2.67E-05 Mbytes, locked:    0 /   1
[tb_pin] Currently allocated     0.00E+00 Mbytes, locked:    0 /   0

     iteration # 15     ecut=    60.00 Ry     beta= 0.50
     Davidson diagonalization with overlap

---- Real-time Memory Report at c_bands before calling an iterative solver
           869 MiB given to the printing process from OS
             0 MiB allocation reported by mallinfo(arena+hblkhd)
          8832 MiB available memory on the node where the printing process lives
     GPU memory used/free/total (MiB): 1849 / 10064 / 11914
------------------
     ethr =  1.00E-13,  avg # of iterations =  4.0

     total cpu time spent up to now is      397.9 secs

     End of self-consistent calculation

          k = 0.0000 0.0000 0.0000 (  7657 PWs)   bands (ev):

   -77.7891 -48.9903 -48.9903 -48.9634 -24.6813 -24.6019 -21.8913 -20.4697
   -14.1061 -11.4623  -9.5135  -9.2219  -9.2218  -9.1653  -9.1652  -8.8411
    -8.8408  -7.5439  -7.5283  -7.5272  -5.3606

     occupation numbers 
     1.0000   1.0000   1.0000   1.0000   1.0000   1.0000   1.0000   1.0000
     1.0000   1.0000   1.0000   1.0000   1.0000   1.0000   1.0000   1.0000
     1.0000   1.0000   1.0000   1.0000   1.0000

          k = 0.0000 0.1050 0.0000 (  7619 PWs)   bands (ev):

   -77.7860 -49.0144 -48.9957 -48.9590 -24.5353 -24.4581 -21.7772 -20.4076
   -13.9869 -11.4078  -9.9380  -9.8308  -9.3473  -9.3109  -9.2773  -9.1031
    -8.7529  -7.8325  -7.6772  -7.3288  -5.4699

     occupation numbers 
     1.0000   1.0000   1.0000   1.0000   1.0000   1.0000   1.0000   1.0000
     1.0000   1.0000   1.0000   1.0000   1.0000   1.0000   1.0000   1.0000
     1.0000   1.0000   1.0000   1.0000   1.0000

          k = 0.0000 0.2099 0.0000 (  7593 PWs)   bands (ev):

   -77.7775 -49.0787 -49.0103 -48.9472 -24.1092 -24.0385 -21.4628 -20.2392
   -13.6941 -11.4460 -11.2362 -11.1206  -9.7310  -9.6809  -9.6696  -9.0568
    -8.4859  -8.2416  -8.0341  -7.4319  -5.8447

     occupation numbers 
     1.0000   1.0000   1.0000   1.0000   1.0000   1.0000   1.0000   1.0000
     1.0000   1.0000   1.0000   1.0000   1.0000   1.0000   1.0000   1.0000
     1.0000   1.0000   1.0000   1.0000   1.0000

          k = 0.0000 0.3149 0.0000 (  7563 PWs)   bands (ev):

   -77.7664 -49.1621 -49.0293 -48.9316 -23.4462 -23.3852 -21.0363 -20.0238
   -13.6612 -12.9916 -12.4531 -11.0852 -10.4262 -10.0916 -10.0730  -8.8890
    -8.6975  -8.4481  -8.0935  -7.6325  -6.2474

     occupation numbers 
     1.0000   1.0000   1.0000   1.0000   1.0000   1.0000   1.0000   1.0000
     1.0000   1.0000   1.0000   1.0000   1.0000   1.0000   1.0000   1.0000
     1.0000   1.0000   1.0000   1.0000   1.0000

          k = 0.0000 0.4199 0.0000 (  7528 PWs)   bands (ev):

   -77.7562 -49.2381 -49.0467 -48.9173 -22.6513 -22.6028 -20.6579 -19.8699
   -14.7095 -14.4425 -12.4807 -11.2688 -10.8655 -10.4337 -10.4020  -9.3128
    -8.7726  -8.4597  -7.7221  -7.7152  -6.3804

     occupation numbers 
     1.0000   1.0000   1.0000   1.0000   1.0000   1.0000   1.0000   1.0000
     1.0000   1.0000   1.0000   1.0000   1.0000   1.0000   1.0000   1.0000
     1.0000   1.0000   1.0000   1.0000   1.0000

          k = 0.0000 0.5249 0.0000 (  7518 PWs)   bands (ev):

   -77.7501 -49.2829 -49.0571 -48.9088 -21.9931 -21.9578 -20.5058 -19.8693
   -15.5633 -15.3247 -12.3043 -11.6642 -11.0189 -10.6227 -10.5843  -9.4786
    -8.9522  -8.1976  -7.7389  -7.4741  -6.3375

     occupation numbers 
     1.0000   1.0000   1.0000   1.0000   1.0000   1.0000   1.0000   1.0000
     1.0000   1.0000   1.0000   1.0000   1.0000   1.0000   1.0000   1.0000
     1.0000   1.0000   1.0000   1.0000   1.0000

          k = 0.0909 0.1575 0.0000 (  7591 PWs)   bands (ev):

   -77.7802 -49.0572 -49.0072 -48.9509 -24.2491 -24.1762 -21.5627 -20.2921
   -13.7781 -11.3339 -10.7934 -10.7696  -9.8025  -9.6605  -9.3856  -9.1180
    -8.6014  -8.0904  -7.9935  -7.3124  -5.7216

     occupation numbers 
     1.0000   1.0000   1.0000   1.0000   1.0000   1.0000   1.0000   1.0000
     1.0000   1.0000   1.0000   1.0000   1.0000   1.0000   1.0000   1.0000
     1.0000   1.0000   1.0000   1.0000   1.0000

          k = 0.0909 0.2624 0.0000 (  7569 PWs)   bands (ev):

   -77.7704 -49.1274 -49.0276 -48.9372 -23.7028 -23.6380 -21.1902 -20.0976
   -13.5400 -12.2698 -12.0032 -11.0975 -10.4532 -10.2134  -9.8811  -8.8896
    -8.7537  -8.3193  -8.1309  -7.4984  -6.1259

     occupation numbers 
     1.0000   1.0000   1.0000   1.0000   1.0000   1.0000   1.0000   1.0000
     1.0000   1.0000   1.0000   1.0000   1.0000   1.0000   1.0000   1.0000
     1.0000   1.0000   1.0000   1.0000   1.0000

          k = 0.0909 0.3674 0.0000 (  7562 PWs)   bands (ev):

   -77.7597 -49.2029 -49.0499 -48.9223 -22.9651 -22.9113 -20.7812 -19.9058
   -14.1006 -13.7410 -12.4962 -11.1643 -10.8849 -10.6847 -10.4135  -9.3953
    -8.6386  -8.3320  -8.0287  -7.6777  -6.3703

     occupation numbers 
     1.0000   1.0000   1.0000   1.0000   1.0000   1.0000   1.0000   1.0000
     1.0000   1.0000   1.0000   1.0000   1.0000   1.0000   1.0000   1.0000
     1.0000   1.0000   1.0000   1.0000   1.0000

          k = 0.0909 0.4724 0.0000 (  7517 PWs)   bands (ev):

   -77.7515 -49.2601 -49.0670 -48.9109 -22.2026 -22.1620 -20.5173 -19.8318
   -15.1378 -14.8941 -12.3291 -11.5682 -11.1157 -10.8654 -10.8292  -9.6249
    -8.7989  -8.2505  -7.9085  -7.6196  -6.3304

     occupation numbers 
     1.0000   1.0000   1.0000   1.0000   1.0000   1.0000   1.0000   1.0000
     1.0000   1.0000   1.0000   1.0000   1.0000   1.0000   1.0000   1.0000
     1.0000   1.0000   1.0000   1.0000   1.0000

          k = 0.0909 0.5774 0.0000 (  7510 PWs)   bands (ev):

   -77.7485 -49.2813 -49.0733 -48.9066 -21.8204 -21.7873 -20.4730 -19.8613
   -15.5791 -15.3402 -12.2162 -11.7714 -11.1861 -11.0789 -10.9059  -9.5814
    -8.9939  -8.1117  -7.8567  -7.5830  -6.2564

     occupation numbers 
     1.0000   1.0000   1.0000   1.0000   1.0000   1.0000   1.0000   1.0000
     1.0000   1.0000   1.0000   1.0000   1.0000   1.0000   1.0000   1.0000
     1.0000   1.0000   1.0000   1.0000   1.0000

          k = 0.1818 0.3149 0.0000 (  7565 PWs)   bands (ev):

   -77.7610 -49.1830 -49.0580 -48.9241 -23.0765 -23.0208 -20.8299 -19.9207
   -13.7802 -13.2825 -12.3797 -11.3759 -11.2230 -10.8346 -10.2688  -9.5266
    -8.6502  -8.3218  -7.9669  -7.7163  -6.3670

     occupation numbers 
     1.0000   1.0000   1.0000   1.0000   1.0000   1.0000   1.0000   1.0000
     1.0000   1.0000   1.0000   1.0000   1.0000   1.0000   1.0000   1.0000
     1.0000   1.0000   1.0000   1.0000   1.0000

          k = 0.1818 0.4199 0.0000 (  7510 PWs)   bands (ev):

   -77.7524 -49.2299 -49.0898 -48.9121 -22.3393 -22.2952 -20.5255 -19.8000
   -14.5566 -14.2744 -12.3339 -12.0525 -11.8823 -10.8114 -10.6545  -9.9630
    -8.6130  -8.4938  -8.0695  -7.6698  -6.3392

     occupation numbers 
     1.0000   1.0000   1.0000   1.0000   1.0000   1.0000   1.0000   1.0000
     1.0000   1.0000   1.0000   1.0000   1.0000   1.0000   1.0000   1.0000
     1.0000   1.0000   1.0000   1.0000   1.0000

          k = 0.1818 0.5249 0.0000 (  7532 PWs)   bands (ev):

   -77.7473 -49.2564 -49.1098 -48.9049 -21.7475 -21.7136 -20.4140 -19.8012
   -15.1835 -14.9392 -12.5695 -12.3889 -11.7195 -11.1640 -10.9740  -9.7723
    -8.9900  -8.6243  -8.0267  -7.4995  -6.1594

     occupation numbers 
     1.0000   1.0000   1.0000   1.0000   1.0000   1.0000   1.0000   1.0000
     1.0000   1.0000   1.0000   1.0000   1.0000   1.0000   1.0000   1.0000
     1.0000   1.0000   1.0000   1.0000   1.0000

          k = 0.2727 0.4724 0.0000 (  7553 PWs)   bands (ev):

   -77.7468 -49.2351 -49.1356 -48.9043 -21.7355 -21.7009 -20.3830 -19.7652
   -14.7922 -14.5182 -13.1630 -13.0242 -11.7823 -11.0209 -10.7475  -9.9527
    -9.2951  -8.7269  -8.0466  -7.4794  -6.1214

     occupation numbers 
     1.0000   1.0000   1.0000   1.0000   1.0000   1.0000   1.0000   1.0000
     1.0000   1.0000   1.0000   1.0000   1.0000   1.0000   1.0000   1.0000
     1.0000   1.0000   1.0000   1.0000   1.0000

          k = 0.2727 0.5774 0.0000 (  7528 PWs)   bands (ev):

   -77.7447 -49.2294 -49.1604 -48.9014 -21.4594 -21.4244 -20.3647 -19.7781
   -14.8247 -14.5451 -13.6020 -13.5021 -11.4710 -11.1981 -10.8360  -9.8706
    -9.5079  -9.0483  -7.9753  -7.3781  -5.9691

     occupation numbers 
     1.0000   1.0000   1.0000   1.0000   1.0000   1.0000   1.0000   1.0000
     1.0000   1.0000   1.0000   1.0000   1.0000   1.0000   1.0000   1.0000
     1.0000   1.0000   1.0000   1.0000   1.0000

          k =-0.0909 0.0525 0.0000 (  7619 PWs)   bands (ev):

   -77.7860 -49.0144 -48.9957 -48.9590 -24.5353 -24.4581 -21.7772 -20.4076
   -13.9869 -11.4078  -9.9380  -9.8308  -9.3472  -9.3109  -9.2773  -9.1033
    -8.7527  -7.8319  -7.6779  -7.3288  -5.4699

     occupation numbers 
     1.0000   1.0000   1.0000   1.0000   1.0000   1.0000   1.0000   1.0000
     1.0000   1.0000   1.0000   1.0000   1.0000   1.0000   1.0000   1.0000
     1.0000   1.0000   1.0000   1.0000   1.0000

          k = 0.0909 0.0525 0.0000 (  7619 PWs)   bands (ev):

   -77.7860 -49.0144 -48.9957 -48.9590 -24.5353 -24.4581 -21.7772 -20.4076
   -13.9869 -11.4078  -9.9380  -9.8308  -9.3473  -9.3109  -9.2773  -9.1031
    -8.7529  -7.8325  -7.6772  -7.3288  -5.4699

     occupation numbers 
     1.0000   1.0000   1.0000   1.0000   1.0000   1.0000   1.0000   1.0000
     1.0000   1.0000   1.0000   1.0000   1.0000   1.0000   1.0000   1.0000
     1.0000   1.0000   1.0000   1.0000   1.0000

          k =-0.1818 0.1050 0.0000 (  7593 PWs)   bands (ev):

   -77.7775 -49.0787 -49.0103 -48.9472 -24.1092 -24.0385 -21.4628 -20.2392
   -13.6941 -11.4459 -11.2363 -11.1205  -9.7312  -9.6807  -9.6697  -9.0568
    -8.4858  -8.2411  -8.0347  -7.4321  -5.8445

     occupation numbers 
     1.0000   1.0000   1.0000   1.0000   1.0000   1.0000   1.0000   1.0000
     1.0000   1.0000   1.0000   1.0000   1.0000   1.0000   1.0000   1.0000
     1.0000   1.0000   1.0000   1.0000   1.0000

          k = 0.1818 0.1050 0.0000 (  7593 PWs)   bands (ev):

   -77.7775 -49.0787 -49.0103 -48.9472 -24.1092 -24.0385 -21.4628 -20.2392
   -13.6941 -11.4460 -11.2362 -11.1206  -9.7310  -9.6809  -9.6696  -9.0568
    -8.4859  -8.2416  -8.0341  -7.4319  -5.8447

     occupation numbers 
     1.0000   1.0000   1.0000   1.0000   1.0000   1.0000   1.0000   1.0000
     1.0000   1.0000   1.0000   1.0000   1.0000   1.0000   1.0000   1.0000
     1.0000   1.0000   1.0000   1.0000   1.0000

          k =-0.2727 0.1575 0.0000 (  7563 PWs)   bands (ev):

   -77.7664 -49.1621 -49.0293 -48.9316 -23.4462 -23.3852 -21.0363 -20.0237
   -13.6613 -12.9916 -12.4531 -11.0850 -10.4263 -10.0915 -10.0730  -8.8890
    -8.6974  -8.4486  -8.0934  -7.6326  -6.2470

     occupation numbers 
     1.0000   1.0000   1.0000   1.0000   1.0000   1.0000   1.0000   1.0000
     1.0000   1.0000   1.0000   1.0000   1.0000   1.0000   1.0000   1.0000
     1.0000   1.0000   1.0000   1.0000   1.0000

          k = 0.2727 0.1575 0.0000 (  7563 PWs)   bands (ev):

   -77.7664 -49.1621 -49.0293 -48.9316 -23.4462 -23.3852 -21.0363 -20.0238
   -13.6612 -12.9916 -12.4531 -11.0852 -10.4262 -10.0916 -10.0730  -8.8890
    -8.6975  -8.4481  -8.0935  -7.6325  -6.2474

     occupation numbers 
     1.0000   1.0000   1.0000   1.0000   1.0000   1.0000   1.0000   1.0000
     1.0000   1.0000   1.0000   1.0000   1.0000   1.0000   1.0000   1.0000
     1.0000   1.0000   1.0000   1.0000   1.0000

          k =-0.3636 0.2099 0.0000 (  7528 PWs)   bands (ev):

   -77.7562 -49.2380 -49.0467 -48.9173 -22.6513 -22.6028 -20.6580 -19.8698
   -14.7096 -14.4425 -12.4809 -11.2688 -10.8654 -10.4336 -10.4021  -9.3129
    -8.7730  -8.4596  -7.7222  -7.7152  -6.3801

     occupation numbers 
     1.0000   1.0000   1.0000   1.0000   1.0000   1.0000   1.0000   1.0000
     1.0000   1.0000   1.0000   1.0000   1.0000   1.0000   1.0000   1.0000
     1.0000   1.0000   1.0000   1.0000   1.0000

          k = 0.3636 0.2099 0.0000 (  7528 PWs)   bands (ev):

   -77.7562 -49.2381 -49.0467 -48.9173 -22.6513 -22.6028 -20.6579 -19.8699
   -14.7095 -14.4425 -12.4807 -11.2688 -10.8655 -10.4337 -10.4020  -9.3128
    -8.7726  -8.4597  -7.7221  -7.7152  -6.3804

     occupation numbers 
     1.0000   1.0000   1.0000   1.0000   1.0000   1.0000   1.0000   1.0000
     1.0000   1.0000   1.0000   1.0000   1.0000   1.0000   1.0000   1.0000
     1.0000   1.0000   1.0000   1.0000   1.0000

          k =-0.4545 0.2624 0.0000 (  7518 PWs)   bands (ev):

   -77.7501 -49.2828 -49.0571 -48.9088 -21.9932 -21.9578 -20.5059 -19.8692
   -15.5634 -15.3247 -12.3045 -11.6641 -11.0189 -10.6226 -10.5843  -9.4786
    -8.9525  -8.1975  -7.7392  -7.4741  -6.3372

     occupation numbers 
     1.0000   1.0000   1.0000   1.0000   1.0000   1.0000   1.0000   1.0000
     1.0000   1.0000   1.0000   1.0000   1.0000   1.0000   1.0000   1.0000
     1.0000   1.0000   1.0000   1.0000   1.0000

          k = 0.4545 0.2624 0.0000 (  7518 PWs)   bands (ev):

   -77.7501 -49.2829 -49.0571 -48.9088 -21.9931 -21.9578 -20.5058 -19.8693
   -15.5633 -15.3247 -12.3043 -11.6642 -11.0189 -10.6227 -10.5843  -9.4786
    -8.9522  -8.1976  -7.7389  -7.4741  -6.3375

     occupation numbers 
     1.0000   1.0000   1.0000   1.0000   1.0000   1.0000   1.0000   1.0000
     1.0000   1.0000   1.0000   1.0000   1.0000   1.0000   1.0000   1.0000
     1.0000   1.0000   1.0000   1.0000   1.0000

          k =-0.0909 0.1575 0.0000 (  7591 PWs)   bands (ev):

   -77.7802 -49.0571 -49.0072 -48.9509 -24.2491 -24.1762 -21.5628 -20.2920
   -13.7781 -11.3338 -10.7936 -10.7696  -9.8026  -9.6604  -9.3858  -9.1181
    -8.6012  -8.0908  -7.9929  -7.3127  -5.7214

     occupation numbers 
     1.0000   1.0000   1.0000   1.0000   1.0000   1.0000   1.0000   1.0000
     1.0000   1.0000   1.0000   1.0000   1.0000   1.0000   1.0000   1.0000
     1.0000   1.0000   1.0000   1.0000   1.0000

          k = 0.1818-0.0000 0.0000 (  7591 PWs)   bands (ev):

   -77.7802 -49.0571 -49.0072 -48.9509 -24.2491 -24.1762 -21.5628 -20.2920
   -13.7781 -11.3338 -10.7935 -10.7696  -9.8026  -9.6604  -9.3858  -9.1181
    -8.6012  -8.0908  -7.9929  -7.3128  -5.7214

     occupation numbers 
     1.0000   1.0000   1.0000   1.0000   1.0000   1.0000   1.0000   1.0000
     1.0000   1.0000   1.0000   1.0000   1.0000   1.0000   1.0000   1.0000
     1.0000   1.0000   1.0000   1.0000   1.0000

          k =-0.0909 0.2624 0.0000 (  7569 PWs)   bands (ev):

   -77.7704 -49.1274 -49.0276 -48.9372 -23.7028 -23.6380 -21.1902 -20.0976
   -13.5401 -12.2698 -12.0032 -11.0974 -10.4533 -10.2134  -9.8811  -8.8897
    -8.7539  -8.3192  -8.1304  -7.4988  -6.1257

     occupation numbers 
     1.0000   1.0000   1.0000   1.0000   1.0000   1.0000   1.0000   1.0000
     1.0000   1.0000   1.0000   1.0000   1.0000   1.0000   1.0000   1.0000
     1.0000   1.0000   1.0000   1.0000   1.0000

          k =-0.1818 0.2099 0.0000 (  7569 PWs)   bands (ev):

   -77.7704 -49.1274 -49.0276 -48.9372 -23.7028 -23.6380 -21.1902 -20.0975
   -13.5401 -12.2699 -12.0032 -11.0973 -10.4533 -10.2134  -9.8812  -8.8897
    -8.7538  -8.3191  -8.1306  -7.4988  -6.1255

     occupation numbers 
     1.0000   1.0000   1.0000   1.0000   1.0000   1.0000   1.0000   1.0000
     1.0000   1.0000   1.0000   1.0000   1.0000   1.0000   1.0000   1.0000
     1.0000   1.0000   1.0000   1.0000   1.0000

          k = 0.2727 0.0525 0.0000 (  7569 PWs)   bands (ev):

   -77.7704 -49.1274 -49.0276 -48.9372 -23.7028 -23.6380 -21.1902 -20.0976
   -13.5401 -12.2698 -12.0032 -11.0974 -10.4534 -10.2134  -9.8811  -8.8897
    -8.7538  -8.3192  -8.1304  -7.4988  -6.1257

     occupation numbers 
     1.0000   1.0000   1.0000   1.0000   1.0000   1.0000   1.0000   1.0000
     1.0000   1.0000   1.0000   1.0000   1.0000   1.0000   1.0000   1.0000
     1.0000   1.0000   1.0000   1.0000   1.0000

          k =-0.1818-0.2099 0.0000 (  7569 PWs)   bands (ev):

   -77.7704 -49.1274 -49.0276 -48.9372 -23.7028 -23.6380 -21.1902 -20.0976
   -13.5400 -12.2698 -12.0032 -11.0975 -10.4532 -10.2134  -9.8811  -8.8896
    -8.7537  -8.3193  -8.1309  -7.4984  -6.1259

     occupation numbers 
     1.0000   1.0000   1.0000   1.0000   1.0000   1.0000   1.0000   1.0000
     1.0000   1.0000   1.0000   1.0000   1.0000   1.0000   1.0000   1.0000
     1.0000   1.0000   1.0000   1.0000   1.0000

          k = 0.2727-0.0525 0.0000 (  7569 PWs)   bands (ev):

   -77.7704 -49.1274 -49.0276 -48.9372 -23.7028 -23.6380 -21.1902 -20.0975
   -13.5401 -12.2699 -12.0032 -11.0973 -10.4534 -10.2134  -9.8812  -8.8897
    -8.7538  -8.3191  -8.1306  -7.4988  -6.1255

     occupation numbers 
     1.0000   1.0000   1.0000   1.0000   1.0000   1.0000   1.0000   1.0000
     1.0000   1.0000   1.0000   1.0000   1.0000   1.0000   1.0000   1.0000
     1.0000   1.0000   1.0000   1.0000   1.0000

          k =-0.0909 0.3674 0.0000 (  7562 PWs)   bands (ev):

   -77.7597 -49.2029 -49.0499 -48.9223 -22.9651 -22.9113 -20.7812 -19.9058
   -14.1006 -13.7410 -12.4962 -11.1643 -10.8849 -10.6847 -10.4135  -9.3952
    -8.6386  -8.3320  -8.0288  -7.6777  -6.3701

     occupation numbers 
     1.0000   1.0000   1.0000   1.0000   1.0000   1.0000   1.0000   1.0000
     1.0000   1.0000   1.0000   1.0000   1.0000   1.0000   1.0000   1.0000
     1.0000   1.0000   1.0000   1.0000   1.0000

          k =-0.2727 0.2624 0.0000 (  7562 PWs)   bands (ev):

   -77.7597 -49.2029 -49.0499 -48.9223 -22.9651 -22.9113 -20.7812 -19.9057
   -14.1007 -13.7410 -12.4963 -11.1642 -10.8849 -10.6845 -10.4136  -9.3954
    -8.6386  -8.3320  -8.0288  -7.6778  -6.3699

     occupation numbers 
     1.0000   1.0000   1.0000   1.0000   1.0000   1.0000   1.0000   1.0000
     1.0000   1.0000   1.0000   1.0000   1.0000   1.0000   1.0000   1.0000
     1.0000   1.0000   1.0000   1.0000   1.0000

          k = 0.3636 0.1050 0.0000 (  7562 PWs)   bands (ev):

   -77.7597 -49.2029 -49.0499 -48.9223 -22.9651 -22.9113 -20.7812 -19.9058
   -14.1006 -13.7410 -12.4962 -11.1643 -10.8849 -10.6847 -10.4135  -9.3952
    -8.6386  -8.3320  -8.0288  -7.6778  -6.3701

     occupation numbers 
     1.0000   1.0000   1.0000   1.0000   1.0000   1.0000   1.0000   1.0000
     1.0000   1.0000   1.0000   1.0000   1.0000   1.0000   1.0000   1.0000
     1.0000   1.0000   1.0000   1.0000   1.0000

          k =-0.2727-0.2624 0.0000 (  7562 PWs)   bands (ev):

   -77.7597 -49.2029 -49.0499 -48.9223 -22.9651 -22.9113 -20.7812 -19.9058
   -14.1006 -13.7410 -12.4962 -11.1643 -10.8849 -10.6847 -10.4135  -9.3953
    -8.6386  -8.3319  -8.0287  -7.6777  -6.3703

     occupation numbers 
     1.0000   1.0000   1.0000   1.0000   1.0000   1.0000   1.0000   1.0000
     1.0000   1.0000   1.0000   1.0000   1.0000   1.0000   1.0000   1.0000
     1.0000   1.0000   1.0000   1.0000   1.0000

          k = 0.3636-0.1050 0.0000 (  7562 PWs)   bands (ev):

   -77.7597 -49.2029 -49.0499 -48.9223 -22.9651 -22.9113 -20.7812 -19.9057
   -14.1007 -13.7410 -12.4963 -11.1642 -10.8849 -10.6845 -10.4135  -9.3954
    -8.6386  -8.3320  -8.0288  -7.6778  -6.3699

     occupation numbers 
     1.0000   1.0000   1.0000   1.0000   1.0000   1.0000   1.0000   1.0000
     1.0000   1.0000   1.0000   1.0000   1.0000   1.0000   1.0000   1.0000
     1.0000   1.0000   1.0000   1.0000   1.0000

          k =-0.0909 0.4724 0.0000 (  7517 PWs)   bands (ev):

   -77.7515 -49.2601 -49.0670 -48.9109 -22.2026 -22.1620 -20.5173 -19.8318
   -15.1378 -14.8941 -12.3291 -11.5682 -11.1157 -10.8655 -10.8292  -9.6245
    -8.7993  -8.2505  -7.9087  -7.6194  -6.3302

     occupation numbers 
     1.0000   1.0000   1.0000   1.0000   1.0000   1.0000   1.0000   1.0000
     1.0000   1.0000   1.0000   1.0000   1.0000   1.0000   1.0000   1.0000
     1.0000   1.0000   1.0000   1.0000   1.0000

          k =-0.3636 0.3149 0.0000 (  7517 PWs)   bands (ev):

   -77.7515 -49.2600 -49.0670 -48.9109 -22.2026 -22.1620 -20.5173 -19.8317
   -15.1379 -14.8941 -12.3293 -11.5681 -11.1157 -10.8655 -10.8291  -9.6248
    -8.7992  -8.2504  -7.9086  -7.6196  -6.3301

     occupation numbers 
     1.0000   1.0000   1.0000   1.0000   1.0000   1.0000   1.0000   1.0000
     1.0000   1.0000   1.0000   1.0000   1.0000   1.0000   1.0000   1.0000
     1.0000   1.0000   1.0000   1.0000   1.0000

          k = 0.4545 0.1575 0.0000 (  7517 PWs)   bands (ev):

   -77.7515 -49.2601 -49.0670 -48.9109 -22.2026 -22.1620 -20.5173 -19.8318
   -15.1378 -14.8941 -12.3292 -11.5682 -11.1157 -10.8655 -10.8292  -9.6245
    -8.7993  -8.2505  -7.9087  -7.6194  -6.3302

     occupation numbers 
     1.0000   1.0000   1.0000   1.0000   1.0000   1.0000   1.0000   1.0000
     1.0000   1.0000   1.0000   1.0000   1.0000   1.0000   1.0000   1.0000
     1.0000   1.0000   1.0000   1.0000   1.0000

          k =-0.3636-0.3149 0.0000 (  7517 PWs)   bands (ev):

   -77.7515 -49.2601 -49.0670 -48.9109 -22.2026 -22.1620 -20.5173 -19.8318
   -15.1378 -14.8941 -12.3291 -11.5682 -11.1157 -10.8654 -10.8292  -9.6249
    -8.7989  -8.2505  -7.9085  -7.6196  -6.3304

     occupation numbers 
     1.0000   1.0000   1.0000   1.0000   1.0000   1.0000   1.0000   1.0000
     1.0000   1.0000   1.0000   1.0000   1.0000   1.0000   1.0000   1.0000
     1.0000   1.0000   1.0000   1.0000   1.0000

          k = 0.4545-0.1575 0.0000 (  7517 PWs)   bands (ev):

   -77.7515 -49.2600 -49.0670 -48.9109 -22.2026 -22.1620 -20.5173 -19.8317
   -15.1379 -14.8941 -12.3293 -11.5681 -11.1157 -10.8655 -10.8291  -9.6248
    -8.7992  -8.2504  -7.9087  -7.6196  -6.3301

     occupation numbers 
     1.0000   1.0000   1.0000   1.0000   1.0000   1.0000   1.0000   1.0000
     1.0000   1.0000   1.0000   1.0000   1.0000   1.0000   1.0000   1.0000
     1.0000   1.0000   1.0000   1.0000   1.0000

          k =-0.4545 0.3674 0.0000 (  7510 PWs)   bands (ev):

   -77.7485 -49.2812 -49.0733 -48.9066 -21.8204 -21.7873 -20.4731 -19.8611
   -15.5791 -15.3402 -12.2165 -11.7713 -11.1860 -11.0790 -10.9058  -9.5815
    -8.9940  -8.1115  -7.8568  -7.5831  -6.2562

     occupation numbers 
     1.0000   1.0000   1.0000   1.0000   1.0000   1.0000   1.0000   1.0000
     1.0000   1.0000   1.0000   1.0000   1.0000   1.0000   1.0000   1.0000
     1.0000   1.0000   1.0000   1.0000   1.0000

          k = 0.5455 0.2099 0.0000 (  7510 PWs)   bands (ev):

   -77.7485 -49.2813 -49.0733 -48.9066 -21.8204 -21.7873 -20.4730 -19.8613
   -15.5791 -15.3402 -12.2162 -11.7714 -11.1861 -11.0789 -10.9059  -9.5814
    -8.9939  -8.1116  -7.8567  -7.5830  -6.2564

     occupation numbers 
     1.0000   1.0000   1.0000   1.0000   1.0000   1.0000   1.0000   1.0000
     1.0000   1.0000   1.0000   1.0000   1.0000   1.0000   1.0000   1.0000
     1.0000   1.0000   1.0000   1.0000   1.0000

          k =-0.1818 0.3149 0.0000 (  7565 PWs)   bands (ev):

   -77.7610 -49.1830 -49.0580 -48.9241 -23.0765 -23.0208 -20.8299 -19.9206
   -13.7803 -13.2825 -12.3797 -11.3759 -11.2230 -10.8345 -10.2690  -9.5267
    -8.6502  -8.3217  -7.9667  -7.7168  -6.3667

     occupation numbers 
     1.0000   1.0000   1.0000   1.0000   1.0000   1.0000   1.0000   1.0000
     1.0000   1.0000   1.0000   1.0000   1.0000   1.0000   1.0000   1.0000
     1.0000   1.0000   1.0000   1.0000   1.0000

          k = 0.3636-0.0000 0.0000 (  7565 PWs)   bands (ev):

   -77.7610 -49.1830 -49.0580 -48.9241 -23.0765 -23.0208 -20.8299 -19.9206
   -13.7803 -13.2826 -12.3797 -11.3759 -11.2230 -10.8345 -10.2690  -9.5267
    -8.6502  -8.3217  -7.9667  -7.7168  -6.3667

     occupation numbers 
     1.0000   1.0000   1.0000   1.0000   1.0000   1.0000   1.0000   1.0000
     1.0000   1.0000   1.0000   1.0000   1.0000   1.0000   1.0000   1.0000
     1.0000   1.0000   1.0000   1.0000   1.0000

          k =-0.1818 0.4199 0.0000 (  7510 PWs)   bands (ev):

   -77.7524 -49.2299 -49.0898 -48.9121 -22.3393 -22.2952 -20.5255 -19.8000
   -14.5566 -14.2744 -12.3340 -12.0525 -11.8824 -10.8116 -10.6546  -9.9626
    -8.6130  -8.4939  -8.0698  -7.6697  -6.3390

     occupation numbers 
     1.0000   1.0000   1.0000   1.0000   1.0000   1.0000   1.0000   1.0000
     1.0000   1.0000   1.0000   1.0000   1.0000   1.0000   1.0000   1.0000
     1.0000   1.0000   1.0000   1.0000   1.0000

          k =-0.2727 0.3674 0.0000 (  7510 PWs)   bands (ev):

   -77.7524 -49.2299 -49.0898 -48.9121 -22.3393 -22.2952 -20.5255 -19.7999
   -14.5566 -14.2744 -12.3340 -12.0525 -11.8824 -10.8115 -10.6546  -9.9629
    -8.6129  -8.4938  -8.0698  -7.6698  -6.3390

     occupation numbers 
     1.0000   1.0000   1.0000   1.0000   1.0000   1.0000   1.0000   1.0000
     1.0000   1.0000   1.0000   1.0000   1.0000   1.0000   1.0000   1.0000
     1.0000   1.0000   1.0000   1.0000   1.0000

          k = 0.4545 0.0525 0.0000 (  7510 PWs)   bands (ev):

   -77.7524 -49.2299 -49.0898 -48.9121 -22.3393 -22.2952 -20.5255 -19.8000
   -14.5566 -14.2744 -12.3340 -12.0525 -11.8824 -10.8116 -10.6546  -9.9626
    -8.6130  -8.4939  -8.0698  -7.6697  -6.3390

     occupation numbers 
     1.0000   1.0000   1.0000   1.0000   1.0000   1.0000   1.0000   1.0000
     1.0000   1.0000   1.0000   1.0000   1.0000   1.0000   1.0000   1.0000
     1.0000   1.0000   1.0000   1.0000   1.0000

          k =-0.2727-0.3674 0.0000 (  7510 PWs)   bands (ev):

   -77.7524 -49.2299 -49.0898 -48.9121 -22.3393 -22.2952 -20.5255 -19.8000
   -14.5566 -14.2744 -12.3340 -12.0525 -11.8823 -10.8114 -10.6545  -9.9630
    -8.6130  -8.4938  -8.0695  -7.6699  -6.3392

     occupation numbers 
     1.0000   1.0000   1.0000   1.0000   1.0000   1.0000   1.0000   1.0000
     1.0000   1.0000   1.0000   1.0000   1.0000   1.0000   1.0000   1.0000
     1.0000   1.0000   1.0000   1.0000   1.0000

          k = 0.4545-0.0525 0.0000 (  7510 PWs)   bands (ev):

   -77.7524 -49.2299 -49.0898 -48.9121 -22.3393 -22.2952 -20.5255 -19.7999
   -14.5566 -14.2744 -12.3340 -12.0525 -11.8824 -10.8115 -10.6546  -9.9629
    -8.6129  -8.4938  -8.0698  -7.6698  -6.3390

     occupation numbers 
     1.0000   1.0000   1.0000   1.0000   1.0000   1.0000   1.0000   1.0000
     1.0000   1.0000   1.0000   1.0000   1.0000   1.0000   1.0000   1.0000
     1.0000   1.0000   1.0000   1.0000   1.0000

          k =-0.1818 0.5249 0.0000 (  7532 PWs)   bands (ev):

   -77.7473 -49.2564 -49.1098 -48.9049 -21.7475 -21.7136 -20.4140 -19.8012
   -15.1835 -14.9392 -12.5695 -12.3889 -11.7195 -11.1640 -10.9741  -9.7719
    -8.9902  -8.6244  -8.0268  -7.4994  -6.1593

     occupation numbers 
     1.0000   1.0000   1.0000   1.0000   1.0000   1.0000   1.0000   1.0000
     1.0000   1.0000   1.0000   1.0000   1.0000   1.0000   1.0000   1.0000
     1.0000   1.0000   1.0000   1.0000   1.0000

          k =-0.3636 0.4199 0.0000 (  7532 PWs)   bands (ev):

   -77.7473 -49.2564 -49.1098 -48.9049 -21.7475 -21.7136 -20.4141 -19.8011
   -15.1836 -14.9392 -12.5696 -12.3889 -11.7196 -11.1640 -10.9741  -9.7722
    -8.9900  -8.6243  -8.0268  -7.4995  -6.1592

     occupation numbers 
     1.0000   1.0000   1.0000   1.0000   1.0000   1.0000   1.0000   1.0000
     1.0000   1.0000   1.0000   1.0000   1.0000   1.0000   1.0000   1.0000
     1.0000   1.0000   1.0000   1.0000   1.0000

          k = 0.5455 0.1050 0.0000 (  7532 PWs)   bands (ev):

   -77.7473 -49.2564 -49.1098 -48.9049 -21.7475 -21.7136 -20.4140 -19.8012
   -15.1835 -14.9392 -12.5695 -12.3889 -11.7195 -11.1640 -10.9741  -9.7719
    -8.9902  -8.6244  -8.0268  -7.4994  -6.1593

     occupation numbers 
     1.0000   1.0000   1.0000   1.0000   1.0000   1.0000   1.0000   1.0000
     1.0000   1.0000   1.0000   1.0000   1.0000   1.0000   1.0000   1.0000
     1.0000   1.0000   1.0000   1.0000   1.0000

          k =-0.3636-0.4199 0.0000 (  7532 PWs)   bands (ev):

   -77.7473 -49.2564 -49.1098 -48.9049 -21.7475 -21.7136 -20.4140 -19.8012
   -15.1835 -14.9393 -12.5695 -12.3889 -11.7195 -11.1640 -10.9740  -9.7723
    -8.9900  -8.6243  -8.0267  -7.4995  -6.1594

     occupation numbers 
     1.0000   1.0000   1.0000   1.0000   1.0000   1.0000   1.0000   1.0000
     1.0000   1.0000   1.0000   1.0000   1.0000   1.0000   1.0000   1.0000
     1.0000   1.0000   1.0000   1.0000   1.0000

          k = 0.5455-0.1050 0.0000 (  7532 PWs)   bands (ev):

   -77.7473 -49.2564 -49.1098 -48.9049 -21.7475 -21.7136 -20.4141 -19.8011
   -15.1836 -14.9392 -12.5696 -12.3889 -11.7196 -11.1640 -10.9741  -9.7722
    -8.9900  -8.6243  -8.0268  -7.4995  -6.1592

     occupation numbers 
     1.0000   1.0000   1.0000   1.0000   1.0000   1.0000   1.0000   1.0000
     1.0000   1.0000   1.0000   1.0000   1.0000   1.0000   1.0000   1.0000
     1.0000   1.0000   1.0000   1.0000   1.0000

          k =-0.2727 0.4724 0.0000 (  7553 PWs)   bands (ev):

   -77.7468 -49.2351 -49.1356 -48.9043 -21.7356 -21.7009 -20.3830 -19.7651
   -14.7922 -14.5182 -13.1630 -13.0242 -11.7824 -11.0211 -10.7476  -9.9524
    -9.2950  -8.7271  -8.0467  -7.4793  -6.1213

     occupation numbers 
     1.0000   1.0000   1.0000   1.0000   1.0000   1.0000   1.0000   1.0000
     1.0000   1.0000   1.0000   1.0000   1.0000   1.0000   1.0000   1.0000
     1.0000   1.0000   1.0000   1.0000   1.0000

          k = 0.5455-0.0000 0.0000 (  7553 PWs)   bands (ev):

   -77.7468 -49.2351 -49.1356 -48.9043 -21.7356 -21.7009 -20.3830 -19.7651
   -14.7923 -14.5182 -13.1630 -13.0242 -11.7824 -11.0211 -10.7476  -9.9524
    -9.2950  -8.7271  -8.0467  -7.4793  -6.1213

     occupation numbers 
     1.0000   1.0000   1.0000   1.0000   1.0000   1.0000   1.0000   1.0000
     1.0000   1.0000   1.0000   1.0000   1.0000   1.0000   1.0000   1.0000
     1.0000   1.0000   1.0000   1.0000   1.0000

          k =-0.3636 0.5249 0.0000 (  7528 PWs)   bands (ev):

   -77.7447 -49.2294 -49.1604 -48.9014 -21.4594 -21.4244 -20.3647 -19.7781
   -14.8248 -14.5451 -13.6019 -13.5021 -11.4711 -11.1982 -10.8361  -9.8706
    -9.5078  -9.0482  -7.9754  -7.3781  -5.9691

     occupation numbers 
     1.0000   1.0000   1.0000   1.0000   1.0000   1.0000   1.0000   1.0000
     1.0000   1.0000   1.0000   1.0000   1.0000   1.0000   1.0000   1.0000
     1.0000   1.0000   1.0000   1.0000   1.0000

          k = 0.6364 0.0525 0.0000 (  7528 PWs)   bands (ev):

   -77.7447 -49.2294 -49.1604 -48.9014 -21.4594 -21.4244 -20.3647 -19.7781
   -14.8247 -14.5451 -13.6020 -13.5021 -11.4710 -11.1981 -10.8360  -9.8706
    -9.5079  -9.0483  -7.9753  -7.3781  -5.9691

     occupation numbers 
     1.0000   1.0000   1.0000   1.0000   1.0000   1.0000   1.0000   1.0000
     1.0000   1.0000   1.0000   1.0000   1.0000   1.0000   1.0000   1.0000
     1.0000   1.0000   1.0000   1.0000   1.0000

     highest occupied level (ev):    -5.3606

!    total energy              =    -263.32578634 Ry
     estimated scf accuracy    <          6.4E-13 Ry

     The total energy is the sum of the following terms:
     one-electron contribution =   -4596.08079412 Ry
     hartree contribution      =    2294.65473112 Ry
     xc contribution           =     -44.83086033 Ry
     ewald contribution        =    2082.93113698 Ry

     convergence has been achieved in  15 iterations

     Forces acting on atoms (cartesian axes, Ry/au):

     atom    1 type  1   force =    -0.00002929    0.00001676    0.00011743
     atom    2 type  3   force =     0.00001352   -0.00000816   -0.00353105
     atom    3 type  3   force =     0.00000855   -0.00000521    0.00321953
     atom    4 type  3   force =     0.00001010   -0.00000487    0.00278048
     atom    5 type  3   force =    -0.00000667    0.00000328   -0.00293289
     atom    6 type  2   force =    -0.00000876    0.00000446    0.00044703
     atom    7 type  2   force =     0.00001254   -0.00000628   -0.00010053
     The non-local contrib.  to forces
     atom    1 type  1   force =    -0.00002309    0.00001360   -0.00550626
     atom    2 type  3   force =    -0.00003890    0.00002726   -0.08285634
     atom    3 type  3   force =    -0.00002804    0.00000704    0.10688460
     atom    4 type  3   force =    -0.00010599    0.00006332   -0.86883430
     atom    5 type  3   force =    -0.00015040    0.00008579    0.83590669
     atom    6 type  2   force =    -0.00011307    0.00006811   -0.10901972
     atom    7 type  2   force =    -0.00003166    0.00001338    0.09122606
     The ionic contribution  to forces
     atom    1 type  1   force =    -0.00107228    0.00062191   -0.19921329
     atom    2 type  3   force =     0.00049367   -0.00031072  -43.59364780
     atom    3 type  3   force =     0.00032859   -0.00015968   43.76373664
     atom    4 type  3   force =     0.00010231   -0.00005619   90.23762308
     atom    5 type  3   force =     0.00019101   -0.00011254  -90.11039443
     atom    6 type  2   force =    -0.00006687    0.00004807  -62.67712350
     atom    7 type  2   force =     0.00002357   -0.00003083   62.57901929
     The local contribution  to forces
     atom    1 type  1   force =     0.00101259   -0.00058780    0.20478708
     atom    2 type  3   force =    -0.00049476    0.00030626   43.67291759
     atom    3 type  3   force =    -0.00034550    0.00017838  -43.86745705
     atom    4 type  3   force =    -0.00003972    0.00001895  -89.36606527
     atom    5 type  3   force =    -0.00010078    0.00006098   89.27149795
     atom    6 type  2   force =     0.00011769   -0.00008076   62.78653344
     atom    7 type  2   force =    -0.00003287    0.00004211  -62.67040284
     The core correction contribution to forces
     atom    1 type  1   force =     0.00000000    0.00000000    0.00000000
     atom    2 type  3   force =     0.00000000    0.00000000    0.00000000
     atom    3 type  3   force =     0.00000000    0.00000000    0.00000000
     atom    4 type  3   force =     0.00000000    0.00000000    0.00000000
     atom    5 type  3   force =     0.00000000    0.00000000    0.00000000
     atom    6 type  2   force =     0.00000000    0.00000000    0.00000000
     atom    7 type  2   force =     0.00000000    0.00000000    0.00000000
     The Hubbard contrib.    to forces
     atom    1 type  1   force =     0.00000000    0.00000000    0.00000000
     atom    2 type  3   force =     0.00000000    0.00000000    0.00000000
     atom    3 type  3   force =     0.00000000    0.00000000    0.00000000
     atom    4 type  3   force =     0.00000000    0.00000000    0.00000000
     atom    5 type  3   force =     0.00000000    0.00000000    0.00000000
     atom    6 type  2   force =     0.00000000    0.00000000    0.00000000
     atom    7 type  2   force =     0.00000000    0.00000000    0.00000000
     The SCF correction term to forces
     atom    1 type  1   force =     0.00000000    0.00000000   -0.00000705
     atom    2 type  3   force =    -0.00000000   -0.00000001   -0.00000146
     atom    3 type  3   force =    -0.00000000    0.00000001   -0.00000161
     atom    4 type  3   force =    -0.00000000   -0.00000000    0.00000001
     atom    5 type  3   force =     0.00000000   -0.00000000   -0.00000006
     atom    6 type  2   force =     0.00000000    0.00000000   -0.00000016
     atom    7 type  2   force =     0.00000000    0.00000000    0.00000000

     Total force =     0.006276     Total SCF correction =     0.000007
     Energy error            =      9.8E-05 Ry
     Gradient error          =      3.5E-03 Ry/Bohr

     number of scf cycles    =   4
     number of bfgs steps    =   3

     energy             old  =    -263.3256884499 Ry
     energy             new  =    -263.3257863447 Ry

     CASE: energy            _new < energy            _old

     new trust radius        =       0.0145675630 bohr
     new conv_thr            =            1.0E-12 Ry


ATOMIC_POSITIONS (crystal)
Cr               0.8571335360        0.1428485820        0.4277938044
N                0.5237717554        0.4762130985        0.3725774102
N                0.5237763144        0.4762033496        0.4837336150
N                0.8571498582        0.1428206738        0.5952023613
N                0.1904639622        0.8095261677        0.2621613582
Si               0.5238120307        0.4761779935        0.2884600377
Si               0.5238265432        0.4761441350        0.5684354133



     Writing config-only to output data dir ./tmp/crsi2n4.save/ :
     XML data file
     NEW-OLD atomic charge density approx. for the potential

     negative rho (up, down):  1.182E-07 0.000E+00

     total cpu time spent up to now is      398.6 secs

     Self-consistent Calculation
[tb_dev] Currently allocated     0.00E+00 Mbytes, locked:    0 /   0
[tb_pin] Currently allocated     0.00E+00 Mbytes, locked:    0 /   0

     iteration #  1     ecut=    60.00 Ry     beta= 0.50
     Davidson diagonalization with overlap

---- Real-time Memory Report at c_bands before calling an iterative solver
           869 MiB given to the printing process from OS
             0 MiB allocation reported by mallinfo(arena+hblkhd)
          8437 MiB available memory on the node where the printing process lives
     GPU memory used/free/total (MiB): 1849 / 10064 / 11914
------------------
     ethr =  1.00E-06,  avg # of iterations =  5.0

     total cpu time spent up to now is      404.6 secs

     total energy              =    -263.32583664 Ry
     estimated scf accuracy    <       0.00007941 Ry
[tb_dev] Currently allocated     2.67E-05 Mbytes, locked:    0 /   1
[tb_pin] Currently allocated     0.00E+00 Mbytes, locked:    0 /   0

     iteration #  2     ecut=    60.00 Ry     beta= 0.50
     Davidson diagonalization with overlap

---- Real-time Memory Report at c_bands before calling an iterative solver
           869 MiB given to the printing process from OS
             0 MiB allocation reported by mallinfo(arena+hblkhd)
          8434 MiB available memory on the node where the printing process lives
     GPU memory used/free/total (MiB): 1849 / 10064 / 11914
------------------
     ethr =  1.89E-07,  avg # of iterations =  4.3

     total cpu time spent up to now is      409.4 secs

     total energy              =    -263.32584314 Ry
     estimated scf accuracy    <       0.00004642 Ry
[tb_dev] Currently allocated     2.67E-05 Mbytes, locked:    0 /   1
[tb_pin] Currently allocated     0.00E+00 Mbytes, locked:    0 /   0

     iteration #  3     ecut=    60.00 Ry     beta= 0.50
     Davidson diagonalization with overlap

---- Real-time Memory Report at c_bands before calling an iterative solver
           869 MiB given to the printing process from OS
             0 MiB allocation reported by mallinfo(arena+hblkhd)
          8434 MiB available memory on the node where the printing process lives
     GPU memory used/free/total (MiB): 1849 / 10064 / 11914
------------------
     ethr =  1.11E-07,  avg # of iterations =  5.7

     total cpu time spent up to now is      414.7 secs

     total energy              =    -263.32584687 Ry
     estimated scf accuracy    <       0.00005248 Ry
[tb_dev] Currently allocated     2.67E-05 Mbytes, locked:    0 /   1
[tb_pin] Currently allocated     0.00E+00 Mbytes, locked:    0 /   0

     iteration #  4     ecut=    60.00 Ry     beta= 0.50
     Davidson diagonalization with overlap

---- Real-time Memory Report at c_bands before calling an iterative solver
           869 MiB given to the printing process from OS
             0 MiB allocation reported by mallinfo(arena+hblkhd)
          8432 MiB available memory on the node where the printing process lives
     GPU memory used/free/total (MiB): 1849 / 10064 / 11914
------------------
     ethr =  1.11E-07,  avg # of iterations =  5.3

     total cpu time spent up to now is      419.8 secs

     total energy              =    -263.32585471 Ry
     estimated scf accuracy    <       0.00001092 Ry
[tb_dev] Currently allocated     2.67E-05 Mbytes, locked:    0 /   1
[tb_pin] Currently allocated     0.00E+00 Mbytes, locked:    0 /   0

     iteration #  5     ecut=    60.00 Ry     beta= 0.50
     Davidson diagonalization with overlap

---- Real-time Memory Report at c_bands before calling an iterative solver
           869 MiB given to the printing process from OS
             0 MiB allocation reported by mallinfo(arena+hblkhd)
          8434 MiB available memory on the node where the printing process lives
     GPU memory used/free/total (MiB): 1849 / 10064 / 11914
------------------
     ethr =  2.60E-08,  avg # of iterations =  5.4

     total cpu time spent up to now is      424.9 secs

     total energy              =    -263.32585705 Ry
     estimated scf accuracy    <       0.00000347 Ry
[tb_dev] Currently allocated     2.67E-05 Mbytes, locked:    0 /   1
[tb_pin] Currently allocated     0.00E+00 Mbytes, locked:    0 /   0

     iteration #  6     ecut=    60.00 Ry     beta= 0.50
     Davidson diagonalization with overlap

---- Real-time Memory Report at c_bands before calling an iterative solver
           869 MiB given to the printing process from OS
             0 MiB allocation reported by mallinfo(arena+hblkhd)
          8420 MiB available memory on the node where the printing process lives
     GPU memory used/free/total (MiB): 1849 / 10064 / 11914
------------------
     ethr =  8.27E-09,  avg # of iterations =  4.1

     total cpu time spent up to now is      429.1 secs

     total energy              =    -263.32585751 Ry
     estimated scf accuracy    <       0.00000022 Ry
[tb_dev] Currently allocated     2.67E-05 Mbytes, locked:    0 /   1
[tb_pin] Currently allocated     0.00E+00 Mbytes, locked:    0 /   0

     iteration #  7     ecut=    60.00 Ry     beta= 0.50
     Davidson diagonalization with overlap

---- Real-time Memory Report at c_bands before calling an iterative solver
           869 MiB given to the printing process from OS
             0 MiB allocation reported by mallinfo(arena+hblkhd)
          8416 MiB available memory on the node where the printing process lives
     GPU memory used/free/total (MiB): 1849 / 10064 / 11914
------------------
     ethr =  5.22E-10,  avg # of iterations =  7.1

     total cpu time spent up to now is      435.6 secs

     total energy              =    -263.32585766 Ry
     estimated scf accuracy    <       0.00000008 Ry
[tb_dev] Currently allocated     2.67E-05 Mbytes, locked:    0 /   1
[tb_pin] Currently allocated     0.00E+00 Mbytes, locked:    0 /   0

     iteration #  8     ecut=    60.00 Ry     beta= 0.50
     Davidson diagonalization with overlap

---- Real-time Memory Report at c_bands before calling an iterative solver
           869 MiB given to the printing process from OS
             0 MiB allocation reported by mallinfo(arena+hblkhd)
          8435 MiB available memory on the node where the printing process lives
     GPU memory used/free/total (MiB): 1849 / 10064 / 11914
------------------
     ethr =  1.94E-10,  avg # of iterations =  5.1

     total cpu time spent up to now is      440.5 secs

     total energy              =    -263.32585767 Ry
     estimated scf accuracy    <       0.00000001 Ry
[tb_dev] Currently allocated     2.67E-05 Mbytes, locked:    0 /   1
[tb_pin] Currently allocated     0.00E+00 Mbytes, locked:    0 /   0

     iteration #  9     ecut=    60.00 Ry     beta= 0.50
     Davidson diagonalization with overlap

---- Real-time Memory Report at c_bands before calling an iterative solver
           869 MiB given to the printing process from OS
             0 MiB allocation reported by mallinfo(arena+hblkhd)
          8433 MiB available memory on the node where the printing process lives
     GPU memory used/free/total (MiB): 1849 / 10064 / 11914
------------------
     ethr =  2.47E-11,  avg # of iterations =  5.7

     total cpu time spent up to now is      445.9 secs

     total energy              =    -263.32585767 Ry
     estimated scf accuracy    <          1.0E-09 Ry
[tb_dev] Currently allocated     2.67E-05 Mbytes, locked:    0 /   1
[tb_pin] Currently allocated     0.00E+00 Mbytes, locked:    0 /   0

     iteration # 10     ecut=    60.00 Ry     beta= 0.50
     Davidson diagonalization with overlap

---- Real-time Memory Report at c_bands before calling an iterative solver
           869 MiB given to the printing process from OS
             0 MiB allocation reported by mallinfo(arena+hblkhd)
          8433 MiB available memory on the node where the printing process lives
     GPU memory used/free/total (MiB): 1849 / 10064 / 11914
------------------
     ethr =  2.38E-12,  avg # of iterations =  7.0

     total cpu time spent up to now is      452.4 secs

     total energy              =    -263.32585767 Ry
     estimated scf accuracy    <          2.4E-10 Ry
[tb_dev] Currently allocated     2.67E-05 Mbytes, locked:    0 /   1
[tb_pin] Currently allocated     0.00E+00 Mbytes, locked:    0 /   0

     iteration # 11     ecut=    60.00 Ry     beta= 0.50
     Davidson diagonalization with overlap

---- Real-time Memory Report at c_bands before calling an iterative solver
           872 MiB given to the printing process from OS
             0 MiB allocation reported by mallinfo(arena+hblkhd)
          8427 MiB available memory on the node where the printing process lives
     GPU memory used/free/total (MiB): 1849 / 10064 / 11914
------------------
     ethr =  5.76E-13,  avg # of iterations =  5.6

     total cpu time spent up to now is      457.9 secs

     total energy              =    -263.32585767 Ry
     estimated scf accuracy    <          5.1E-11 Ry
[tb_dev] Currently allocated     2.67E-05 Mbytes, locked:    0 /   1
[tb_pin] Currently allocated     0.00E+00 Mbytes, locked:    0 /   0

     iteration # 12     ecut=    60.00 Ry     beta= 0.50
     Davidson diagonalization with overlap

---- Real-time Memory Report at c_bands before calling an iterative solver
           872 MiB given to the printing process from OS
             0 MiB allocation reported by mallinfo(arena+hblkhd)
          8426 MiB available memory on the node where the printing process lives
     GPU memory used/free/total (MiB): 1849 / 10064 / 11914
------------------
     ethr =  1.21E-13,  avg # of iterations =  5.8

     total cpu time spent up to now is      463.2 secs

     total energy              =    -263.32585767 Ry
     estimated scf accuracy    <          1.3E-11 Ry
[tb_dev] Currently allocated     2.67E-05 Mbytes, locked:    0 /   1
[tb_pin] Currently allocated     0.00E+00 Mbytes, locked:    0 /   0

     iteration # 13     ecut=    60.00 Ry     beta= 0.50
     Davidson diagonalization with overlap

---- Real-time Memory Report at c_bands before calling an iterative solver
           873 MiB given to the printing process from OS
             0 MiB allocation reported by mallinfo(arena+hblkhd)
          8424 MiB available memory on the node where the printing process lives
     GPU memory used/free/total (MiB): 1849 / 10064 / 11914
------------------
     ethr =  1.00E-13,  avg # of iterations =  2.4

     total cpu time spent up to now is      466.8 secs

     total energy              =    -263.32585767 Ry
     estimated scf accuracy    <          1.7E-12 Ry
[tb_dev] Currently allocated     2.67E-05 Mbytes, locked:    0 /   1
[tb_pin] Currently allocated     0.00E+00 Mbytes, locked:    0 /   0

     iteration # 14     ecut=    60.00 Ry     beta= 0.50
     Davidson diagonalization with overlap

---- Real-time Memory Report at c_bands before calling an iterative solver
           873 MiB given to the printing process from OS
             0 MiB allocation reported by mallinfo(arena+hblkhd)
          9227 MiB available memory on the node where the printing process lives
     GPU memory used/free/total (MiB): 1849 / 10064 / 11914
------------------
     ethr =  1.00E-13,  avg # of iterations =  2.7

     total cpu time spent up to now is      470.5 secs

     total energy              =    -263.32585767 Ry
     estimated scf accuracy    <          2.0E-12 Ry
[tb_dev] Currently allocated     2.67E-05 Mbytes, locked:    0 /   1
[tb_pin] Currently allocated     0.00E+00 Mbytes, locked:    0 /   0

     iteration # 15     ecut=    60.00 Ry     beta= 0.50
     Davidson diagonalization with overlap

---- Real-time Memory Report at c_bands before calling an iterative solver
           873 MiB given to the printing process from OS
             0 MiB allocation reported by mallinfo(arena+hblkhd)
          9226 MiB available memory on the node where the printing process lives
     GPU memory used/free/total (MiB): 1849 / 10064 / 11914
------------------
     ethr =  1.00E-13,  avg # of iterations =  1.0

     total cpu time spent up to now is      473.2 secs

     total energy              =    -263.32585767 Ry
     estimated scf accuracy    <          1.1E-12 Ry
[tb_dev] Currently allocated     2.67E-05 Mbytes, locked:    0 /   1
[tb_pin] Currently allocated     0.00E+00 Mbytes, locked:    0 /   0

     iteration # 16     ecut=    60.00 Ry     beta= 0.50
     Davidson diagonalization with overlap

---- Real-time Memory Report at c_bands before calling an iterative solver
           873 MiB given to the printing process from OS
             0 MiB allocation reported by mallinfo(arena+hblkhd)
          9226 MiB available memory on the node where the printing process lives
     GPU memory used/free/total (MiB): 1849 / 10064 / 11914
------------------
     ethr =  1.00E-13,  avg # of iterations =  1.0

     total cpu time spent up to now is      475.8 secs

     End of self-consistent calculation

          k = 0.0000 0.0000 0.0000 (  7657 PWs)   bands (ev):

   -77.7899 -48.9894 -48.9894 -48.9647 -24.6770 -24.6004 -21.8803 -20.4674
   -14.0978 -11.4773  -9.5214  -9.2142  -9.2141  -9.1614  -9.1612  -8.8257
    -8.8254  -7.5565  -7.5159  -7.5148  -5.3705

     occupation numbers 
     1.0000   1.0000   1.0000   1.0000   1.0000   1.0000   1.0000   1.0000
     1.0000   1.0000   1.0000   1.0000   1.0000   1.0000   1.0000   1.0000
     1.0000   1.0000   1.0000   1.0000   1.0000

          k = 0.0000 0.1050 0.0000 (  7619 PWs)   bands (ev):

   -77.7868 -49.0135 -48.9948 -48.9603 -24.5310 -24.4566 -21.7662 -20.4050
   -13.9783 -11.4221  -9.9342  -9.8276  -9.3410  -9.3073  -9.2840  -9.0859
    -8.7360  -7.8292  -7.6649  -7.3326  -5.4778

     occupation numbers 
     1.0000   1.0000   1.0000   1.0000   1.0000   1.0000   1.0000   1.0000
     1.0000   1.0000   1.0000   1.0000   1.0000   1.0000   1.0000   1.0000
     1.0000   1.0000   1.0000   1.0000   1.0000

          k = 0.0000 0.2099 0.0000 (  7593 PWs)   bands (ev):

   -77.7783 -49.0776 -49.0094 -48.9485 -24.1050 -24.0370 -21.4515 -20.2358
   -13.6845 -11.4526 -11.2321 -11.1235  -9.7155  -9.6745  -9.6673  -9.0640
    -8.4685  -8.2378  -8.0220  -7.4382  -5.8489

     occupation numbers 
     1.0000   1.0000   1.0000   1.0000   1.0000   1.0000   1.0000   1.0000
     1.0000   1.0000   1.0000   1.0000   1.0000   1.0000   1.0000   1.0000
     1.0000   1.0000   1.0000   1.0000   1.0000

          k = 0.0000 0.3149 0.0000 (  7563 PWs)   bands (ev):

   -77.7672 -49.1609 -49.0284 -48.9330 -23.4422 -23.3840 -21.0242 -20.0187
   -13.6530 -12.9915 -12.4476 -11.0893 -10.4138 -10.0862 -10.0702  -8.8922
    -8.7004  -8.4368  -8.0762  -7.6402  -6.2495

     occupation numbers 
     1.0000   1.0000   1.0000   1.0000   1.0000   1.0000   1.0000   1.0000
     1.0000   1.0000   1.0000   1.0000   1.0000   1.0000   1.0000   1.0000
     1.0000   1.0000   1.0000   1.0000   1.0000

          k = 0.0000 0.4199 0.0000 (  7528 PWs)   bands (ev):

   -77.7570 -49.2367 -49.0458 -48.9187 -22.6478 -22.6024 -20.6444 -19.8623
   -14.7060 -14.4435 -12.4694 -11.2607 -10.8617 -10.4286 -10.3991  -9.3178
    -8.7613  -8.4655  -7.7311  -7.6993  -6.3822

     occupation numbers 
     1.0000   1.0000   1.0000   1.0000   1.0000   1.0000   1.0000   1.0000
     1.0000   1.0000   1.0000   1.0000   1.0000   1.0000   1.0000   1.0000
     1.0000   1.0000   1.0000   1.0000   1.0000

          k = 0.0000 0.5249 0.0000 (  7518 PWs)   bands (ev):

   -77.7509 -49.2814 -49.0561 -48.9102 -21.9904 -21.9592 -20.4899 -19.8589
   -15.5610 -15.3268 -12.2921 -11.6536 -11.0144 -10.6177 -10.5814  -9.4864
    -8.9409  -8.2027  -7.7493  -7.4593  -6.3399

     occupation numbers 
     1.0000   1.0000   1.0000   1.0000   1.0000   1.0000   1.0000   1.0000
     1.0000   1.0000   1.0000   1.0000   1.0000   1.0000   1.0000   1.0000
     1.0000   1.0000   1.0000   1.0000   1.0000

          k = 0.0909 0.1575 0.0000 (  7591 PWs)   bands (ev):

   -77.7810 -49.0561 -49.0063 -48.9522 -24.2449 -24.1748 -21.5515 -20.2889
   -13.7688 -11.3467 -10.7883 -10.7680  -9.7929  -9.6561  -9.3754  -9.1252
    -8.5834  -8.0790  -7.9912  -7.3157  -5.7268

     occupation numbers 
     1.0000   1.0000   1.0000   1.0000   1.0000   1.0000   1.0000   1.0000
     1.0000   1.0000   1.0000   1.0000   1.0000   1.0000   1.0000   1.0000
     1.0000   1.0000   1.0000   1.0000   1.0000

          k = 0.0909 0.2624 0.0000 (  7569 PWs)   bands (ev):

   -77.7712 -49.1262 -49.0267 -48.9385 -23.6988 -23.6367 -21.1785 -20.0932
   -13.5301 -12.2701 -11.9998 -11.1037 -10.4426 -10.2096  -9.8735  -8.8946
    -8.7472  -8.3033  -8.1274  -7.5024  -6.1284

     occupation numbers 
     1.0000   1.0000   1.0000   1.0000   1.0000   1.0000   1.0000   1.0000
     1.0000   1.0000   1.0000   1.0000   1.0000   1.0000   1.0000   1.0000
     1.0000   1.0000   1.0000   1.0000   1.0000

          k = 0.0909 0.3674 0.0000 (  7562 PWs)   bands (ev):

   -77.7605 -49.2016 -49.0490 -48.9236 -22.9614 -22.9104 -20.7684 -19.8994
   -14.0956 -13.7415 -12.4869 -11.1578 -10.8810 -10.6825 -10.4084  -9.3913
    -8.6432  -8.3289  -8.0151  -7.6838  -6.3713

     occupation numbers 
     1.0000   1.0000   1.0000   1.0000   1.0000   1.0000   1.0000   1.0000
     1.0000   1.0000   1.0000   1.0000   1.0000   1.0000   1.0000   1.0000
     1.0000   1.0000   1.0000   1.0000   1.0000

          k = 0.0909 0.4724 0.0000 (  7517 PWs)   bands (ev):

   -77.7524 -49.2586 -49.0660 -48.9123 -22.1995 -22.1625 -20.5024 -19.8226
   -15.1350 -14.8957 -12.3172 -11.5584 -11.1110 -10.8624 -10.8252  -9.6262
    -8.7952  -8.2539  -7.9027  -7.6227  -6.3304

     occupation numbers 
     1.0000   1.0000   1.0000   1.0000   1.0000   1.0000   1.0000   1.0000
     1.0000   1.0000   1.0000   1.0000   1.0000   1.0000   1.0000   1.0000
     1.0000   1.0000   1.0000   1.0000   1.0000

          k = 0.0909 0.5774 0.0000 (  7510 PWs)   bands (ev):

   -77.7493 -49.2798 -49.0723 -48.9080 -21.8179 -21.7894 -20.4563 -19.8501
   -15.5768 -15.3424 -12.2045 -11.7608 -11.1799 -11.0774 -10.9008  -9.5851
    -8.9885  -8.1146  -7.8539  -7.5859  -6.2563

     occupation numbers 
     1.0000   1.0000   1.0000   1.0000   1.0000   1.0000   1.0000   1.0000
     1.0000   1.0000   1.0000   1.0000   1.0000   1.0000   1.0000   1.0000
     1.0000   1.0000   1.0000   1.0000   1.0000

          k = 0.1818 0.3149 0.0000 (  7565 PWs)   bands (ev):

   -77.7618 -49.1818 -49.0570 -48.9255 -23.0727 -23.0198 -20.8173 -19.9147
   -13.7736 -13.2832 -12.3723 -11.3672 -11.2184 -10.8389 -10.2614  -9.5187
    -8.6563  -8.3109  -7.9651  -7.7200  -6.3675

     occupation numbers 
     1.0000   1.0000   1.0000   1.0000   1.0000   1.0000   1.0000   1.0000
     1.0000   1.0000   1.0000   1.0000   1.0000   1.0000   1.0000   1.0000
     1.0000   1.0000   1.0000   1.0000   1.0000

          k = 0.1818 0.4199 0.0000 (  7510 PWs)   bands (ev):

   -77.7532 -49.2286 -49.0887 -48.9135 -22.3360 -22.2952 -20.5112 -19.7916
   -14.5529 -14.2756 -12.3243 -12.0454 -11.8778 -10.8077 -10.6478  -9.9603
    -8.6091  -8.4919  -8.0723  -7.6753  -6.3374

     occupation numbers 
     1.0000   1.0000   1.0000   1.0000   1.0000   1.0000   1.0000   1.0000
     1.0000   1.0000   1.0000   1.0000   1.0000   1.0000   1.0000   1.0000
     1.0000   1.0000   1.0000   1.0000   1.0000

          k = 0.1818 0.5249 0.0000 (  7532 PWs)   bands (ev):

   -77.7481 -49.2550 -49.1088 -48.9063 -21.7451 -21.7158 -20.3972 -19.7900
   -15.1808 -14.9411 -12.5623 -12.3850 -11.7115 -11.1556 -10.9661  -9.7731
    -8.9874  -8.6181  -8.0340  -7.5064  -6.1567

     occupation numbers 
     1.0000   1.0000   1.0000   1.0000   1.0000   1.0000   1.0000   1.0000
     1.0000   1.0000   1.0000   1.0000   1.0000   1.0000   1.0000   1.0000
     1.0000   1.0000   1.0000   1.0000   1.0000

          k = 0.2727 0.4724 0.0000 (  7553 PWs)   bands (ev):

   -77.7477 -49.2337 -49.1345 -48.9057 -21.7332 -21.7029 -20.3663 -19.7541
   -14.7889 -14.5200 -13.1575 -13.0226 -11.7720 -11.0110 -10.7391  -9.9522
    -9.2882  -8.7279  -8.0545  -7.4860  -6.1180

     occupation numbers 
     1.0000   1.0000   1.0000   1.0000   1.0000   1.0000   1.0000   1.0000
     1.0000   1.0000   1.0000   1.0000   1.0000   1.0000   1.0000   1.0000
     1.0000   1.0000   1.0000   1.0000   1.0000

          k = 0.2727 0.5774 0.0000 (  7528 PWs)   bands (ev):

   -77.7456 -49.2280 -49.1592 -48.9028 -21.4580 -21.4283 -20.3460 -19.7655
   -14.8213 -14.5469 -13.5974 -13.5011 -11.4622 -11.1871 -10.8260  -9.8608
    -9.5117  -9.0484  -7.9839  -7.3853  -5.9654

     occupation numbers 
     1.0000   1.0000   1.0000   1.0000   1.0000   1.0000   1.0000   1.0000
     1.0000   1.0000   1.0000   1.0000   1.0000   1.0000   1.0000   1.0000
     1.0000   1.0000   1.0000   1.0000   1.0000

          k =-0.0909 0.0525 0.0000 (  7619 PWs)   bands (ev):

   -77.7868 -49.0135 -48.9948 -48.9603 -24.5310 -24.4566 -21.7662 -20.4050
   -13.9783 -11.4220  -9.9343  -9.8277  -9.3409  -9.3072  -9.2841  -9.0861
    -8.7358  -7.8285  -7.6657  -7.3326  -5.4777

     occupation numbers 
     1.0000   1.0000   1.0000   1.0000   1.0000   1.0000   1.0000   1.0000
     1.0000   1.0000   1.0000   1.0000   1.0000   1.0000   1.0000   1.0000
     1.0000   1.0000   1.0000   1.0000   1.0000

          k = 0.0909 0.0525 0.0000 (  7619 PWs)   bands (ev):

   -77.7868 -49.0135 -48.9948 -48.9603 -24.5310 -24.4566 -21.7662 -20.4050
   -13.9783 -11.4221  -9.9342  -9.8276  -9.3410  -9.3073  -9.2840  -9.0859
    -8.7360  -7.8292  -7.6649  -7.3326  -5.4778

     occupation numbers 
     1.0000   1.0000   1.0000   1.0000   1.0000   1.0000   1.0000   1.0000
     1.0000   1.0000   1.0000   1.0000   1.0000   1.0000   1.0000   1.0000
     1.0000   1.0000   1.0000   1.0000   1.0000

          k =-0.1818 0.1050 0.0000 (  7593 PWs)   bands (ev):

   -77.7783 -49.0776 -49.0094 -48.9485 -24.1050 -24.0370 -21.4515 -20.2358
   -13.6846 -11.4525 -11.2323 -11.1234  -9.7158  -9.6743  -9.6674  -9.0640
    -8.4683  -8.2372  -8.0226  -7.4385  -5.8487

     occupation numbers 
     1.0000   1.0000   1.0000   1.0000   1.0000   1.0000   1.0000   1.0000
     1.0000   1.0000   1.0000   1.0000   1.0000   1.0000   1.0000   1.0000
     1.0000   1.0000   1.0000   1.0000   1.0000

          k = 0.1818 0.1050 0.0000 (  7593 PWs)   bands (ev):

   -77.7783 -49.0776 -49.0094 -48.9485 -24.1050 -24.0370 -21.4515 -20.2358
   -13.6845 -11.4526 -11.2321 -11.1235  -9.7155  -9.6745  -9.6673  -9.0640
    -8.4685  -8.2378  -8.0220  -7.4382  -5.8489

     occupation numbers 
     1.0000   1.0000   1.0000   1.0000   1.0000   1.0000   1.0000   1.0000
     1.0000   1.0000   1.0000   1.0000   1.0000   1.0000   1.0000   1.0000
     1.0000   1.0000   1.0000   1.0000   1.0000

          k =-0.2727 0.1575 0.0000 (  7563 PWs)   bands (ev):

   -77.7672 -49.1609 -49.0284 -48.9330 -23.4422 -23.3840 -21.0243 -20.0186
   -13.6531 -12.9915 -12.4477 -11.0891 -10.4139 -10.0861 -10.0702  -8.8923
    -8.7002  -8.4373  -8.0761  -7.6404  -6.2492

     occupation numbers 
     1.0000   1.0000   1.0000   1.0000   1.0000   1.0000   1.0000   1.0000
     1.0000   1.0000   1.0000   1.0000   1.0000   1.0000   1.0000   1.0000
     1.0000   1.0000   1.0000   1.0000   1.0000

          k = 0.2727 0.1575 0.0000 (  7563 PWs)   bands (ev):

   -77.7672 -49.1609 -49.0284 -48.9330 -23.4422 -23.3840 -21.0242 -20.0187
   -13.6530 -12.9915 -12.4476 -11.0893 -10.4138 -10.0862 -10.0702  -8.8922
    -8.7004  -8.4368  -8.0762  -7.6402  -6.2495

     occupation numbers 
     1.0000   1.0000   1.0000   1.0000   1.0000   1.0000   1.0000   1.0000
     1.0000   1.0000   1.0000   1.0000   1.0000   1.0000   1.0000   1.0000
     1.0000   1.0000   1.0000   1.0000   1.0000

          k =-0.3636 0.2099 0.0000 (  7528 PWs)   bands (ev):

   -77.7570 -49.2367 -49.0458 -48.9187 -22.6478 -22.6024 -20.6444 -19.8622
   -14.7060 -14.4435 -12.4696 -11.2606 -10.8616 -10.4285 -10.3991  -9.3179
    -8.7617  -8.4653  -7.7312  -7.6993  -6.3819

     occupation numbers 
     1.0000   1.0000   1.0000   1.0000   1.0000   1.0000   1.0000   1.0000
     1.0000   1.0000   1.0000   1.0000   1.0000   1.0000   1.0000   1.0000
     1.0000   1.0000   1.0000   1.0000   1.0000

          k = 0.3636 0.2099 0.0000 (  7528 PWs)   bands (ev):

   -77.7570 -49.2367 -49.0458 -48.9187 -22.6478 -22.6024 -20.6444 -19.8623
   -14.7060 -14.4435 -12.4694 -11.2607 -10.8617 -10.4286 -10.3991  -9.3178
    -8.7613  -8.4654  -7.7311  -7.6993  -6.3822

     occupation numbers 
     1.0000   1.0000   1.0000   1.0000   1.0000   1.0000   1.0000   1.0000
     1.0000   1.0000   1.0000   1.0000   1.0000   1.0000   1.0000   1.0000
     1.0000   1.0000   1.0000   1.0000   1.0000

          k =-0.4545 0.2624 0.0000 (  7518 PWs)   bands (ev):

   -77.7509 -49.2814 -49.0561 -48.9102 -21.9904 -21.9592 -20.4900 -19.8587
   -15.5611 -15.3268 -12.2925 -11.6534 -11.0143 -10.6176 -10.5814  -9.4863
    -8.9412  -8.2024  -7.7496  -7.4594  -6.3396

     occupation numbers 
     1.0000   1.0000   1.0000   1.0000   1.0000   1.0000   1.0000   1.0000
     1.0000   1.0000   1.0000   1.0000   1.0000   1.0000   1.0000   1.0000
     1.0000   1.0000   1.0000   1.0000   1.0000

          k = 0.4545 0.2624 0.0000 (  7518 PWs)   bands (ev):

   -77.7509 -49.2814 -49.0561 -48.9102 -21.9904 -21.9592 -20.4899 -19.8589
   -15.5610 -15.3268 -12.2922 -11.6536 -11.0144 -10.6177 -10.5814  -9.4864
    -8.9409  -8.2027  -7.7493  -7.4593  -6.3399

     occupation numbers 
     1.0000   1.0000   1.0000   1.0000   1.0000   1.0000   1.0000   1.0000
     1.0000   1.0000   1.0000   1.0000   1.0000   1.0000   1.0000   1.0000
     1.0000   1.0000   1.0000   1.0000   1.0000

          k =-0.0909 0.1575 0.0000 (  7591 PWs)   bands (ev):

   -77.7810 -49.0561 -49.0063 -48.9522 -24.2449 -24.1748 -21.5515 -20.2889
   -13.7689 -11.3467 -10.7885 -10.7680  -9.7929  -9.6560  -9.3755  -9.1252
    -8.5832  -8.0794  -7.9906  -7.3161  -5.7266

     occupation numbers 
     1.0000   1.0000   1.0000   1.0000   1.0000   1.0000   1.0000   1.0000
     1.0000   1.0000   1.0000   1.0000   1.0000   1.0000   1.0000   1.0000
     1.0000   1.0000   1.0000   1.0000   1.0000

          k = 0.1818-0.0000 0.0000 (  7591 PWs)   bands (ev):

   -77.7810 -49.0561 -49.0063 -48.9522 -24.2449 -24.1748 -21.5515 -20.2889
   -13.7689 -11.3467 -10.7885 -10.7680  -9.7930  -9.6560  -9.3755  -9.1252
    -8.5832  -8.0794  -7.9906  -7.3161  -5.7266

     occupation numbers 
     1.0000   1.0000   1.0000   1.0000   1.0000   1.0000   1.0000   1.0000
     1.0000   1.0000   1.0000   1.0000   1.0000   1.0000   1.0000   1.0000
     1.0000   1.0000   1.0000   1.0000   1.0000

          k =-0.0909 0.2624 0.0000 (  7569 PWs)   bands (ev):

   -77.7712 -49.1262 -49.0267 -48.9385 -23.6988 -23.6367 -21.1785 -20.0932
   -13.5302 -12.2701 -11.9999 -11.1036 -10.4427 -10.2096  -9.8736  -8.8947
    -8.7474  -8.3032  -8.1270  -7.5029  -6.1282

     occupation numbers 
     1.0000   1.0000   1.0000   1.0000   1.0000   1.0000   1.0000   1.0000
     1.0000   1.0000   1.0000   1.0000   1.0000   1.0000   1.0000   1.0000
     1.0000   1.0000   1.0000   1.0000   1.0000

          k =-0.1818 0.2099 0.0000 (  7569 PWs)   bands (ev):

   -77.7712 -49.1262 -49.0266 -48.9385 -23.6988 -23.6367 -21.1785 -20.0931
   -13.5302 -12.2702 -11.9999 -11.1035 -10.4427 -10.2095  -9.8737  -8.8947
    -8.7473  -8.3031  -8.1271  -7.5029  -6.1281

     occupation numbers 
     1.0000   1.0000   1.0000   1.0000   1.0000   1.0000   1.0000   1.0000
     1.0000   1.0000   1.0000   1.0000   1.0000   1.0000   1.0000   1.0000
     1.0000   1.0000   1.0000   1.0000   1.0000

          k = 0.2727 0.0525 0.0000 (  7569 PWs)   bands (ev):

   -77.7712 -49.1262 -49.0267 -48.9385 -23.6988 -23.6367 -21.1785 -20.0932
   -13.5302 -12.2702 -11.9999 -11.1036 -10.4427 -10.2096  -9.8736  -8.8947
    -8.7474  -8.3032  -8.1269  -7.5029  -6.1282

     occupation numbers 
     1.0000   1.0000   1.0000   1.0000   1.0000   1.0000   1.0000   1.0000
     1.0000   1.0000   1.0000   1.0000   1.0000   1.0000   1.0000   1.0000
     1.0000   1.0000   1.0000   1.0000   1.0000

          k =-0.1818-0.2099 0.0000 (  7569 PWs)   bands (ev):

   -77.7712 -49.1262 -49.0267 -48.9385 -23.6988 -23.6367 -21.1785 -20.0932
   -13.5301 -12.2701 -11.9998 -11.1037 -10.4426 -10.2096  -9.8735  -8.8946
    -8.7472  -8.3033  -8.1274  -7.5024  -6.1284

     occupation numbers 
     1.0000   1.0000   1.0000   1.0000   1.0000   1.0000   1.0000   1.0000
     1.0000   1.0000   1.0000   1.0000   1.0000   1.0000   1.0000   1.0000
     1.0000   1.0000   1.0000   1.0000   1.0000

          k = 0.2727-0.0525 0.0000 (  7569 PWs)   bands (ev):

   -77.7712 -49.1262 -49.0266 -48.9385 -23.6988 -23.6367 -21.1785 -20.0931
   -13.5302 -12.2702 -11.9999 -11.1035 -10.4427 -10.2095  -9.8737  -8.8947
    -8.7473  -8.3031  -8.1271  -7.5029  -6.1281

     occupation numbers 
     1.0000   1.0000   1.0000   1.0000   1.0000   1.0000   1.0000   1.0000
     1.0000   1.0000   1.0000   1.0000   1.0000   1.0000   1.0000   1.0000
     1.0000   1.0000   1.0000   1.0000   1.0000

          k =-0.0909 0.3674 0.0000 (  7562 PWs)   bands (ev):

   -77.7605 -49.2016 -49.0490 -48.9236 -22.9614 -22.9104 -20.7684 -19.8993
   -14.0956 -13.7415 -12.4869 -11.1579 -10.8810 -10.6825 -10.4084  -9.3912
    -8.6432  -8.3290  -8.0153  -7.6839  -6.3710

     occupation numbers 
     1.0000   1.0000   1.0000   1.0000   1.0000   1.0000   1.0000   1.0000
     1.0000   1.0000   1.0000   1.0000   1.0000   1.0000   1.0000   1.0000
     1.0000   1.0000   1.0000   1.0000   1.0000

          k =-0.2727 0.2624 0.0000 (  7562 PWs)   bands (ev):

   -77.7605 -49.2016 -49.0490 -48.9236 -22.9614 -22.9104 -20.7684 -19.8992
   -14.0956 -13.7415 -12.4870 -11.1578 -10.8810 -10.6824 -10.4085  -9.3915
    -8.6432  -8.3290  -8.0152  -7.6840  -6.3708

     occupation numbers 
     1.0000   1.0000   1.0000   1.0000   1.0000   1.0000   1.0000   1.0000
     1.0000   1.0000   1.0000   1.0000   1.0000   1.0000   1.0000   1.0000
     1.0000   1.0000   1.0000   1.0000   1.0000

          k = 0.3636 0.1050 0.0000 (  7562 PWs)   bands (ev):

   -77.7605 -49.2016 -49.0490 -48.9236 -22.9614 -22.9104 -20.7684 -19.8993
   -14.0956 -13.7415 -12.4869 -11.1579 -10.8810 -10.6825 -10.4084  -9.3912
    -8.6432  -8.3290  -8.0153  -7.6839  -6.3710

     occupation numbers 
     1.0000   1.0000   1.0000   1.0000   1.0000   1.0000   1.0000   1.0000
     1.0000   1.0000   1.0000   1.0000   1.0000   1.0000   1.0000   1.0000
     1.0000   1.0000   1.0000   1.0000   1.0000

          k =-0.2727-0.2624 0.0000 (  7562 PWs)   bands (ev):

   -77.7605 -49.2016 -49.0490 -48.9236 -22.9614 -22.9104 -20.7684 -19.8994
   -14.0956 -13.7415 -12.4869 -11.1578 -10.8810 -10.6825 -10.4084  -9.3914
    -8.6432  -8.3289  -8.0151  -7.6839  -6.3713

     occupation numbers 
     1.0000   1.0000   1.0000   1.0000   1.0000   1.0000   1.0000   1.0000
     1.0000   1.0000   1.0000   1.0000   1.0000   1.0000   1.0000   1.0000
     1.0000   1.0000   1.0000   1.0000   1.0000

          k = 0.3636-0.1050 0.0000 (  7562 PWs)   bands (ev):

   -77.7605 -49.2016 -49.0490 -48.9236 -22.9614 -22.9104 -20.7684 -19.8992
   -14.0956 -13.7415 -12.4870 -11.1578 -10.8810 -10.6824 -10.4085  -9.3915
    -8.6432  -8.3290  -8.0152  -7.6840  -6.3708

     occupation numbers 
     1.0000   1.0000   1.0000   1.0000   1.0000   1.0000   1.0000   1.0000
     1.0000   1.0000   1.0000   1.0000   1.0000   1.0000   1.0000   1.0000
     1.0000   1.0000   1.0000   1.0000   1.0000

          k =-0.0909 0.4724 0.0000 (  7517 PWs)   bands (ev):

   -77.7524 -49.2586 -49.0660 -48.9123 -22.1995 -22.1625 -20.5024 -19.8225
   -15.1350 -14.8957 -12.3172 -11.5584 -11.1110 -10.8626 -10.8252  -9.6258
    -8.7956  -8.2540  -7.9029  -7.6226  -6.3302

     occupation numbers 
     1.0000   1.0000   1.0000   1.0000   1.0000   1.0000   1.0000   1.0000
     1.0000   1.0000   1.0000   1.0000   1.0000   1.0000   1.0000   1.0000
     1.0000   1.0000   1.0000   1.0000   1.0000

          k =-0.3636 0.3149 0.0000 (  7517 PWs)   bands (ev):

   -77.7524 -49.2586 -49.0660 -48.9123 -22.1995 -22.1625 -20.5025 -19.8224
   -15.1351 -14.8958 -12.3174 -11.5583 -11.1110 -10.8626 -10.8250  -9.6262
    -8.7955  -8.2538  -7.9029  -7.6228  -6.3300

     occupation numbers 
     1.0000   1.0000   1.0000   1.0000   1.0000   1.0000   1.0000   1.0000
     1.0000   1.0000   1.0000   1.0000   1.0000   1.0000   1.0000   1.0000
     1.0000   1.0000   1.0000   1.0000   1.0000

          k = 0.4545 0.1575 0.0000 (  7517 PWs)   bands (ev):

   -77.7524 -49.2586 -49.0660 -48.9123 -22.1995 -22.1625 -20.5024 -19.8225
   -15.1350 -14.8957 -12.3172 -11.5584 -11.1110 -10.8626 -10.8252  -9.6258
    -8.7956  -8.2540  -7.9029  -7.6226  -6.3302

     occupation numbers 
     1.0000   1.0000   1.0000   1.0000   1.0000   1.0000   1.0000   1.0000
     1.0000   1.0000   1.0000   1.0000   1.0000   1.0000   1.0000   1.0000
     1.0000   1.0000   1.0000   1.0000   1.0000

          k =-0.3636-0.3149 0.0000 (  7517 PWs)   bands (ev):

   -77.7524 -49.2586 -49.0660 -48.9123 -22.1995 -22.1625 -20.5024 -19.8226
   -15.1350 -14.8957 -12.3172 -11.5583 -11.1110 -10.8624 -10.8252  -9.6262
    -8.7952  -8.2539  -7.9027  -7.6227  -6.3304

     occupation numbers 
     1.0000   1.0000   1.0000   1.0000   1.0000   1.0000   1.0000   1.0000
     1.0000   1.0000   1.0000   1.0000   1.0000   1.0000   1.0000   1.0000
     1.0000   1.0000   1.0000   1.0000   1.0000

          k = 0.4545-0.1575 0.0000 (  7517 PWs)   bands (ev):

   -77.7524 -49.2586 -49.0660 -48.9123 -22.1995 -22.1625 -20.5025 -19.8224
   -15.1351 -14.8958 -12.3174 -11.5583 -11.1110 -10.8626 -10.8249  -9.6262
    -8.7955  -8.2538  -7.9029  -7.6228  -6.3300

     occupation numbers 
     1.0000   1.0000   1.0000   1.0000   1.0000   1.0000   1.0000   1.0000
     1.0000   1.0000   1.0000   1.0000   1.0000   1.0000   1.0000   1.0000
     1.0000   1.0000   1.0000   1.0000   1.0000

          k =-0.4545 0.3674 0.0000 (  7510 PWs)   bands (ev):

   -77.7493 -49.2798 -49.0723 -48.9080 -21.8180 -21.7894 -20.4563 -19.8499
   -15.5769 -15.3424 -12.2049 -11.7606 -11.1798 -11.0776 -10.9006  -9.5852
    -8.9886  -8.1144  -7.8540  -7.5861  -6.2560

     occupation numbers 
     1.0000   1.0000   1.0000   1.0000   1.0000   1.0000   1.0000   1.0000
     1.0000   1.0000   1.0000   1.0000   1.0000   1.0000   1.0000   1.0000
     1.0000   1.0000   1.0000   1.0000   1.0000

          k = 0.5455 0.2099 0.0000 (  7510 PWs)   bands (ev):

   -77.7493 -49.2798 -49.0723 -48.9080 -21.8179 -21.7894 -20.4562 -19.8501
   -15.5768 -15.3424 -12.2045 -11.7608 -11.1799 -11.0774 -10.9008  -9.5851
    -8.9885  -8.1146  -7.8539  -7.5859  -6.2563

     occupation numbers 
     1.0000   1.0000   1.0000   1.0000   1.0000   1.0000   1.0000   1.0000
     1.0000   1.0000   1.0000   1.0000   1.0000   1.0000   1.0000   1.0000
     1.0000   1.0000   1.0000   1.0000   1.0000

          k =-0.1818 0.3149 0.0000 (  7565 PWs)   bands (ev):

   -77.7618 -49.1817 -49.0570 -48.9255 -23.0727 -23.0198 -20.8173 -19.9146
   -13.7737 -13.2832 -12.3724 -11.3673 -11.2184 -10.8387 -10.2616  -9.5188
    -8.6563  -8.3108  -7.9649  -7.7206  -6.3671

     occupation numbers 
     1.0000   1.0000   1.0000   1.0000   1.0000   1.0000   1.0000   1.0000
     1.0000   1.0000   1.0000   1.0000   1.0000   1.0000   1.0000   1.0000
     1.0000   1.0000   1.0000   1.0000   1.0000

          k = 0.3636-0.0000 0.0000 (  7565 PWs)   bands (ev):

   -77.7618 -49.1817 -49.0570 -48.9255 -23.0727 -23.0198 -20.8173 -19.9146
   -13.7737 -13.2832 -12.3724 -11.3673 -11.2184 -10.8387 -10.2616  -9.5188
    -8.6563  -8.3108  -7.9649  -7.7206  -6.3671

     occupation numbers 
     1.0000   1.0000   1.0000   1.0000   1.0000   1.0000   1.0000   1.0000
     1.0000   1.0000   1.0000   1.0000   1.0000   1.0000   1.0000   1.0000
     1.0000   1.0000   1.0000   1.0000   1.0000

          k =-0.1818 0.4199 0.0000 (  7510 PWs)   bands (ev):

   -77.7532 -49.2285 -49.0887 -48.9135 -22.3361 -22.2952 -20.5113 -19.7915
   -14.5530 -14.2756 -12.3244 -12.0454 -11.8779 -10.8079 -10.6479  -9.9598
    -8.6092  -8.4919  -8.0727  -7.6751  -6.3372

     occupation numbers 
     1.0000   1.0000   1.0000   1.0000   1.0000   1.0000   1.0000   1.0000
     1.0000   1.0000   1.0000   1.0000   1.0000   1.0000   1.0000   1.0000
     1.0000   1.0000   1.0000   1.0000   1.0000

          k =-0.2727 0.3674 0.0000 (  7510 PWs)   bands (ev):

   -77.7532 -49.2285 -49.0887 -48.9135 -22.3361 -22.2952 -20.5113 -19.7915
   -14.5530 -14.2757 -12.3244 -12.0453 -11.8779 -10.8078 -10.6479  -9.9601
    -8.6091  -8.4919  -8.0726  -7.6752  -6.3371

     occupation numbers 
     1.0000   1.0000   1.0000   1.0000   1.0000   1.0000   1.0000   1.0000
     1.0000   1.0000   1.0000   1.0000   1.0000   1.0000   1.0000   1.0000
     1.0000   1.0000   1.0000   1.0000   1.0000

          k = 0.4545 0.0525 0.0000 (  7510 PWs)   bands (ev):

   -77.7532 -49.2285 -49.0887 -48.9135 -22.3361 -22.2952 -20.5113 -19.7915
   -14.5530 -14.2757 -12.3244 -12.0454 -11.8779 -10.8079 -10.6479  -9.9598
    -8.6092  -8.4919  -8.0727  -7.6751  -6.3372

     occupation numbers 
     1.0000   1.0000   1.0000   1.0000   1.0000   1.0000   1.0000   1.0000
     1.0000   1.0000   1.0000   1.0000   1.0000   1.0000   1.0000   1.0000
     1.0000   1.0000   1.0000   1.0000   1.0000

          k =-0.2727-0.3674 0.0000 (  7510 PWs)   bands (ev):

   -77.7532 -49.2286 -49.0887 -48.9135 -22.3360 -22.2952 -20.5112 -19.7916
   -14.5529 -14.2756 -12.3243 -12.0454 -11.8778 -10.8077 -10.6478  -9.9603
    -8.6091  -8.4919  -8.0723  -7.6753  -6.3374

     occupation numbers 
     1.0000   1.0000   1.0000   1.0000   1.0000   1.0000   1.0000   1.0000
     1.0000   1.0000   1.0000   1.0000   1.0000   1.0000   1.0000   1.0000
     1.0000   1.0000   1.0000   1.0000   1.0000

          k = 0.4545-0.0525 0.0000 (  7510 PWs)   bands (ev):

   -77.7532 -49.2285 -49.0887 -48.9135 -22.3361 -22.2952 -20.5113 -19.7914
   -14.5530 -14.2757 -12.3244 -12.0453 -11.8779 -10.8078 -10.6479  -9.9601
    -8.6091  -8.4919  -8.0726  -7.6752  -6.3371

     occupation numbers 
     1.0000   1.0000   1.0000   1.0000   1.0000   1.0000   1.0000   1.0000
     1.0000   1.0000   1.0000   1.0000   1.0000   1.0000   1.0000   1.0000
     1.0000   1.0000   1.0000   1.0000   1.0000

          k =-0.1818 0.5249 0.0000 (  7532 PWs)   bands (ev):

   -77.7481 -49.2550 -49.1088 -48.9063 -21.7451 -21.7158 -20.3972 -19.7900
   -15.1808 -14.9411 -12.5623 -12.3850 -11.7115 -11.1556 -10.9662  -9.7727
    -8.9877  -8.6182  -8.0341  -7.5063  -6.1566

     occupation numbers 
     1.0000   1.0000   1.0000   1.0000   1.0000   1.0000   1.0000   1.0000
     1.0000   1.0000   1.0000   1.0000   1.0000   1.0000   1.0000   1.0000
     1.0000   1.0000   1.0000   1.0000   1.0000

          k =-0.3636 0.4199 0.0000 (  7532 PWs)   bands (ev):

   -77.7481 -49.2550 -49.1088 -48.9063 -21.7452 -21.7158 -20.3973 -19.7899
   -15.1809 -14.9412 -12.5624 -12.3849 -11.7117 -11.1556 -10.9662  -9.7730
    -8.9874  -8.6181  -8.0341  -7.5065  -6.1565

     occupation numbers 
     1.0000   1.0000   1.0000   1.0000   1.0000   1.0000   1.0000   1.0000
     1.0000   1.0000   1.0000   1.0000   1.0000   1.0000   1.0000   1.0000
     1.0000   1.0000   1.0000   1.0000   1.0000

          k = 0.5455 0.1050 0.0000 (  7532 PWs)   bands (ev):

   -77.7481 -49.2550 -49.1088 -48.9063 -21.7451 -21.7158 -20.3972 -19.7900
   -15.1808 -14.9411 -12.5623 -12.3850 -11.7115 -11.1556 -10.9662  -9.7727
    -8.9877  -8.6182  -8.0341  -7.5063  -6.1566

     occupation numbers 
     1.0000   1.0000   1.0000   1.0000   1.0000   1.0000   1.0000   1.0000
     1.0000   1.0000   1.0000   1.0000   1.0000   1.0000   1.0000   1.0000
     1.0000   1.0000   1.0000   1.0000   1.0000

          k =-0.3636-0.4199 0.0000 (  7532 PWs)   bands (ev):

   -77.7481 -49.2550 -49.1088 -48.9063 -21.7451 -21.7158 -20.3972 -19.7900
   -15.1808 -14.9411 -12.5623 -12.3850 -11.7115 -11.1556 -10.9661  -9.7731
    -8.9874  -8.6181  -8.0340  -7.5064  -6.1567

     occupation numbers 
     1.0000   1.0000   1.0000   1.0000   1.0000   1.0000   1.0000   1.0000
     1.0000   1.0000   1.0000   1.0000   1.0000   1.0000   1.0000   1.0000
     1.0000   1.0000   1.0000   1.0000   1.0000

          k = 0.5455-0.1050 0.0000 (  7532 PWs)   bands (ev):

   -77.7481 -49.2550 -49.1088 -48.9063 -21.7452 -21.7158 -20.3973 -19.7899
   -15.1809 -14.9412 -12.5624 -12.3849 -11.7117 -11.1556 -10.9662  -9.7730
    -8.9874  -8.6181  -8.0341  -7.5065  -6.1565

     occupation numbers 
     1.0000   1.0000   1.0000   1.0000   1.0000   1.0000   1.0000   1.0000
     1.0000   1.0000   1.0000   1.0000   1.0000   1.0000   1.0000   1.0000
     1.0000   1.0000   1.0000   1.0000   1.0000

          k =-0.2727 0.4724 0.0000 (  7553 PWs)   bands (ev):

   -77.7477 -49.2337 -49.1345 -48.9057 -21.7332 -21.7029 -20.3664 -19.7540
   -14.7890 -14.5200 -13.1575 -13.0226 -11.7721 -11.0113 -10.7392  -9.9518
    -9.2882  -8.7281  -8.0547  -7.4859  -6.1179

     occupation numbers 
     1.0000   1.0000   1.0000   1.0000   1.0000   1.0000   1.0000   1.0000
     1.0000   1.0000   1.0000   1.0000   1.0000   1.0000   1.0000   1.0000
     1.0000   1.0000   1.0000   1.0000   1.0000

          k = 0.5455-0.0000 0.0000 (  7553 PWs)   bands (ev):

   -77.7477 -49.2337 -49.1345 -48.9057 -21.7332 -21.7029 -20.3664 -19.7540
   -14.7890 -14.5200 -13.1575 -13.0226 -11.7721 -11.0113 -10.7392  -9.9518
    -9.2882  -8.7281  -8.0547  -7.4859  -6.1179

     occupation numbers 
     1.0000   1.0000   1.0000   1.0000   1.0000   1.0000   1.0000   1.0000
     1.0000   1.0000   1.0000   1.0000   1.0000   1.0000   1.0000   1.0000
     1.0000   1.0000   1.0000   1.0000   1.0000

          k =-0.3636 0.5249 0.0000 (  7528 PWs)   bands (ev):

   -77.7456 -49.2280 -49.1592 -48.9028 -21.4580 -21.4283 -20.3460 -19.7654
   -14.8214 -14.5470 -13.5973 -13.5011 -11.4623 -11.1872 -10.8260  -9.8608
    -9.5116  -9.0484  -7.9840  -7.3853  -5.9654

     occupation numbers 
     1.0000   1.0000   1.0000   1.0000   1.0000   1.0000   1.0000   1.0000
     1.0000   1.0000   1.0000   1.0000   1.0000   1.0000   1.0000   1.0000
     1.0000   1.0000   1.0000   1.0000   1.0000

          k = 0.6364 0.0525 0.0000 (  7528 PWs)   bands (ev):

   -77.7456 -49.2280 -49.1592 -48.9028 -21.4580 -21.4283 -20.3460 -19.7655
   -14.8213 -14.5469 -13.5974 -13.5011 -11.4622 -11.1871 -10.8260  -9.8608
    -9.5117  -9.0484  -7.9839  -7.3853  -5.9654

     occupation numbers 
     1.0000   1.0000   1.0000   1.0000   1.0000   1.0000   1.0000   1.0000
     1.0000   1.0000   1.0000   1.0000   1.0000   1.0000   1.0000   1.0000
     1.0000   1.0000   1.0000   1.0000   1.0000

     highest occupied level (ev):    -5.3705

!    total energy              =    -263.32585767 Ry
     estimated scf accuracy    <          3.4E-13 Ry

     The total energy is the sum of the following terms:
     one-electron contribution =   -4587.45600418 Ry
     hartree contribution      =    2290.33971541 Ry
     xc contribution           =     -44.81999898 Ry
     ewald contribution        =    2078.61043008 Ry

     convergence has been achieved in  16 iterations

     Forces acting on atoms (cartesian axes, Ry/au):

     atom    1 type  1   force =    -0.00002720    0.00001570    0.00051901
     atom    2 type  3   force =     0.00003280   -0.00001977   -0.00370760
     atom    3 type  3   force =     0.00001769   -0.00000993    0.00276179
     atom    4 type  3   force =    -0.00000091    0.00000130    0.00103640
     atom    5 type  3   force =    -0.00000534    0.00000258   -0.00144324
     atom    6 type  2   force =    -0.00001733    0.00000950    0.00210934
     atom    7 type  2   force =     0.00000029    0.00000063   -0.00127571
     The non-local contrib.  to forces
     atom    1 type  1   force =    -0.00002588    0.00001517   -0.00546064
     atom    2 type  3   force =    -0.00001451    0.00001198   -0.08385198
     atom    3 type  3   force =     0.00000163   -0.00000778    0.10705974
     atom    4 type  3   force =    -0.00014915    0.00008790   -0.87584404
     atom    5 type  3   force =    -0.00017233    0.00009867    0.84211788
     atom    6 type  2   force =    -0.00014700    0.00008734   -0.10304391
     atom    7 type  2   force =    -0.00005106    0.00002569    0.08575390
     The ionic contribution  to forces
     atom    1 type  1   force =    -0.00114500    0.00066476   -0.20222545
     atom    2 type  3   force =     0.00050280   -0.00031840  -43.62039148
     atom    3 type  3   force =     0.00031873   -0.00015417   43.79378906
     atom    4 type  3   force =     0.00015173   -0.00008549   90.25742214
     atom    5 type  3   force =     0.00024392   -0.00014290  -90.12948656
     atom    6 type  2   force =    -0.00010253    0.00006719  -62.65465376
     atom    7 type  2   force =     0.00003035   -0.00003098   62.55554604
     The local contribution  to forces
     atom    1 type  1   force =     0.00108293   -0.00062909    0.20814209
     atom    2 type  3   force =    -0.00051625    0.00032181   43.70047062
     atom    3 type  3   force =    -0.00036342    0.00018718  -43.89815065
     atom    4 type  3   force =    -0.00006425    0.00003405  -89.38060626
     atom    5 type  3   force =    -0.00013769    0.00008197   89.28586023
     atom    6 type  2   force =     0.00017144   -0.00010987   62.75974184
     atom    7 type  2   force =    -0.00003975    0.00004107  -62.64264018
     The core correction contribution to forces
     atom    1 type  1   force =     0.00000000    0.00000000    0.00000000
     atom    2 type  3   force =     0.00000000    0.00000000    0.00000000
     atom    3 type  3   force =     0.00000000    0.00000000    0.00000000
     atom    4 type  3   force =     0.00000000    0.00000000    0.00000000
     atom    5 type  3   force =     0.00000000    0.00000000    0.00000000
     atom    6 type  2   force =     0.00000000    0.00000000    0.00000000
     atom    7 type  2   force =     0.00000000    0.00000000    0.00000000
     The Hubbard contrib.    to forces
     atom    1 type  1   force =     0.00000000    0.00000000    0.00000000
     atom    2 type  3   force =     0.00000000    0.00000000    0.00000000
     atom    3 type  3   force =     0.00000000    0.00000000    0.00000000
     atom    4 type  3   force =     0.00000000    0.00000000    0.00000000
     atom    5 type  3   force =     0.00000000    0.00000000    0.00000000
     atom    6 type  2   force =     0.00000000    0.00000000    0.00000000
     atom    7 type  2   force =     0.00000000    0.00000000    0.00000000
     The SCF correction term to forces
     atom    1 type  1   force =    -0.00000002    0.00000001   -0.00000185
     atom    2 type  3   force =    -0.00000000    0.00000000    0.00000037
     atom    3 type  3   force =    -0.00000000   -0.00000000   -0.00000123
     atom    4 type  3   force =    -0.00000000   -0.00000000   -0.00000031
     atom    5 type  3   force =    -0.00000000    0.00000000    0.00000035
     atom    6 type  2   force =     0.00000000    0.00000000    0.00000031
     atom    7 type  2   force =    -0.00000000    0.00000000   -0.00000033

     Total force =     0.005557     Total SCF correction =     0.000002
     Energy error            =      7.1E-05 Ry
     Gradient error          =      3.7E-03 Ry/Bohr

     number of scf cycles    =   5
     number of bfgs steps    =   4

     energy             old  =    -263.3257863447 Ry
     energy             new  =    -263.3258576742 Ry

     CASE: energy            _new < energy            _old

     new trust radius        =       0.0068730156 bohr
     new conv_thr            =            1.0E-12 Ry


ATOMIC_POSITIONS (crystal)
Cr               0.8571293163        0.1428526144        0.4278036844
N                0.5237740383        0.4762105423        0.3724716944
N                0.5237754834        0.4762039710        0.4838219663
N                0.8571527809        0.1428186452        0.5953695043
N                0.1904617808        0.8095278015        0.2619862155
Si               0.5238094755        0.4761800020        0.2883729176
Si               0.5238311247        0.4761404235        0.5685380177



     Writing config-only to output data dir ./tmp/crsi2n4.save/ :
     XML data file
     NEW-OLD atomic charge density approx. for the potential

     total cpu time spent up to now is      476.4 secs

     Self-consistent Calculation
[tb_dev] Currently allocated     0.00E+00 Mbytes, locked:    0 /   0
[tb_pin] Currently allocated     0.00E+00 Mbytes, locked:    0 /   0

     iteration #  1     ecut=    60.00 Ry     beta= 0.50
     Davidson diagonalization with overlap

---- Real-time Memory Report at c_bands before calling an iterative solver
           873 MiB given to the printing process from OS
             0 MiB allocation reported by mallinfo(arena+hblkhd)
          9234 MiB available memory on the node where the printing process lives
     GPU memory used/free/total (MiB): 1849 / 10064 / 11914
------------------
     ethr =  1.00E-06,  avg # of iterations =  4.0

     Threshold (ethr) on eigenvalues was too large:
     Diagonalizing with lowered threshold

     Davidson diagonalization with overlap

---- Real-time Memory Report at c_bands before calling an iterative solver
           873 MiB given to the printing process from OS
             0 MiB allocation reported by mallinfo(arena+hblkhd)
          9231 MiB available memory on the node where the printing process lives
     GPU memory used/free/total (MiB): 1849 / 10064 / 11914
------------------
     ethr =  4.11E-08,  avg # of iterations =  2.8

     total cpu time spent up to now is      485.5 secs

     total energy              =    -263.32586991 Ry
     estimated scf accuracy    <       0.00002102 Ry
[tb_dev] Currently allocated     2.67E-05 Mbytes, locked:    0 /   1
[tb_pin] Currently allocated     0.00E+00 Mbytes, locked:    0 /   0

     iteration #  2     ecut=    60.00 Ry     beta= 0.50
     Davidson diagonalization with overlap

---- Real-time Memory Report at c_bands before calling an iterative solver
           873 MiB given to the printing process from OS
             0 MiB allocation reported by mallinfo(arena+hblkhd)
          9234 MiB available memory on the node where the printing process lives
     GPU memory used/free/total (MiB): 1849 / 10064 / 11914
------------------
     ethr =  5.00E-08,  avg # of iterations =  3.7

     total cpu time spent up to now is      490.2 secs

     total energy              =    -263.32587176 Ry
     estimated scf accuracy    <       0.00000976 Ry
[tb_dev] Currently allocated     2.67E-05 Mbytes, locked:    0 /   1
[tb_pin] Currently allocated     0.00E+00 Mbytes, locked:    0 /   0

     iteration #  3     ecut=    60.00 Ry     beta= 0.50
     Davidson diagonalization with overlap

---- Real-time Memory Report at c_bands before calling an iterative solver
           873 MiB given to the printing process from OS
             0 MiB allocation reported by mallinfo(arena+hblkhd)
          9232 MiB available memory on the node where the printing process lives
     GPU memory used/free/total (MiB): 1849 / 10064 / 11914
------------------
     ethr =  2.32E-08,  avg # of iterations =  5.6

     total cpu time spent up to now is      495.3 secs

     total energy              =    -263.32587297 Ry
     estimated scf accuracy    <       0.00001100 Ry
[tb_dev] Currently allocated     2.67E-05 Mbytes, locked:    0 /   1
[tb_pin] Currently allocated     0.00E+00 Mbytes, locked:    0 /   0

     iteration #  4     ecut=    60.00 Ry     beta= 0.50
     Davidson diagonalization with overlap

---- Real-time Memory Report at c_bands before calling an iterative solver
           873 MiB given to the printing process from OS
             0 MiB allocation reported by mallinfo(arena+hblkhd)
          9226 MiB available memory on the node where the printing process lives
     GPU memory used/free/total (MiB): 1849 / 10064 / 11914
------------------
     ethr =  2.32E-08,  avg # of iterations =  5.5

     total cpu time spent up to now is      500.4 secs

     total energy              =    -263.32587474 Ry
     estimated scf accuracy    <       0.00000237 Ry
[tb_dev] Currently allocated     2.67E-05 Mbytes, locked:    0 /   1
[tb_pin] Currently allocated     0.00E+00 Mbytes, locked:    0 /   0

     iteration #  5     ecut=    60.00 Ry     beta= 0.50
     Davidson diagonalization with overlap

---- Real-time Memory Report at c_bands before calling an iterative solver
           873 MiB given to the printing process from OS
             0 MiB allocation reported by mallinfo(arena+hblkhd)
          9032 MiB available memory on the node where the printing process lives
     GPU memory used/free/total (MiB): 1849 / 10064 / 11914
------------------
     ethr =  5.64E-09,  avg # of iterations =  5.1

     total cpu time spent up to now is      505.5 secs

     total energy              =    -263.32587508 Ry
     estimated scf accuracy    <       0.00000050 Ry
[tb_dev] Currently allocated     2.67E-05 Mbytes, locked:    0 /   1
[tb_pin] Currently allocated     0.00E+00 Mbytes, locked:    0 /   0

     iteration #  6     ecut=    60.00 Ry     beta= 0.50
     Davidson diagonalization with overlap

---- Real-time Memory Report at c_bands before calling an iterative solver
           873 MiB given to the printing process from OS
             0 MiB allocation reported by mallinfo(arena+hblkhd)
          8831 MiB available memory on the node where the printing process lives
     GPU memory used/free/total (MiB): 1849 / 10064 / 11914
------------------
     ethr =  1.19E-09,  avg # of iterations =  5.6

     total cpu time spent up to now is      510.8 secs

     total energy              =    -263.32587520 Ry
     estimated scf accuracy    <       0.00000013 Ry
[tb_dev] Currently allocated     2.67E-05 Mbytes, locked:    0 /   1
[tb_pin] Currently allocated     0.00E+00 Mbytes, locked:    0 /   0

     iteration #  7     ecut=    60.00 Ry     beta= 0.50
     Davidson diagonalization with overlap

---- Real-time Memory Report at c_bands before calling an iterative solver
           873 MiB given to the printing process from OS
             0 MiB allocation reported by mallinfo(arena+hblkhd)
          8416 MiB available memory on the node where the printing process lives
     GPU memory used/free/total (MiB): 1849 / 10064 / 11914
------------------
     ethr =  2.99E-10,  avg # of iterations =  5.5

     total cpu time spent up to now is      516.0 secs

     total energy              =    -263.32587522 Ry
     estimated scf accuracy    <       0.00000003 Ry
[tb_dev] Currently allocated     2.67E-05 Mbytes, locked:    0 /   1
[tb_pin] Currently allocated     0.00E+00 Mbytes, locked:    0 /   0

     iteration #  8     ecut=    60.00 Ry     beta= 0.50
     Davidson diagonalization with overlap

---- Real-time Memory Report at c_bands before calling an iterative solver
           873 MiB given to the printing process from OS
             0 MiB allocation reported by mallinfo(arena+hblkhd)
          8416 MiB available memory on the node where the printing process lives
     GPU memory used/free/total (MiB): 1849 / 10064 / 11914
------------------
     ethr =  7.70E-11,  avg # of iterations =  4.7

     total cpu time spent up to now is      520.8 secs

     total energy              =    -263.32587523 Ry
     estimated scf accuracy    <          5.0E-09 Ry
[tb_dev] Currently allocated     2.67E-05 Mbytes, locked:    0 /   1
[tb_pin] Currently allocated     0.00E+00 Mbytes, locked:    0 /   0

     iteration #  9     ecut=    60.00 Ry     beta= 0.50
     Davidson diagonalization with overlap

---- Real-time Memory Report at c_bands before calling an iterative solver
           873 MiB given to the printing process from OS
             0 MiB allocation reported by mallinfo(arena+hblkhd)
          8412 MiB available memory on the node where the printing process lives
     GPU memory used/free/total (MiB): 1849 / 10064 / 11914
------------------
     ethr =  1.19E-11,  avg # of iterations =  7.2

     total cpu time spent up to now is      527.4 secs

     total energy              =    -263.32587523 Ry
     estimated scf accuracy    <          5.7E-09 Ry
[tb_dev] Currently allocated     2.67E-05 Mbytes, locked:    0 /   1
[tb_pin] Currently allocated     0.00E+00 Mbytes, locked:    0 /   0

     iteration # 10     ecut=    60.00 Ry     beta= 0.50
     Davidson diagonalization with overlap

---- Real-time Memory Report at c_bands before calling an iterative solver
           873 MiB given to the printing process from OS
             0 MiB allocation reported by mallinfo(arena+hblkhd)
          8408 MiB available memory on the node where the printing process lives
     GPU memory used/free/total (MiB): 1849 / 10064 / 11914
------------------
     ethr =  1.19E-11,  avg # of iterations =  2.9

     total cpu time spent up to now is      531.0 secs

     total energy              =    -263.32587523 Ry
     estimated scf accuracy    <          1.3E-09 Ry
[tb_dev] Currently allocated     2.67E-05 Mbytes, locked:    0 /   1
[tb_pin] Currently allocated     0.00E+00 Mbytes, locked:    0 /   0

     iteration # 11     ecut=    60.00 Ry     beta= 0.50
     Davidson diagonalization with overlap

---- Real-time Memory Report at c_bands before calling an iterative solver
           876 MiB given to the printing process from OS
             0 MiB allocation reported by mallinfo(arena+hblkhd)
          8402 MiB available memory on the node where the printing process lives
     GPU memory used/free/total (MiB): 1849 / 10064 / 11914
------------------
     ethr =  3.12E-12,  avg # of iterations =  7.3

     total cpu time spent up to now is      537.4 secs

     total energy              =    -263.32587523 Ry
     estimated scf accuracy    <          2.2E-09 Ry
[tb_dev] Currently allocated     2.67E-05 Mbytes, locked:    0 /   1
[tb_pin] Currently allocated     0.00E+00 Mbytes, locked:    0 /   0

     iteration # 12     ecut=    60.00 Ry     beta= 0.50
     Davidson diagonalization with overlap

---- Real-time Memory Report at c_bands before calling an iterative solver
           876 MiB given to the printing process from OS
             0 MiB allocation reported by mallinfo(arena+hblkhd)
          8402 MiB available memory on the node where the printing process lives
     GPU memory used/free/total (MiB): 1849 / 10064 / 11914
------------------
     ethr =  3.12E-12,  avg # of iterations =  1.7

     total cpu time spent up to now is      540.5 secs

     total energy              =    -263.32587523 Ry
     estimated scf accuracy    <          1.3E-09 Ry
[tb_dev] Currently allocated     2.67E-05 Mbytes, locked:    0 /   1
[tb_pin] Currently allocated     0.00E+00 Mbytes, locked:    0 /   0

     iteration # 13     ecut=    60.00 Ry     beta= 0.50
     Davidson diagonalization with overlap

---- Real-time Memory Report at c_bands before calling an iterative solver
           876 MiB given to the printing process from OS
             0 MiB allocation reported by mallinfo(arena+hblkhd)
          8404 MiB available memory on the node where the printing process lives
     GPU memory used/free/total (MiB): 1849 / 10064 / 11914
------------------
     ethr =  3.06E-12,  avg # of iterations =  3.5

     total cpu time spent up to now is      544.4 secs

     total energy              =    -263.32587523 Ry
     estimated scf accuracy    <          1.6E-10 Ry
[tb_dev] Currently allocated     2.67E-05 Mbytes, locked:    0 /   1
[tb_pin] Currently allocated     0.00E+00 Mbytes, locked:    0 /   0

     iteration # 14     ecut=    60.00 Ry     beta= 0.50
     Davidson diagonalization with overlap

---- Real-time Memory Report at c_bands before calling an iterative solver
           876 MiB given to the printing process from OS
             0 MiB allocation reported by mallinfo(arena+hblkhd)
          8404 MiB available memory on the node where the printing process lives
     GPU memory used/free/total (MiB): 1849 / 10064 / 11914
------------------
     ethr =  3.81E-13,  avg # of iterations =  8.5

     total cpu time spent up to now is      551.5 secs

     total energy              =    -263.32587523 Ry
     estimated scf accuracy    <          5.2E-10 Ry
[tb_dev] Currently allocated     2.67E-05 Mbytes, locked:    0 /   1
[tb_pin] Currently allocated     0.00E+00 Mbytes, locked:    0 /   0

     iteration # 15     ecut=    60.00 Ry     beta= 0.50
     Davidson diagonalization with overlap

---- Real-time Memory Report at c_bands before calling an iterative solver
           876 MiB given to the printing process from OS
             0 MiB allocation reported by mallinfo(arena+hblkhd)
          8407 MiB available memory on the node where the printing process lives
     GPU memory used/free/total (MiB): 1849 / 10064 / 11914
------------------
     ethr =  3.81E-13,  avg # of iterations =  2.1

     total cpu time spent up to now is      554.8 secs

     total energy              =    -263.32587523 Ry
     estimated scf accuracy    <          3.1E-10 Ry
[tb_dev] Currently allocated     2.67E-05 Mbytes, locked:    0 /   1
[tb_pin] Currently allocated     0.00E+00 Mbytes, locked:    0 /   0

     iteration # 16     ecut=    60.00 Ry     beta= 0.50
     Davidson diagonalization with overlap

---- Real-time Memory Report at c_bands before calling an iterative solver
           876 MiB given to the printing process from OS
             0 MiB allocation reported by mallinfo(arena+hblkhd)
          8407 MiB available memory on the node where the printing process lives
     GPU memory used/free/total (MiB): 1849 / 10064 / 11914
------------------
     ethr =  3.81E-13,  avg # of iterations =  4.4

     total cpu time spent up to now is      559.3 secs

     total energy              =    -263.32587523 Ry
     estimated scf accuracy    <          3.4E-11 Ry
[tb_dev] Currently allocated     2.67E-05 Mbytes, locked:    0 /   1
[tb_pin] Currently allocated     0.00E+00 Mbytes, locked:    0 /   0

     iteration # 17     ecut=    60.00 Ry     beta= 0.50
     Davidson diagonalization with overlap

---- Real-time Memory Report at c_bands before calling an iterative solver
           876 MiB given to the printing process from OS
             0 MiB allocation reported by mallinfo(arena+hblkhd)
          8407 MiB available memory on the node where the printing process lives
     GPU memory used/free/total (MiB): 1849 / 10064 / 11914
------------------
     ethr =  1.00E-13,  avg # of iterations =  5.9

     total cpu time spent up to now is      564.8 secs

     total energy              =    -263.32587523 Ry
     estimated scf accuracy    <          1.1E-11 Ry
[tb_dev] Currently allocated     2.67E-05 Mbytes, locked:    0 /   1
[tb_pin] Currently allocated     0.00E+00 Mbytes, locked:    0 /   0

     iteration # 18     ecut=    60.00 Ry     beta= 0.50
     Davidson diagonalization with overlap

---- Real-time Memory Report at c_bands before calling an iterative solver
           876 MiB given to the printing process from OS
             0 MiB allocation reported by mallinfo(arena+hblkhd)
          8411 MiB available memory on the node where the printing process lives
     GPU memory used/free/total (MiB): 1849 / 10064 / 11914
------------------
     ethr =  1.00E-13,  avg # of iterations =  1.0

     total cpu time spent up to now is      567.4 secs

     total energy              =    -263.32587523 Ry
     estimated scf accuracy    <          1.0E-11 Ry
[tb_dev] Currently allocated     2.67E-05 Mbytes, locked:    0 /   1
[tb_pin] Currently allocated     0.00E+00 Mbytes, locked:    0 /   0

     iteration # 19     ecut=    60.00 Ry     beta= 0.50
     Davidson diagonalization with overlap

---- Real-time Memory Report at c_bands before calling an iterative solver
           877 MiB given to the printing process from OS
             0 MiB allocation reported by mallinfo(arena+hblkhd)
          8410 MiB available memory on the node where the printing process lives
     GPU memory used/free/total (MiB): 1849 / 10064 / 11914
------------------
     ethr =  1.00E-13,  avg # of iterations =  1.1

     total cpu time spent up to now is      570.1 secs

     total energy              =    -263.32587523 Ry
     estimated scf accuracy    <          3.5E-12 Ry
[tb_dev] Currently allocated     2.67E-05 Mbytes, locked:    0 /   1
[tb_pin] Currently allocated     0.00E+00 Mbytes, locked:    0 /   0

     iteration # 20     ecut=    60.00 Ry     beta= 0.50
     Davidson diagonalization with overlap

---- Real-time Memory Report at c_bands before calling an iterative solver
           877 MiB given to the printing process from OS
             0 MiB allocation reported by mallinfo(arena+hblkhd)
          8410 MiB available memory on the node where the printing process lives
     GPU memory used/free/total (MiB): 1849 / 10064 / 11914
------------------
     ethr =  1.00E-13,  avg # of iterations =  1.0

     total cpu time spent up to now is      572.7 secs

     total energy              =    -263.32587523 Ry
     estimated scf accuracy    <          1.2E-12 Ry
[tb_dev] Currently allocated     2.67E-05 Mbytes, locked:    0 /   1
[tb_pin] Currently allocated     0.00E+00 Mbytes, locked:    0 /   0

     iteration # 21     ecut=    60.00 Ry     beta= 0.50
     Davidson diagonalization with overlap

---- Real-time Memory Report at c_bands before calling an iterative solver
           877 MiB given to the printing process from OS
             0 MiB allocation reported by mallinfo(arena+hblkhd)
          8415 MiB available memory on the node where the printing process lives
     GPU memory used/free/total (MiB): 1849 / 10064 / 11914
------------------
     ethr =  1.00E-13,  avg # of iterations =  1.0

     total cpu time spent up to now is      575.3 secs

     End of self-consistent calculation

          k = 0.0000 0.0000 0.0000 (  7657 PWs)   bands (ev):

   -77.8041 -49.0024 -49.0024 -48.9792 -24.6800 -24.6027 -21.8842 -20.4808
   -14.1032 -11.4898  -9.5284  -9.2126  -9.2125  -9.1600  -9.1599  -8.8246
    -8.8243  -7.5745  -7.5213  -7.5204  -5.3913

     occupation numbers 
     1.0000   1.0000   1.0000   1.0000   1.0000   1.0000   1.0000   1.0000
     1.0000   1.0000   1.0000   1.0000   1.0000   1.0000   1.0000   1.0000
     1.0000   1.0000   1.0000   1.0000   1.0000

          k = 0.0000 0.1050 0.0000 (  7619 PWs)   bands (ev):

   -77.8010 -49.0264 -49.0078 -48.9748 -24.5340 -24.4590 -21.7701 -20.4182
   -13.9836 -11.4346  -9.9342  -9.8270  -9.3400  -9.3055  -9.2899  -9.0855
    -8.7352  -7.8382  -7.6704  -7.3472  -5.4978

     occupation numbers 
     1.0000   1.0000   1.0000   1.0000   1.0000   1.0000   1.0000   1.0000
     1.0000   1.0000   1.0000   1.0000   1.0000   1.0000   1.0000   1.0000
     1.0000   1.0000   1.0000   1.0000   1.0000

          k = 0.0000 0.2099 0.0000 (  7593 PWs)   bands (ev):

   -77.7925 -49.0905 -49.0224 -48.9631 -24.1081 -24.0393 -21.4555 -20.2485
   -13.6894 -11.4602 -11.2332 -11.1266  -9.7173  -9.6760  -9.6636  -9.0705
    -8.4682  -8.2462  -8.0275  -7.4546  -5.8669

     occupation numbers 
     1.0000   1.0000   1.0000   1.0000   1.0000   1.0000   1.0000   1.0000
     1.0000   1.0000   1.0000   1.0000   1.0000   1.0000   1.0000   1.0000
     1.0000   1.0000   1.0000   1.0000   1.0000

          k = 0.0000 0.3149 0.0000 (  7563 PWs)   bands (ev):

   -77.7815 -49.1736 -49.0413 -48.9476 -23.4454 -23.3861 -21.0283 -20.0306
   -13.6559 -12.9931 -12.4493 -11.0997 -10.4182 -10.0870 -10.0677  -8.9004
    -8.7101  -8.4412  -8.0777  -7.6548  -6.2654

     occupation numbers 
     1.0000   1.0000   1.0000   1.0000   1.0000   1.0000   1.0000   1.0000
     1.0000   1.0000   1.0000   1.0000   1.0000   1.0000   1.0000   1.0000
     1.0000   1.0000   1.0000   1.0000   1.0000

          k = 0.0000 0.4199 0.0000 (  7528 PWs)   bands (ev):

   -77.7712 -49.2493 -49.0587 -48.9333 -22.6513 -22.6040 -20.6482 -19.8733
   -14.7072 -14.4454 -12.4728 -11.2688 -10.8705 -10.4289 -10.3975  -9.3314
    -8.7659  -8.4732  -7.7425  -7.7019  -6.3969

     occupation numbers 
     1.0000   1.0000   1.0000   1.0000   1.0000   1.0000   1.0000   1.0000
     1.0000   1.0000   1.0000   1.0000   1.0000   1.0000   1.0000   1.0000
     1.0000   1.0000   1.0000   1.0000   1.0000

          k = 0.0000 0.5249 0.0000 (  7518 PWs)   bands (ev):

   -77.7652 -49.2939 -49.0690 -48.9249 -21.9948 -21.9596 -20.4937 -19.8691
   -15.5622 -15.3292 -12.2969 -11.6608 -11.0246 -10.6180 -10.5800  -9.5017
    -8.9454  -8.2110  -7.7582  -7.4631  -6.3549

     occupation numbers 
     1.0000   1.0000   1.0000   1.0000   1.0000   1.0000   1.0000   1.0000
     1.0000   1.0000   1.0000   1.0000   1.0000   1.0000   1.0000   1.0000
     1.0000   1.0000   1.0000   1.0000   1.0000

          k = 0.0909 0.1575 0.0000 (  7591 PWs)   bands (ev):

   -77.7952 -49.0690 -49.0193 -48.9667 -24.2479 -24.1771 -21.5555 -20.3018
   -13.7739 -11.3594 -10.7896 -10.7657  -9.7930  -9.6551  -9.3754  -9.1317
    -8.5830  -8.0852  -7.9997  -7.3308  -5.7453

     occupation numbers 
     1.0000   1.0000   1.0000   1.0000   1.0000   1.0000   1.0000   1.0000
     1.0000   1.0000   1.0000   1.0000   1.0000   1.0000   1.0000   1.0000
     1.0000   1.0000   1.0000   1.0000   1.0000

          k = 0.0909 0.2624 0.0000 (  7569 PWs)   bands (ev):

   -77.7854 -49.1390 -49.0396 -48.9531 -23.7019 -23.6389 -21.1825 -20.1054
   -13.5342 -12.2722 -12.0002 -11.1135 -10.4440 -10.2096  -9.8746  -8.9011
    -8.7542  -8.3046  -8.1353  -7.5175  -6.1449

     occupation numbers 
     1.0000   1.0000   1.0000   1.0000   1.0000   1.0000   1.0000   1.0000
     1.0000   1.0000   1.0000   1.0000   1.0000   1.0000   1.0000   1.0000
     1.0000   1.0000   1.0000   1.0000   1.0000

          k = 0.0909 0.3674 0.0000 (  7562 PWs)   bands (ev):

   -77.7748 -49.2143 -49.0619 -48.9383 -22.9647 -22.9123 -20.7723 -19.9107
   -14.0971 -13.7433 -12.4898 -11.1645 -10.8850 -10.6855 -10.4106  -9.4006
    -8.6492  -8.3376  -8.0192  -7.6960  -6.3856

     occupation numbers 
     1.0000   1.0000   1.0000   1.0000   1.0000   1.0000   1.0000   1.0000
     1.0000   1.0000   1.0000   1.0000   1.0000   1.0000   1.0000   1.0000
     1.0000   1.0000   1.0000   1.0000   1.0000

          k = 0.0909 0.4724 0.0000 (  7517 PWs)   bands (ev):

   -77.7666 -49.2712 -49.0789 -48.9269 -22.2034 -22.1636 -20.5062 -19.8330
   -15.1362 -14.8979 -12.3211 -11.5646 -11.1131 -10.8644 -10.8319  -9.6383
    -8.8029  -8.2619  -7.9091  -7.6314  -6.3435

     occupation numbers 
     1.0000   1.0000   1.0000   1.0000   1.0000   1.0000   1.0000   1.0000
     1.0000   1.0000   1.0000   1.0000   1.0000   1.0000   1.0000   1.0000
     1.0000   1.0000   1.0000   1.0000   1.0000

          k = 0.0909 0.5774 0.0000 (  7510 PWs)   bands (ev):

   -77.7636 -49.2923 -49.0852 -48.9227 -21.8228 -21.7893 -20.4600 -19.8601
   -15.5780 -15.3449 -12.2094 -11.7673 -11.1842 -11.0765 -10.9077  -9.5991
    -8.9956  -8.1223  -7.8606  -7.5942  -6.2692

     occupation numbers 
     1.0000   1.0000   1.0000   1.0000   1.0000   1.0000   1.0000   1.0000
     1.0000   1.0000   1.0000   1.0000   1.0000   1.0000   1.0000   1.0000
     1.0000   1.0000   1.0000   1.0000   1.0000

          k = 0.1818 0.3149 0.0000 (  7565 PWs)   bands (ev):

   -77.7761 -49.1944 -49.0699 -48.9401 -23.0759 -23.0218 -20.8212 -19.9262
   -13.7756 -13.2851 -12.3746 -11.3687 -11.2200 -10.8483 -10.2651  -9.5262
    -8.6625  -8.3149  -7.9741  -7.7338  -6.3816

     occupation numbers 
     1.0000   1.0000   1.0000   1.0000   1.0000   1.0000   1.0000   1.0000
     1.0000   1.0000   1.0000   1.0000   1.0000   1.0000   1.0000   1.0000
     1.0000   1.0000   1.0000   1.0000   1.0000

          k = 0.1818 0.4199 0.0000 (  7510 PWs)   bands (ev):

   -77.7675 -49.2412 -49.1016 -48.9281 -22.3397 -22.2966 -20.5150 -19.8022
   -14.5541 -14.2776 -12.3272 -12.0479 -11.8785 -10.8155 -10.6544  -9.9704
    -8.6178  -8.4980  -8.0829  -7.6851  -6.3491

     occupation numbers 
     1.0000   1.0000   1.0000   1.0000   1.0000   1.0000   1.0000   1.0000
     1.0000   1.0000   1.0000   1.0000   1.0000   1.0000   1.0000   1.0000
     1.0000   1.0000   1.0000   1.0000   1.0000

          k = 0.1818 0.5249 0.0000 (  7532 PWs)   bands (ev):

   -77.7624 -49.2676 -49.1216 -48.9210 -21.7499 -21.7158 -20.4009 -19.8001
   -15.1819 -14.9434 -12.5642 -12.3868 -11.7149 -11.1615 -10.9738  -9.7861
    -8.9976  -8.6266  -8.0404  -7.5166  -6.1676

     occupation numbers 
     1.0000   1.0000   1.0000   1.0000   1.0000   1.0000   1.0000   1.0000
     1.0000   1.0000   1.0000   1.0000   1.0000   1.0000   1.0000   1.0000
     1.0000   1.0000   1.0000   1.0000   1.0000

          k = 0.2727 0.4724 0.0000 (  7553 PWs)   bands (ev):

   -77.7619 -49.2463 -49.1473 -48.9204 -21.7378 -21.7030 -20.3700 -19.7643
   -14.7900 -14.5222 -13.1592 -13.0232 -11.7766 -11.0167 -10.7464  -9.9644
    -9.2974  -8.7410  -8.0596  -7.4966  -6.1284

     occupation numbers 
     1.0000   1.0000   1.0000   1.0000   1.0000   1.0000   1.0000   1.0000
     1.0000   1.0000   1.0000   1.0000   1.0000   1.0000   1.0000   1.0000
     1.0000   1.0000   1.0000   1.0000   1.0000

          k = 0.2727 0.5774 0.0000 (  7528 PWs)   bands (ev):

   -77.7599 -49.2406 -49.1720 -48.9175 -21.4633 -21.4275 -20.3497 -19.7755
   -14.8224 -14.5492 -13.5992 -13.5016 -11.4679 -11.1923 -10.8331  -9.8681
    -9.5276  -9.0614  -7.9877  -7.3964  -5.9758

     occupation numbers 
     1.0000   1.0000   1.0000   1.0000   1.0000   1.0000   1.0000   1.0000
     1.0000   1.0000   1.0000   1.0000   1.0000   1.0000   1.0000   1.0000
     1.0000   1.0000   1.0000   1.0000   1.0000

          k =-0.0909 0.0525 0.0000 (  7619 PWs)   bands (ev):

   -77.8010 -49.0264 -49.0078 -48.9748 -24.5340 -24.4590 -21.7701 -20.4182
   -13.9836 -11.4346  -9.9343  -9.8271  -9.3398  -9.3055  -9.2900  -9.0857
    -8.7350  -7.8376  -7.6710  -7.3472  -5.4977

     occupation numbers 
     1.0000   1.0000   1.0000   1.0000   1.0000   1.0000   1.0000   1.0000
     1.0000   1.0000   1.0000   1.0000   1.0000   1.0000   1.0000   1.0000
     1.0000   1.0000   1.0000   1.0000   1.0000

          k = 0.0909 0.0525 0.0000 (  7619 PWs)   bands (ev):

   -77.8010 -49.0264 -49.0078 -48.9748 -24.5340 -24.4590 -21.7701 -20.4182
   -13.9836 -11.4346  -9.9342  -9.8270  -9.3400  -9.3055  -9.2899  -9.0855
    -8.7352  -7.8382  -7.6704  -7.3472  -5.4978

     occupation numbers 
     1.0000   1.0000   1.0000   1.0000   1.0000   1.0000   1.0000   1.0000
     1.0000   1.0000   1.0000   1.0000   1.0000   1.0000   1.0000   1.0000
     1.0000   1.0000   1.0000   1.0000   1.0000

          k =-0.1818 0.1050 0.0000 (  7593 PWs)   bands (ev):

   -77.7925 -49.0905 -49.0224 -48.9631 -24.1081 -24.0393 -21.4555 -20.2485
   -13.6894 -11.4602 -11.2334 -11.1266  -9.7175  -9.6756  -9.6638  -9.0705
    -8.4680  -8.2457  -8.0279  -7.4548  -5.8667

     occupation numbers 
     1.0000   1.0000   1.0000   1.0000   1.0000   1.0000   1.0000   1.0000
     1.0000   1.0000   1.0000   1.0000   1.0000   1.0000   1.0000   1.0000
     1.0000   1.0000   1.0000   1.0000   1.0000

          k = 0.1818 0.1050 0.0000 (  7593 PWs)   bands (ev):

   -77.7925 -49.0905 -49.0224 -48.9631 -24.1081 -24.0393 -21.4555 -20.2485
   -13.6894 -11.4602 -11.2332 -11.1266  -9.7173  -9.6760  -9.6636  -9.0705
    -8.4682  -8.2462  -8.0275  -7.4546  -5.8669

     occupation numbers 
     1.0000   1.0000   1.0000   1.0000   1.0000   1.0000   1.0000   1.0000
     1.0000   1.0000   1.0000   1.0000   1.0000   1.0000   1.0000   1.0000
     1.0000   1.0000   1.0000   1.0000   1.0000

          k =-0.2727 0.1575 0.0000 (  7563 PWs)   bands (ev):

   -77.7815 -49.1736 -49.0413 -48.9476 -23.4454 -23.3861 -21.0283 -20.0306
   -13.6559 -12.9932 -12.4494 -11.0995 -10.4183 -10.0867 -10.0678  -8.9004
    -8.7099  -8.4416  -8.0775  -7.6550  -6.2652

     occupation numbers 
     1.0000   1.0000   1.0000   1.0000   1.0000   1.0000   1.0000   1.0000
     1.0000   1.0000   1.0000   1.0000   1.0000   1.0000   1.0000   1.0000
     1.0000   1.0000   1.0000   1.0000   1.0000

          k = 0.2727 0.1575 0.0000 (  7563 PWs)   bands (ev):

   -77.7815 -49.1736 -49.0413 -48.9476 -23.4454 -23.3861 -21.0283 -20.0306
   -13.6559 -12.9931 -12.4493 -11.0997 -10.4182 -10.0870 -10.0677  -8.9004
    -8.7101  -8.4412  -8.0777  -7.6548  -6.2654

     occupation numbers 
     1.0000   1.0000   1.0000   1.0000   1.0000   1.0000   1.0000   1.0000
     1.0000   1.0000   1.0000   1.0000   1.0000   1.0000   1.0000   1.0000
     1.0000   1.0000   1.0000   1.0000   1.0000

          k =-0.3636 0.2099 0.0000 (  7528 PWs)   bands (ev):

   -77.7712 -49.2493 -49.0587 -48.9333 -22.6513 -22.6040 -20.6483 -19.8732
   -14.7073 -14.4455 -12.4730 -11.2687 -10.8705 -10.4287 -10.3975  -9.3316
    -8.7662  -8.4731  -7.7427  -7.7019  -6.3967

     occupation numbers 
     1.0000   1.0000   1.0000   1.0000   1.0000   1.0000   1.0000   1.0000
     1.0000   1.0000   1.0000   1.0000   1.0000   1.0000   1.0000   1.0000
     1.0000   1.0000   1.0000   1.0000   1.0000

          k = 0.3636 0.2099 0.0000 (  7528 PWs)   bands (ev):

   -77.7712 -49.2493 -49.0587 -48.9333 -22.6513 -22.6040 -20.6482 -19.8733
   -14.7072 -14.4454 -12.4728 -11.2688 -10.8705 -10.4289 -10.3975  -9.3314
    -8.7659  -8.4732  -7.7425  -7.7019  -6.3969

     occupation numbers 
     1.0000   1.0000   1.0000   1.0000   1.0000   1.0000   1.0000   1.0000
     1.0000   1.0000   1.0000   1.0000   1.0000   1.0000   1.0000   1.0000
     1.0000   1.0000   1.0000   1.0000   1.0000

          k =-0.4545 0.2624 0.0000 (  7518 PWs)   bands (ev):

   -77.7652 -49.2939 -49.0690 -48.9249 -21.9949 -21.9596 -20.4937 -19.8689
   -15.5623 -15.3293 -12.2972 -11.6606 -11.0245 -10.6178 -10.5800  -9.5018
    -8.9457  -8.2108  -7.7585  -7.4631  -6.3546

     occupation numbers 
     1.0000   1.0000   1.0000   1.0000   1.0000   1.0000   1.0000   1.0000
     1.0000   1.0000   1.0000   1.0000   1.0000   1.0000   1.0000   1.0000
     1.0000   1.0000   1.0000   1.0000   1.0000

          k = 0.4545 0.2624 0.0000 (  7518 PWs)   bands (ev):

   -77.7652 -49.2939 -49.0690 -48.9249 -21.9948 -21.9596 -20.4937 -19.8691
   -15.5622 -15.3292 -12.2969 -11.6608 -11.0246 -10.6180 -10.5800  -9.5017
    -8.9454  -8.2110  -7.7582  -7.4631  -6.3549

     occupation numbers 
     1.0000   1.0000   1.0000   1.0000   1.0000   1.0000   1.0000   1.0000
     1.0000   1.0000   1.0000   1.0000   1.0000   1.0000   1.0000   1.0000
     1.0000   1.0000   1.0000   1.0000   1.0000

          k =-0.0909 0.1575 0.0000 (  7591 PWs)   bands (ev):

   -77.7952 -49.0690 -49.0193 -48.9667 -24.2479 -24.1771 -21.5555 -20.3018
   -13.7739 -11.3593 -10.7898 -10.7656  -9.7931  -9.6550  -9.3755  -9.1317
    -8.5828  -8.0855  -7.9992  -7.3312  -5.7452

     occupation numbers 
     1.0000   1.0000   1.0000   1.0000   1.0000   1.0000   1.0000   1.0000
     1.0000   1.0000   1.0000   1.0000   1.0000   1.0000   1.0000   1.0000
     1.0000   1.0000   1.0000   1.0000   1.0000

          k = 0.1818-0.0000 0.0000 (  7591 PWs)   bands (ev):

   -77.7952 -49.0690 -49.0193 -48.9667 -24.2479 -24.1771 -21.5555 -20.3018
   -13.7739 -11.3593 -10.7898 -10.7656  -9.7931  -9.6550  -9.3755  -9.1317
    -8.5828  -8.0855  -7.9992  -7.3312  -5.7452

     occupation numbers 
     1.0000   1.0000   1.0000   1.0000   1.0000   1.0000   1.0000   1.0000
     1.0000   1.0000   1.0000   1.0000   1.0000   1.0000   1.0000   1.0000
     1.0000   1.0000   1.0000   1.0000   1.0000

          k =-0.0909 0.2624 0.0000 (  7569 PWs)   bands (ev):

   -77.7854 -49.1390 -49.0396 -48.9531 -23.7019 -23.6389 -21.1825 -20.1054
   -13.5343 -12.2722 -12.0002 -11.1135 -10.4441 -10.2095  -9.8746  -8.9012
    -8.7543  -8.3044  -8.1349  -7.5179  -6.1447

     occupation numbers 
     1.0000   1.0000   1.0000   1.0000   1.0000   1.0000   1.0000   1.0000
     1.0000   1.0000   1.0000   1.0000   1.0000   1.0000   1.0000   1.0000
     1.0000   1.0000   1.0000   1.0000   1.0000

          k =-0.1818 0.2099 0.0000 (  7569 PWs)   bands (ev):

   -77.7854 -49.1390 -49.0396 -48.9531 -23.7019 -23.6389 -21.1825 -20.1054
   -13.5343 -12.2723 -12.0003 -11.1134 -10.4441 -10.2095  -9.8747  -8.9012
    -8.7542  -8.3044  -8.1351  -7.5180  -6.1446

     occupation numbers 
     1.0000   1.0000   1.0000   1.0000   1.0000   1.0000   1.0000   1.0000
     1.0000   1.0000   1.0000   1.0000   1.0000   1.0000   1.0000   1.0000
     1.0000   1.0000   1.0000   1.0000   1.0000

          k = 0.2727 0.0525 0.0000 (  7569 PWs)   bands (ev):

   -77.7854 -49.1390 -49.0396 -48.9531 -23.7019 -23.6389 -21.1825 -20.1054
   -13.5343 -12.2722 -12.0002 -11.1135 -10.4441 -10.2095  -9.8746  -8.9012
    -8.7543  -8.3044  -8.1349  -7.5179  -6.1447

     occupation numbers 
     1.0000   1.0000   1.0000   1.0000   1.0000   1.0000   1.0000   1.0000
     1.0000   1.0000   1.0000   1.0000   1.0000   1.0000   1.0000   1.0000
     1.0000   1.0000   1.0000   1.0000   1.0000

          k =-0.1818-0.2099 0.0000 (  7569 PWs)   bands (ev):

   -77.7854 -49.1390 -49.0396 -48.9531 -23.7019 -23.6389 -21.1825 -20.1054
   -13.5342 -12.2722 -12.0002 -11.1135 -10.4440 -10.2096  -9.8746  -8.9011
    -8.7542  -8.3046  -8.1353  -7.5175  -6.1449

     occupation numbers 
     1.0000   1.0000   1.0000   1.0000   1.0000   1.0000   1.0000   1.0000
     1.0000   1.0000   1.0000   1.0000   1.0000   1.0000   1.0000   1.0000
     1.0000   1.0000   1.0000   1.0000   1.0000

          k = 0.2727-0.0525 0.0000 (  7569 PWs)   bands (ev):

   -77.7854 -49.1390 -49.0396 -48.9531 -23.7019 -23.6389 -21.1825 -20.1054
   -13.5343 -12.2723 -12.0003 -11.1134 -10.4441 -10.2095  -9.8747  -8.9012
    -8.7542  -8.3044  -8.1351  -7.5180  -6.1446

     occupation numbers 
     1.0000   1.0000   1.0000   1.0000   1.0000   1.0000   1.0000   1.0000
     1.0000   1.0000   1.0000   1.0000   1.0000   1.0000   1.0000   1.0000
     1.0000   1.0000   1.0000   1.0000   1.0000

          k =-0.0909 0.3674 0.0000 (  7562 PWs)   bands (ev):

   -77.7748 -49.2143 -49.0619 -48.9383 -22.9647 -22.9123 -20.7723 -19.9107
   -14.0971 -13.7433 -12.4899 -11.1645 -10.8851 -10.6855 -10.4106  -9.4004
    -8.6492  -8.3377  -8.0193  -7.6960  -6.3854

     occupation numbers 
     1.0000   1.0000   1.0000   1.0000   1.0000   1.0000   1.0000   1.0000
     1.0000   1.0000   1.0000   1.0000   1.0000   1.0000   1.0000   1.0000
     1.0000   1.0000   1.0000   1.0000   1.0000

          k =-0.2727 0.2624 0.0000 (  7562 PWs)   bands (ev):

   -77.7748 -49.2143 -49.0619 -48.9383 -22.9647 -22.9123 -20.7723 -19.9106
   -14.0972 -13.7433 -12.4900 -11.1644 -10.8850 -10.6853 -10.4106  -9.4007
    -8.6492  -8.3376  -8.0192  -7.6962  -6.3853

     occupation numbers 
     1.0000   1.0000   1.0000   1.0000   1.0000   1.0000   1.0000   1.0000
     1.0000   1.0000   1.0000   1.0000   1.0000   1.0000   1.0000   1.0000
     1.0000   1.0000   1.0000   1.0000   1.0000

          k = 0.3636 0.1050 0.0000 (  7562 PWs)   bands (ev):

   -77.7748 -49.2143 -49.0619 -48.9383 -22.9647 -22.9123 -20.7723 -19.9107
   -14.0971 -13.7433 -12.4899 -11.1645 -10.8851 -10.6855 -10.4106  -9.4004
    -8.6492  -8.3377  -8.0193  -7.6960  -6.3854

     occupation numbers 
     1.0000   1.0000   1.0000   1.0000   1.0000   1.0000   1.0000   1.0000
     1.0000   1.0000   1.0000   1.0000   1.0000   1.0000   1.0000   1.0000
     1.0000   1.0000   1.0000   1.0000   1.0000

          k =-0.2727-0.2624 0.0000 (  7562 PWs)   bands (ev):

   -77.7748 -49.2143 -49.0619 -48.9383 -22.9647 -22.9123 -20.7723 -19.9107
   -14.0971 -13.7433 -12.4898 -11.1645 -10.8850 -10.6855 -10.4106  -9.4006
    -8.6492  -8.3375  -8.0192  -7.6960  -6.3856

     occupation numbers 
     1.0000   1.0000   1.0000   1.0000   1.0000   1.0000   1.0000   1.0000
     1.0000   1.0000   1.0000   1.0000   1.0000   1.0000   1.0000   1.0000
     1.0000   1.0000   1.0000   1.0000   1.0000

          k = 0.3636-0.1050 0.0000 (  7562 PWs)   bands (ev):

   -77.7748 -49.2143 -49.0619 -48.9383 -22.9647 -22.9123 -20.7723 -19.9106
   -14.0972 -13.7433 -12.4900 -11.1644 -10.8850 -10.6853 -10.4106  -9.4006
    -8.6492  -8.3376  -8.0192  -7.6962  -6.3853

     occupation numbers 
     1.0000   1.0000   1.0000   1.0000   1.0000   1.0000   1.0000   1.0000
     1.0000   1.0000   1.0000   1.0000   1.0000   1.0000   1.0000   1.0000
     1.0000   1.0000   1.0000   1.0000   1.0000

          k =-0.0909 0.4724 0.0000 (  7517 PWs)   bands (ev):

   -77.7666 -49.2712 -49.0789 -48.9269 -22.2034 -22.1636 -20.5062 -19.8330
   -15.1362 -14.8979 -12.3211 -11.5647 -11.1130 -10.8645 -10.8318  -9.6378
    -8.8033  -8.2620  -7.9093  -7.6312  -6.3433

     occupation numbers 
     1.0000   1.0000   1.0000   1.0000   1.0000   1.0000   1.0000   1.0000
     1.0000   1.0000   1.0000   1.0000   1.0000   1.0000   1.0000   1.0000
     1.0000   1.0000   1.0000   1.0000   1.0000

          k =-0.3636 0.3149 0.0000 (  7517 PWs)   bands (ev):

   -77.7666 -49.2712 -49.0789 -48.9269 -22.2034 -22.1636 -20.5062 -19.8329
   -15.1363 -14.8980 -12.3214 -11.5645 -11.1130 -10.8645 -10.8316  -9.6383
    -8.8032  -8.2618  -7.9093  -7.6314  -6.3432

     occupation numbers 
     1.0000   1.0000   1.0000   1.0000   1.0000   1.0000   1.0000   1.0000
     1.0000   1.0000   1.0000   1.0000   1.0000   1.0000   1.0000   1.0000
     1.0000   1.0000   1.0000   1.0000   1.0000

          k = 0.4545 0.1575 0.0000 (  7517 PWs)   bands (ev):

   -77.7666 -49.2712 -49.0789 -48.9269 -22.2034 -22.1636 -20.5062 -19.8330
   -15.1362 -14.8979 -12.3211 -11.5647 -11.1130 -10.8645 -10.8318  -9.6378
    -8.8033  -8.2620  -7.9093  -7.6312  -6.3433

     occupation numbers 
     1.0000   1.0000   1.0000   1.0000   1.0000   1.0000   1.0000   1.0000
     1.0000   1.0000   1.0000   1.0000   1.0000   1.0000   1.0000   1.0000
     1.0000   1.0000   1.0000   1.0000   1.0000

          k =-0.3636-0.3149 0.0000 (  7517 PWs)   bands (ev):

   -77.7666 -49.2712 -49.0789 -48.9269 -22.2034 -22.1636 -20.5062 -19.8330
   -15.1362 -14.8979 -12.3211 -11.5646 -11.1131 -10.8644 -10.8319  -9.6383
    -8.8029  -8.2619  -7.9091  -7.6314  -6.3435

     occupation numbers 
     1.0000   1.0000   1.0000   1.0000   1.0000   1.0000   1.0000   1.0000
     1.0000   1.0000   1.0000   1.0000   1.0000   1.0000   1.0000   1.0000
     1.0000   1.0000   1.0000   1.0000   1.0000

          k = 0.4545-0.1575 0.0000 (  7517 PWs)   bands (ev):

   -77.7666 -49.2712 -49.0789 -48.9269 -22.2034 -22.1636 -20.5062 -19.8329
   -15.1363 -14.8980 -12.3214 -11.5645 -11.1130 -10.8645 -10.8316  -9.6383
    -8.8032  -8.2617  -7.9093  -7.6314  -6.3432

     occupation numbers 
     1.0000   1.0000   1.0000   1.0000   1.0000   1.0000   1.0000   1.0000
     1.0000   1.0000   1.0000   1.0000   1.0000   1.0000   1.0000   1.0000
     1.0000   1.0000   1.0000   1.0000   1.0000

          k =-0.4545 0.3674 0.0000 (  7510 PWs)   bands (ev):

   -77.7636 -49.2923 -49.0852 -48.9227 -21.8228 -21.7894 -20.4600 -19.8600
   -15.5781 -15.3449 -12.2097 -11.7670 -11.1841 -11.0766 -10.9074  -9.5993
    -8.9956  -8.1220  -7.8607  -7.5944  -6.2690

     occupation numbers 
     1.0000   1.0000   1.0000   1.0000   1.0000   1.0000   1.0000   1.0000
     1.0000   1.0000   1.0000   1.0000   1.0000   1.0000   1.0000   1.0000
     1.0000   1.0000   1.0000   1.0000   1.0000

          k = 0.5455 0.2099 0.0000 (  7510 PWs)   bands (ev):

   -77.7636 -49.2923 -49.0852 -48.9227 -21.8228 -21.7893 -20.4600 -19.8601
   -15.5780 -15.3449 -12.2094 -11.7673 -11.1842 -11.0765 -10.9077  -9.5992
    -8.9956  -8.1222  -7.8606  -7.5942  -6.2692

     occupation numbers 
     1.0000   1.0000   1.0000   1.0000   1.0000   1.0000   1.0000   1.0000
     1.0000   1.0000   1.0000   1.0000   1.0000   1.0000   1.0000   1.0000
     1.0000   1.0000   1.0000   1.0000   1.0000

          k =-0.1818 0.3149 0.0000 (  7565 PWs)   bands (ev):

   -77.7761 -49.1944 -49.0699 -48.9401 -23.0759 -23.0218 -20.8213 -19.9261
   -13.7756 -13.2851 -12.3746 -11.3687 -11.2200 -10.8481 -10.2652  -9.5262
    -8.6625  -8.3148  -7.9739  -7.7343  -6.3813

     occupation numbers 
     1.0000   1.0000   1.0000   1.0000   1.0000   1.0000   1.0000   1.0000
     1.0000   1.0000   1.0000   1.0000   1.0000   1.0000   1.0000   1.0000
     1.0000   1.0000   1.0000   1.0000   1.0000

          k = 0.3636-0.0000 0.0000 (  7565 PWs)   bands (ev):

   -77.7761 -49.1944 -49.0699 -48.9401 -23.0760 -23.0218 -20.8213 -19.9261
   -13.7756 -13.2851 -12.3747 -11.3687 -11.2200 -10.8481 -10.2652  -9.5262
    -8.6625  -8.3148  -7.9739  -7.7343  -6.3813

     occupation numbers 
     1.0000   1.0000   1.0000   1.0000   1.0000   1.0000   1.0000   1.0000
     1.0000   1.0000   1.0000   1.0000   1.0000   1.0000   1.0000   1.0000
     1.0000   1.0000   1.0000   1.0000   1.0000

          k =-0.1818 0.4199 0.0000 (  7510 PWs)   bands (ev):

   -77.7675 -49.2412 -49.1016 -48.9281 -22.3397 -22.2966 -20.5150 -19.8022
   -14.5541 -14.2777 -12.3272 -12.0479 -11.8785 -10.8157 -10.6545  -9.9700
    -8.6179  -8.4980  -8.0833  -7.6849  -6.3489

     occupation numbers 
     1.0000   1.0000   1.0000   1.0000   1.0000   1.0000   1.0000   1.0000
     1.0000   1.0000   1.0000   1.0000   1.0000   1.0000   1.0000   1.0000
     1.0000   1.0000   1.0000   1.0000   1.0000

          k =-0.2727 0.3674 0.0000 (  7510 PWs)   bands (ev):

   -77.7675 -49.2412 -49.1016 -48.9281 -22.3398 -22.2966 -20.5150 -19.8021
   -14.5541 -14.2777 -12.3273 -12.0478 -11.8785 -10.8155 -10.6545  -9.9703
    -8.6178  -8.4980  -8.0832  -7.6850  -6.3489

     occupation numbers 
     1.0000   1.0000   1.0000   1.0000   1.0000   1.0000   1.0000   1.0000
     1.0000   1.0000   1.0000   1.0000   1.0000   1.0000   1.0000   1.0000
     1.0000   1.0000   1.0000   1.0000   1.0000

          k = 0.4545 0.0525 0.0000 (  7510 PWs)   bands (ev):

   -77.7675 -49.2412 -49.1016 -48.9281 -22.3397 -22.2966 -20.5150 -19.8022
   -14.5541 -14.2777 -12.3272 -12.0479 -11.8785 -10.8157 -10.6545  -9.9700
    -8.6179  -8.4980  -8.0833  -7.6849  -6.3489

     occupation numbers 
     1.0000   1.0000   1.0000   1.0000   1.0000   1.0000   1.0000   1.0000
     1.0000   1.0000   1.0000   1.0000   1.0000   1.0000   1.0000   1.0000
     1.0000   1.0000   1.0000   1.0000   1.0000

          k =-0.2727-0.3674 0.0000 (  7510 PWs)   bands (ev):

   -77.7675 -49.2412 -49.1016 -48.9281 -22.3397 -22.2966 -20.5150 -19.8022
   -14.5541 -14.2776 -12.3272 -12.0479 -11.8785 -10.8155 -10.6544  -9.9704
    -8.6178  -8.4980  -8.0829  -7.6851  -6.3491

     occupation numbers 
     1.0000   1.0000   1.0000   1.0000   1.0000   1.0000   1.0000   1.0000
     1.0000   1.0000   1.0000   1.0000   1.0000   1.0000   1.0000   1.0000
     1.0000   1.0000   1.0000   1.0000   1.0000

          k = 0.4545-0.0525 0.0000 (  7510 PWs)   bands (ev):

   -77.7675 -49.2412 -49.1016 -48.9281 -22.3398 -22.2966 -20.5150 -19.8021
   -14.5541 -14.2777 -12.3273 -12.0478 -11.8785 -10.8155 -10.6545  -9.9703
    -8.6178  -8.4980  -8.0832  -7.6850  -6.3489

     occupation numbers 
     1.0000   1.0000   1.0000   1.0000   1.0000   1.0000   1.0000   1.0000
     1.0000   1.0000   1.0000   1.0000   1.0000   1.0000   1.0000   1.0000
     1.0000   1.0000   1.0000   1.0000   1.0000

          k =-0.1818 0.5249 0.0000 (  7532 PWs)   bands (ev):

   -77.7624 -49.2676 -49.1216 -48.9210 -21.7499 -21.7158 -20.4009 -19.8001
   -15.1820 -14.9434 -12.5642 -12.3868 -11.7149 -11.1616 -10.9739  -9.7857
    -8.9979  -8.6266  -8.0405  -7.5165  -6.1675

     occupation numbers 
     1.0000   1.0000   1.0000   1.0000   1.0000   1.0000   1.0000   1.0000
     1.0000   1.0000   1.0000   1.0000   1.0000   1.0000   1.0000   1.0000
     1.0000   1.0000   1.0000   1.0000   1.0000

          k =-0.3636 0.4199 0.0000 (  7532 PWs)   bands (ev):

   -77.7624 -49.2676 -49.1216 -48.9210 -21.7500 -21.7158 -20.4009 -19.8000
   -15.1820 -14.9435 -12.5642 -12.3867 -11.7151 -11.1615 -10.9738  -9.7860
    -8.9977  -8.6265  -8.0405  -7.5166  -6.1675

     occupation numbers 
     1.0000   1.0000   1.0000   1.0000   1.0000   1.0000   1.0000   1.0000
     1.0000   1.0000   1.0000   1.0000   1.0000   1.0000   1.0000   1.0000
     1.0000   1.0000   1.0000   1.0000   1.0000

          k = 0.5455 0.1050 0.0000 (  7532 PWs)   bands (ev):

   -77.7624 -49.2676 -49.1216 -48.9210 -21.7499 -21.7158 -20.4009 -19.8001
   -15.1820 -14.9434 -12.5642 -12.3868 -11.7149 -11.1616 -10.9739  -9.7857
    -8.9979  -8.6266  -8.0405  -7.5165  -6.1675

     occupation numbers 
     1.0000   1.0000   1.0000   1.0000   1.0000   1.0000   1.0000   1.0000
     1.0000   1.0000   1.0000   1.0000   1.0000   1.0000   1.0000   1.0000
     1.0000   1.0000   1.0000   1.0000   1.0000

          k =-0.3636-0.4199 0.0000 (  7532 PWs)   bands (ev):

   -77.7624 -49.2676 -49.1216 -48.9210 -21.7499 -21.7158 -20.4009 -19.8001
   -15.1819 -14.9434 -12.5642 -12.3868 -11.7149 -11.1615 -10.9738  -9.7861
    -8.9976  -8.6265  -8.0404  -7.5166  -6.1676

     occupation numbers 
     1.0000   1.0000   1.0000   1.0000   1.0000   1.0000   1.0000   1.0000
     1.0000   1.0000   1.0000   1.0000   1.0000   1.0000   1.0000   1.0000
     1.0000   1.0000   1.0000   1.0000   1.0000

          k = 0.5455-0.1050 0.0000 (  7532 PWs)   bands (ev):

   -77.7624 -49.2676 -49.1216 -48.9210 -21.7500 -21.7158 -20.4009 -19.8000
   -15.1820 -14.9435 -12.5642 -12.3867 -11.7151 -11.1615 -10.9738  -9.7860
    -8.9977  -8.6265  -8.0405  -7.5166  -6.1675

     occupation numbers 
     1.0000   1.0000   1.0000   1.0000   1.0000   1.0000   1.0000   1.0000
     1.0000   1.0000   1.0000   1.0000   1.0000   1.0000   1.0000   1.0000
     1.0000   1.0000   1.0000   1.0000   1.0000

          k =-0.2727 0.4724 0.0000 (  7553 PWs)   bands (ev):

   -77.7619 -49.2463 -49.1473 -48.9204 -21.7378 -21.7031 -20.3700 -19.7642
   -14.7900 -14.5222 -13.1591 -13.0232 -11.7767 -11.0170 -10.7465  -9.9640
    -9.2974  -8.7412  -8.0598  -7.4965  -6.1283

     occupation numbers 
     1.0000   1.0000   1.0000   1.0000   1.0000   1.0000   1.0000   1.0000
     1.0000   1.0000   1.0000   1.0000   1.0000   1.0000   1.0000   1.0000
     1.0000   1.0000   1.0000   1.0000   1.0000

          k = 0.5455-0.0000 0.0000 (  7553 PWs)   bands (ev):

   -77.7619 -49.2463 -49.1473 -48.9204 -21.7378 -21.7031 -20.3700 -19.7642
   -14.7900 -14.5222 -13.1591 -13.0232 -11.7767 -11.0170 -10.7465  -9.9640
    -9.2974  -8.7412  -8.0598  -7.4965  -6.1283

     occupation numbers 
     1.0000   1.0000   1.0000   1.0000   1.0000   1.0000   1.0000   1.0000
     1.0000   1.0000   1.0000   1.0000   1.0000   1.0000   1.0000   1.0000
     1.0000   1.0000   1.0000   1.0000   1.0000

          k =-0.3636 0.5249 0.0000 (  7528 PWs)   bands (ev):

   -77.7599 -49.2406 -49.1720 -48.9175 -21.4633 -21.4275 -20.3497 -19.7755
   -14.8225 -14.5493 -13.5991 -13.5016 -11.4679 -11.1924 -10.8331  -9.8681
    -9.5275  -9.0614  -7.9878  -7.3964  -5.9758

     occupation numbers 
     1.0000   1.0000   1.0000   1.0000   1.0000   1.0000   1.0000   1.0000
     1.0000   1.0000   1.0000   1.0000   1.0000   1.0000   1.0000   1.0000
     1.0000   1.0000   1.0000   1.0000   1.0000

          k = 0.6364 0.0525 0.0000 (  7528 PWs)   bands (ev):

   -77.7599 -49.2406 -49.1720 -48.9175 -21.4633 -21.4275 -20.3497 -19.7755
   -14.8224 -14.5492 -13.5992 -13.5016 -11.4679 -11.1923 -10.8331  -9.8681
    -9.5276  -9.0614  -7.9877  -7.3964  -5.9758

     occupation numbers 
     1.0000   1.0000   1.0000   1.0000   1.0000   1.0000   1.0000   1.0000
     1.0000   1.0000   1.0000   1.0000   1.0000   1.0000   1.0000   1.0000
     1.0000   1.0000   1.0000   1.0000   1.0000

     highest occupied level (ev):    -5.3913

!    total energy              =    -263.32587523 Ry
     estimated scf accuracy    <          6.9E-13 Ry

     The total energy is the sum of the following terms:
     one-electron contribution =   -4583.41629416 Ry
     hartree contribution      =    2288.30525203 Ry
     xc contribution           =     -44.81488567 Ry
     ewald contribution        =    2076.60005258 Ry

     convergence has been achieved in  21 iterations

     Forces acting on atoms (cartesian axes, Ry/au):

     atom    1 type  1   force =    -0.00000601    0.00000338   -0.00000948
     atom    2 type  3   force =     0.00002751   -0.00001670   -0.00111531
     atom    3 type  3   force =     0.00000970   -0.00000514    0.00132885
     atom    4 type  3   force =    -0.00000418    0.00000311    0.00011250
     atom    5 type  3   force =    -0.00000767    0.00000395   -0.00026410
     atom    6 type  2   force =    -0.00001258    0.00000678    0.00080027
     atom    7 type  2   force =    -0.00000678    0.00000462   -0.00085271
     The non-local contrib.  to forces
     atom    1 type  1   force =    -0.00002076    0.00001217   -0.00555817
     atom    2 type  3   force =    -0.00002750    0.00001923   -0.08226269
     atom    3 type  3   force =    -0.00000174   -0.00000482    0.10607207
     atom    4 type  3   force =    -0.00016451    0.00009659   -0.87967677
     atom    5 type  3   force =    -0.00017520    0.00010039    0.84725463
     atom    6 type  2   force =    -0.00014824    0.00008795   -0.10281960
     atom    7 type  2   force =    -0.00006519    0.00003434    0.08456226
     The ionic contribution  to forces
     atom    1 type  1   force =    -0.00092075    0.00053431   -0.19320450
     atom    2 type  3   force =     0.00037517   -0.00024357  -43.64237651
     atom    3 type  3   force =     0.00022253   -0.00009987   43.80842701
     atom    4 type  3   force =     0.00017935   -0.00010175   90.26847393
     atom    5 type  3   force =     0.00023911   -0.00014004  -90.14502580
     atom    6 type  2   force =    -0.00011503    0.00007402  -62.64061756
     atom    7 type  2   force =     0.00001962   -0.00002309   62.54432343
     The local contribution  to forces
     atom    1 type  1   force =     0.00087277   -0.00050682    0.19868081
     atom    2 type  3   force =    -0.00038294    0.00024395   43.72345490
     atom    3 type  3   force =    -0.00027385    0.00013586  -43.91323743
     atom    4 type  3   force =    -0.00008178    0.00004458  -89.38875152
     atom    5 type  3   force =    -0.00013434    0.00007991   89.29744009
     atom    6 type  2   force =     0.00018794   -0.00011888   62.74417034
     atom    7 type  2   force =    -0.00002397    0.00002968  -62.62980528
     The core correction contribution to forces
     atom    1 type  1   force =     0.00000000    0.00000000    0.00000000
     atom    2 type  3   force =     0.00000000    0.00000000    0.00000000
     atom    3 type  3   force =     0.00000000    0.00000000    0.00000000
     atom    4 type  3   force =     0.00000000    0.00000000    0.00000000
     atom    5 type  3   force =     0.00000000    0.00000000    0.00000000
     atom    6 type  2   force =     0.00000000    0.00000000    0.00000000
     atom    7 type  2   force =     0.00000000    0.00000000    0.00000000
     The Hubbard contrib.    to forces
     atom    1 type  1   force =     0.00000000    0.00000000    0.00000000
     atom    2 type  3   force =     0.00000000    0.00000000    0.00000000
     atom    3 type  3   force =     0.00000000    0.00000000    0.00000000
     atom    4 type  3   force =     0.00000000    0.00000000    0.00000000
     atom    5 type  3   force =     0.00000000    0.00000000    0.00000000
     atom    6 type  2   force =     0.00000000    0.00000000    0.00000000
     atom    7 type  2   force =     0.00000000    0.00000000    0.00000000
     The SCF correction term to forces
     atom    1 type  1   force =    -0.00000003    0.00000003    0.00000555
     atom    2 type  3   force =     0.00000000    0.00000000    0.00000216
     atom    3 type  3   force =     0.00000000   -0.00000000    0.00000037
     atom    4 type  3   force =     0.00000000    0.00000000    0.00000002
     atom    5 type  3   force =    -0.00000000   -0.00000000    0.00000015
     atom    6 type  2   force =     0.00000000   -0.00000000    0.00000025
     atom    7 type  2   force =     0.00000000   -0.00000000    0.00000005

     Total force =     0.002112     Total SCF correction =     0.000006
     Energy error            =      1.8E-05 Ry
     Gradient error          =      1.3E-03 Ry/Bohr

     number of scf cycles    =   6
     number of bfgs steps    =   5

     energy             old  =    -263.3258576742 Ry
     energy             new  =    -263.3258752295 Ry

     CASE: energy            _new < energy            _old

     new trust radius        =       0.0013012225 bohr
     new conv_thr            =            1.0E-12 Ry


ATOMIC_POSITIONS (crystal)
Cr               0.8571284434        0.1428534275        0.4278020699
N                0.5237780247        0.4762062260        0.3724486798
N                0.5237765793        0.4762030343        0.4838551241
N                0.8571525028        0.1428192752        0.5953853156
N                0.1904603679        0.8095289785        0.2619663289
Si               0.5238074290        0.4761818135        0.2883710786
Si               0.5238306530        0.4761412449        0.5685354032



     Writing config-only to output data dir ./tmp/crsi2n4.save/ :
     XML data file
     NEW-OLD atomic charge density approx. for the potential

     total cpu time spent up to now is      575.9 secs

     Self-consistent Calculation
[tb_dev] Currently allocated     0.00E+00 Mbytes, locked:    0 /   0
[tb_pin] Currently allocated     0.00E+00 Mbytes, locked:    0 /   0

     iteration #  1     ecut=    60.00 Ry     beta= 0.50
     Davidson diagonalization with overlap

---- Real-time Memory Report at c_bands before calling an iterative solver
           877 MiB given to the printing process from OS
             0 MiB allocation reported by mallinfo(arena+hblkhd)
          8421 MiB available memory on the node where the printing process lives
     GPU memory used/free/total (MiB): 1849 / 10064 / 11914
------------------
     ethr =  1.00E-06,  avg # of iterations =  2.0

     Threshold (ethr) on eigenvalues was too large:
     Diagonalizing with lowered threshold

     Davidson diagonalization with overlap

---- Real-time Memory Report at c_bands before calling an iterative solver
           877 MiB given to the printing process from OS
             0 MiB allocation reported by mallinfo(arena+hblkhd)
          9240 MiB available memory on the node where the printing process lives
     GPU memory used/free/total (MiB): 1849 / 10064 / 11914
------------------
     ethr =  9.05E-10,  avg # of iterations =  6.8

     total cpu time spent up to now is      586.5 secs

     total energy              =    -263.32587563 Ry
     estimated scf accuracy    <       0.00000243 Ry
[tb_dev] Currently allocated     2.67E-05 Mbytes, locked:    0 /   1
[tb_pin] Currently allocated     0.00E+00 Mbytes, locked:    0 /   0

     iteration #  2     ecut=    60.00 Ry     beta= 0.50
     Davidson diagonalization with overlap

---- Real-time Memory Report at c_bands before calling an iterative solver
           877 MiB given to the printing process from OS
             0 MiB allocation reported by mallinfo(arena+hblkhd)
          9242 MiB available memory on the node where the printing process lives
     GPU memory used/free/total (MiB): 1849 / 10064 / 11914
------------------
     ethr =  5.78E-09,  avg # of iterations =  7.1

     total cpu time spent up to now is      592.9 secs

     total energy              =    -263.32587535 Ry
     estimated scf accuracy    <       0.00001301 Ry
[tb_dev] Currently allocated     2.67E-05 Mbytes, locked:    0 /   1
[tb_pin] Currently allocated     0.00E+00 Mbytes, locked:    0 /   0

     iteration #  3     ecut=    60.00 Ry     beta= 0.50
     Davidson diagonalization with overlap

---- Real-time Memory Report at c_bands before calling an iterative solver
           877 MiB given to the printing process from OS
             0 MiB allocation reported by mallinfo(arena+hblkhd)
          9185 MiB available memory on the node where the printing process lives
     GPU memory used/free/total (MiB): 1849 / 10064 / 11914
------------------
     ethr =  5.78E-09,  avg # of iterations =  6.0

     total cpu time spent up to now is      598.3 secs

     total energy              =    -263.32587676 Ry
     estimated scf accuracy    <       0.00000018 Ry
[tb_dev] Currently allocated     2.67E-05 Mbytes, locked:    0 /   1
[tb_pin] Currently allocated     0.00E+00 Mbytes, locked:    0 /   0

     iteration #  4     ecut=    60.00 Ry     beta= 0.50
     Davidson diagonalization with overlap

---- Real-time Memory Report at c_bands before calling an iterative solver
           877 MiB given to the printing process from OS
             0 MiB allocation reported by mallinfo(arena+hblkhd)
          9222 MiB available memory on the node where the printing process lives
     GPU memory used/free/total (MiB): 1849 / 10064 / 11914
------------------
     ethr =  4.23E-10,  avg # of iterations =  7.7

     total cpu time spent up to now is      605.0 secs

     total energy              =    -263.32587680 Ry
     estimated scf accuracy    <       0.00000063 Ry
[tb_dev] Currently allocated     2.67E-05 Mbytes, locked:    0 /   1
[tb_pin] Currently allocated     0.00E+00 Mbytes, locked:    0 /   0

     iteration #  5     ecut=    60.00 Ry     beta= 0.50
     Davidson diagonalization with overlap

---- Real-time Memory Report at c_bands before calling an iterative solver
           877 MiB given to the printing process from OS
             0 MiB allocation reported by mallinfo(arena+hblkhd)
          9223 MiB available memory on the node where the printing process lives
     GPU memory used/free/total (MiB): 1849 / 10064 / 11914
------------------
     ethr =  4.23E-10,  avg # of iterations =  6.0

     total cpu time spent up to now is      610.4 secs

     total energy              =    -263.32587686 Ry
     estimated scf accuracy    <       0.00000005 Ry
[tb_dev] Currently allocated     2.67E-05 Mbytes, locked:    0 /   1
[tb_pin] Currently allocated     0.00E+00 Mbytes, locked:    0 /   0

     iteration #  6     ecut=    60.00 Ry     beta= 0.50
     Davidson diagonalization with overlap

---- Real-time Memory Report at c_bands before calling an iterative solver
           877 MiB given to the printing process from OS
             0 MiB allocation reported by mallinfo(arena+hblkhd)
          9223 MiB available memory on the node where the printing process lives
     GPU memory used/free/total (MiB): 1849 / 10064 / 11914
------------------
     ethr =  1.31E-10,  avg # of iterations =  2.5

     total cpu time spent up to now is      614.0 secs

     total energy              =    -263.32587686 Ry
     estimated scf accuracy    <       0.00000002 Ry
[tb_dev] Currently allocated     2.67E-05 Mbytes, locked:    0 /   1
[tb_pin] Currently allocated     0.00E+00 Mbytes, locked:    0 /   0

     iteration #  7     ecut=    60.00 Ry     beta= 0.50
     Davidson diagonalization with overlap

---- Real-time Memory Report at c_bands before calling an iterative solver
           877 MiB given to the printing process from OS
             0 MiB allocation reported by mallinfo(arena+hblkhd)
          9016 MiB available memory on the node where the printing process lives
     GPU memory used/free/total (MiB): 1849 / 10064 / 11914
------------------
     ethr =  3.74E-11,  avg # of iterations =  6.5

     total cpu time spent up to now is      619.9 secs

     total energy              =    -263.32587686 Ry
     estimated scf accuracy    <       0.00000002 Ry
[tb_dev] Currently allocated     2.67E-05 Mbytes, locked:    0 /   1
[tb_pin] Currently allocated     0.00E+00 Mbytes, locked:    0 /   0

     iteration #  8     ecut=    60.00 Ry     beta= 0.50
     Davidson diagonalization with overlap

---- Real-time Memory Report at c_bands before calling an iterative solver
           877 MiB given to the printing process from OS
             0 MiB allocation reported by mallinfo(arena+hblkhd)
          8803 MiB available memory on the node where the printing process lives
     GPU memory used/free/total (MiB): 1849 / 10064 / 11914
------------------
     ethr =  3.74E-11,  avg # of iterations =  2.0

     total cpu time spent up to now is      623.2 secs

     total energy              =    -263.32587686 Ry
     estimated scf accuracy    <          6.6E-09 Ry
[tb_dev] Currently allocated     2.67E-05 Mbytes, locked:    0 /   1
[tb_pin] Currently allocated     0.00E+00 Mbytes, locked:    0 /   0

     iteration #  9     ecut=    60.00 Ry     beta= 0.50
     Davidson diagonalization with overlap

---- Real-time Memory Report at c_bands before calling an iterative solver
           877 MiB given to the printing process from OS
             0 MiB allocation reported by mallinfo(arena+hblkhd)
          8392 MiB available memory on the node where the printing process lives
     GPU memory used/free/total (MiB): 1849 / 10064 / 11914
------------------
     ethr =  1.56E-11,  avg # of iterations =  6.0

     total cpu time spent up to now is      628.9 secs

     total energy              =    -263.32587687 Ry
     estimated scf accuracy    <          5.1E-09 Ry
[tb_dev] Currently allocated     2.67E-05 Mbytes, locked:    0 /   1
[tb_pin] Currently allocated     0.00E+00 Mbytes, locked:    0 /   0

     iteration # 10     ecut=    60.00 Ry     beta= 0.50
     Davidson diagonalization with overlap

---- Real-time Memory Report at c_bands before calling an iterative solver
           878 MiB given to the printing process from OS
             0 MiB allocation reported by mallinfo(arena+hblkhd)
          8391 MiB available memory on the node where the printing process lives
     GPU memory used/free/total (MiB): 1849 / 10064 / 11914
------------------
     ethr =  1.23E-11,  avg # of iterations =  1.3

     total cpu time spent up to now is      631.7 secs

     total energy              =    -263.32587687 Ry
     estimated scf accuracy    <          2.9E-09 Ry
[tb_dev] Currently allocated     2.67E-05 Mbytes, locked:    0 /   1
[tb_pin] Currently allocated     0.00E+00 Mbytes, locked:    0 /   0

     iteration # 11     ecut=    60.00 Ry     beta= 0.50
     Davidson diagonalization with overlap

---- Real-time Memory Report at c_bands before calling an iterative solver
           878 MiB given to the printing process from OS
             0 MiB allocation reported by mallinfo(arena+hblkhd)
          8390 MiB available memory on the node where the printing process lives
     GPU memory used/free/total (MiB): 1849 / 10064 / 11914
------------------
     ethr =  6.79E-12,  avg # of iterations =  5.0

     total cpu time spent up to now is      636.6 secs

     total energy              =    -263.32587687 Ry
     estimated scf accuracy    <          3.4E-10 Ry
[tb_dev] Currently allocated     2.67E-05 Mbytes, locked:    0 /   1
[tb_pin] Currently allocated     0.00E+00 Mbytes, locked:    0 /   0

     iteration # 12     ecut=    60.00 Ry     beta= 0.50
     Davidson diagonalization with overlap

---- Real-time Memory Report at c_bands before calling an iterative solver
           880 MiB given to the printing process from OS
             0 MiB allocation reported by mallinfo(arena+hblkhd)
          8387 MiB available memory on the node where the printing process lives
     GPU memory used/free/total (MiB): 1849 / 10064 / 11914
------------------
     ethr =  7.98E-13,  avg # of iterations =  3.9

     total cpu time spent up to now is      640.9 secs

     total energy              =    -263.32587687 Ry
     estimated scf accuracy    <          1.7E-10 Ry
[tb_dev] Currently allocated     2.67E-05 Mbytes, locked:    0 /   1
[tb_pin] Currently allocated     0.00E+00 Mbytes, locked:    0 /   0

     iteration # 13     ecut=    60.00 Ry     beta= 0.50
     Davidson diagonalization with overlap

---- Real-time Memory Report at c_bands before calling an iterative solver
           880 MiB given to the printing process from OS
             0 MiB allocation reported by mallinfo(arena+hblkhd)
          8391 MiB available memory on the node where the printing process lives
     GPU memory used/free/total (MiB): 1849 / 10064 / 11914
------------------
     ethr =  3.94E-13,  avg # of iterations =  3.0

     total cpu time spent up to now is      644.8 secs

     total energy              =    -263.32587687 Ry
     estimated scf accuracy    <          1.1E-10 Ry
[tb_dev] Currently allocated     2.67E-05 Mbytes, locked:    0 /   1
[tb_pin] Currently allocated     0.00E+00 Mbytes, locked:    0 /   0

     iteration # 14     ecut=    60.00 Ry     beta= 0.50
     Davidson diagonalization with overlap

---- Real-time Memory Report at c_bands before calling an iterative solver
           880 MiB given to the printing process from OS
             0 MiB allocation reported by mallinfo(arena+hblkhd)
          8389 MiB available memory on the node where the printing process lives
     GPU memory used/free/total (MiB): 1849 / 10064 / 11914
------------------
     ethr =  2.71E-13,  avg # of iterations =  4.5

     total cpu time spent up to now is      649.3 secs

     total energy              =    -263.32587687 Ry
     estimated scf accuracy    <          1.1E-11 Ry
[tb_dev] Currently allocated     2.67E-05 Mbytes, locked:    0 /   1
[tb_pin] Currently allocated     0.00E+00 Mbytes, locked:    0 /   0

     iteration # 15     ecut=    60.00 Ry     beta= 0.50
     Davidson diagonalization with overlap

---- Real-time Memory Report at c_bands before calling an iterative solver
           880 MiB given to the printing process from OS
             0 MiB allocation reported by mallinfo(arena+hblkhd)
          8393 MiB available memory on the node where the printing process lives
     GPU memory used/free/total (MiB): 1849 / 10064 / 11914
------------------
     ethr =  1.00E-13,  avg # of iterations =  5.0

     total cpu time spent up to now is      654.1 secs

     total energy              =    -263.32587687 Ry
     estimated scf accuracy    <          7.1E-12 Ry
[tb_dev] Currently allocated     2.67E-05 Mbytes, locked:    0 /   1
[tb_pin] Currently allocated     0.00E+00 Mbytes, locked:    0 /   0

     iteration # 16     ecut=    60.00 Ry     beta= 0.50
     Davidson diagonalization with overlap

---- Real-time Memory Report at c_bands before calling an iterative solver
           880 MiB given to the printing process from OS
             0 MiB allocation reported by mallinfo(arena+hblkhd)
          8393 MiB available memory on the node where the printing process lives
     GPU memory used/free/total (MiB): 1849 / 10064 / 11914
------------------
     ethr =  1.00E-13,  avg # of iterations =  1.0

     total cpu time spent up to now is      656.7 secs

     total energy              =    -263.32587687 Ry
     estimated scf accuracy    <          4.3E-12 Ry
[tb_dev] Currently allocated     2.67E-05 Mbytes, locked:    0 /   1
[tb_pin] Currently allocated     0.00E+00 Mbytes, locked:    0 /   0

     iteration # 17     ecut=    60.00 Ry     beta= 0.50
     Davidson diagonalization with overlap

---- Real-time Memory Report at c_bands before calling an iterative solver
           881 MiB given to the printing process from OS
             0 MiB allocation reported by mallinfo(arena+hblkhd)
          8393 MiB available memory on the node where the printing process lives
     GPU memory used/free/total (MiB): 1849 / 10064 / 11914
------------------
     ethr =  1.00E-13,  avg # of iterations =  1.1

     total cpu time spent up to now is      659.4 secs

     End of self-consistent calculation

          k = 0.0000 0.0000 0.0000 (  7657 PWs)   bands (ev):

   -77.8115 -49.0094 -49.0094 -48.9867 -24.6819 -24.6048 -21.8884 -20.4882
   -14.1075 -11.4934  -9.5306  -9.2132  -9.2130  -9.1600  -9.1598  -8.8272
    -8.8270  -7.5816  -7.5263  -7.5256  -5.4002

     occupation numbers 
     1.0000   1.0000   1.0000   1.0000   1.0000   1.0000   1.0000   1.0000
     1.0000   1.0000   1.0000   1.0000   1.0000   1.0000   1.0000   1.0000
     1.0000   1.0000   1.0000   1.0000   1.0000

          k = 0.0000 0.1050 0.0000 (  7619 PWs)   bands (ev):

   -77.8084 -49.0335 -49.0149 -48.9823 -24.5359 -24.4610 -21.7743 -20.4257
   -13.9879 -11.4383  -9.9349  -9.8272  -9.3402  -9.3058  -9.2917  -9.0886
    -8.7381  -7.8434  -7.6754  -7.3542  -5.5067

     occupation numbers 
     1.0000   1.0000   1.0000   1.0000   1.0000   1.0000   1.0000   1.0000
     1.0000   1.0000   1.0000   1.0000   1.0000   1.0000   1.0000   1.0000
     1.0000   1.0000   1.0000   1.0000   1.0000

          k = 0.0000 0.2099 0.0000 (  7593 PWs)   bands (ev):

   -77.7999 -49.0975 -49.0294 -48.9705 -24.1099 -24.0413 -21.4597 -20.2559
   -13.6937 -11.4632 -11.2332 -11.1288  -9.7212  -9.6752  -9.6648  -9.0725
    -8.4716  -8.2512  -8.0322  -7.4620  -5.8755

     occupation numbers 
     1.0000   1.0000   1.0000   1.0000   1.0000   1.0000   1.0000   1.0000
     1.0000   1.0000   1.0000   1.0000   1.0000   1.0000   1.0000   1.0000
     1.0000   1.0000   1.0000   1.0000   1.0000

          k = 0.0000 0.3149 0.0000 (  7563 PWs)   bands (ev):

   -77.7888 -49.1806 -49.0483 -48.9550 -23.4471 -23.3881 -21.0326 -20.0379
   -13.6589 -12.9941 -12.4511 -11.1043 -10.4229 -10.0867 -10.0686  -8.9049
    -8.7134  -8.4461  -8.0812  -7.6612  -6.2733

     occupation numbers 
     1.0000   1.0000   1.0000   1.0000   1.0000   1.0000   1.0000   1.0000
     1.0000   1.0000   1.0000   1.0000   1.0000   1.0000   1.0000   1.0000
     1.0000   1.0000   1.0000   1.0000   1.0000

          k = 0.0000 0.4199 0.0000 (  7528 PWs)   bands (ev):

   -77.7786 -49.2562 -49.0657 -48.9408 -22.6526 -22.6060 -20.6529 -19.8805
   -14.7083 -14.4464 -12.4767 -11.2744 -10.8762 -10.4291 -10.3982  -9.3382
    -8.7705  -8.4750  -7.7475  -7.7061  -6.4043

     occupation numbers 
     1.0000   1.0000   1.0000   1.0000   1.0000   1.0000   1.0000   1.0000
     1.0000   1.0000   1.0000   1.0000   1.0000   1.0000   1.0000   1.0000
     1.0000   1.0000   1.0000   1.0000   1.0000

          k = 0.0000 0.5249 0.0000 (  7518 PWs)   bands (ev):

   -77.7725 -49.3008 -49.0760 -48.9323 -21.9954 -21.9617 -20.4987 -19.8764
   -15.5629 -15.3303 -12.3017 -11.6663 -11.0310 -10.6182 -10.5807  -9.5089
    -8.9500  -8.2125  -7.7622  -7.4677  -6.3622

     occupation numbers 
     1.0000   1.0000   1.0000   1.0000   1.0000   1.0000   1.0000   1.0000
     1.0000   1.0000   1.0000   1.0000   1.0000   1.0000   1.0000   1.0000
     1.0000   1.0000   1.0000   1.0000   1.0000

          k = 0.0909 0.1575 0.0000 (  7591 PWs)   bands (ev):

   -77.8026 -49.0760 -49.0263 -48.9742 -24.2497 -24.1791 -21.5597 -20.3092
   -13.7782 -11.3635 -10.7892 -10.7666  -9.7948  -9.6555  -9.3775  -9.1336
    -8.5864  -8.0903  -8.0044  -7.3383  -5.7540

     occupation numbers 
     1.0000   1.0000   1.0000   1.0000   1.0000   1.0000   1.0000   1.0000
     1.0000   1.0000   1.0000   1.0000   1.0000   1.0000   1.0000   1.0000
     1.0000   1.0000   1.0000   1.0000   1.0000

          k = 0.0909 0.2624 0.0000 (  7569 PWs)   bands (ev):

   -77.7928 -49.1460 -49.0466 -48.9606 -23.7036 -23.6409 -21.1868 -20.1127
   -13.5382 -12.2732 -12.0009 -11.1176 -10.4466 -10.2103  -9.8768  -8.9035
    -8.7592  -8.3084  -8.1395  -7.5249  -6.1530

     occupation numbers 
     1.0000   1.0000   1.0000   1.0000   1.0000   1.0000   1.0000   1.0000
     1.0000   1.0000   1.0000   1.0000   1.0000   1.0000   1.0000   1.0000
     1.0000   1.0000   1.0000   1.0000   1.0000

          k = 0.0909 0.3674 0.0000 (  7562 PWs)   bands (ev):

   -77.7821 -49.2212 -49.0689 -48.9457 -22.9662 -22.9143 -20.7768 -19.9179
   -14.0987 -13.7442 -12.4931 -11.1688 -10.8887 -10.6868 -10.4131  -9.4060
    -8.6518  -8.3420  -8.0237  -7.7016  -6.3930

     occupation numbers 
     1.0000   1.0000   1.0000   1.0000   1.0000   1.0000   1.0000   1.0000
     1.0000   1.0000   1.0000   1.0000   1.0000   1.0000   1.0000   1.0000
     1.0000   1.0000   1.0000   1.0000   1.0000

          k = 0.0909 0.4724 0.0000 (  7517 PWs)   bands (ev):

   -77.7740 -49.2781 -49.0859 -48.9344 -22.2044 -22.1656 -20.5110 -19.8403
   -15.1370 -14.8989 -12.3255 -11.5692 -11.1159 -10.8674 -10.8343  -9.6445
    -8.8080  -8.2643  -7.9141  -7.6354  -6.3503

     occupation numbers 
     1.0000   1.0000   1.0000   1.0000   1.0000   1.0000   1.0000   1.0000
     1.0000   1.0000   1.0000   1.0000   1.0000   1.0000   1.0000   1.0000
     1.0000   1.0000   1.0000   1.0000   1.0000

          k = 0.0909 0.5774 0.0000 (  7510 PWs)   bands (ev):

   -77.7710 -49.2992 -49.0922 -48.9301 -21.8231 -21.7915 -20.4652 -19.8676
   -15.5787 -15.3459 -12.2143 -11.7720 -11.1876 -11.0784 -10.9104  -9.6062
    -9.0004  -8.1245  -7.8656  -7.5980  -6.2760

     occupation numbers 
     1.0000   1.0000   1.0000   1.0000   1.0000   1.0000   1.0000   1.0000
     1.0000   1.0000   1.0000   1.0000   1.0000   1.0000   1.0000   1.0000
     1.0000   1.0000   1.0000   1.0000   1.0000

          k = 0.1818 0.3149 0.0000 (  7565 PWs)   bands (ev):

   -77.7835 -49.2014 -49.0769 -48.9476 -23.0775 -23.0238 -20.8257 -19.9334
   -13.7778 -13.2859 -12.3771 -11.3710 -11.2217 -10.8524 -10.2686  -9.5313
    -8.6648  -8.3195  -7.9780  -7.7409  -6.3889

     occupation numbers 
     1.0000   1.0000   1.0000   1.0000   1.0000   1.0000   1.0000   1.0000
     1.0000   1.0000   1.0000   1.0000   1.0000   1.0000   1.0000   1.0000
     1.0000   1.0000   1.0000   1.0000   1.0000

          k = 0.1818 0.4199 0.0000 (  7510 PWs)   bands (ev):

   -77.7749 -49.2481 -49.1086 -48.9356 -22.3409 -22.2986 -20.5198 -19.8095
   -14.5551 -14.2785 -12.3305 -12.0498 -11.8805 -10.8204 -10.6590  -9.9759
    -8.6223  -8.5027  -8.0884  -7.6884  -6.3557

     occupation numbers 
     1.0000   1.0000   1.0000   1.0000   1.0000   1.0000   1.0000   1.0000
     1.0000   1.0000   1.0000   1.0000   1.0000   1.0000   1.0000   1.0000
     1.0000   1.0000   1.0000   1.0000   1.0000

          k = 0.1818 0.5249 0.0000 (  7532 PWs)   bands (ev):

   -77.7698 -49.2745 -49.1286 -48.9285 -21.7502 -21.7179 -20.4061 -19.8076
   -15.1828 -14.9444 -12.5664 -12.3884 -11.7187 -11.1663 -10.9788  -9.7927
    -9.0032  -8.6326  -8.0435  -7.5194  -6.1740

     occupation numbers 
     1.0000   1.0000   1.0000   1.0000   1.0000   1.0000   1.0000   1.0000
     1.0000   1.0000   1.0000   1.0000   1.0000   1.0000   1.0000   1.0000
     1.0000   1.0000   1.0000   1.0000   1.0000

          k = 0.2727 0.4724 0.0000 (  7553 PWs)   bands (ev):

   -77.7693 -49.2532 -49.1543 -48.9278 -21.7382 -21.7051 -20.3752 -19.7717
   -14.7909 -14.5231 -13.1604 -13.0247 -11.7810 -11.0219 -10.7514  -9.9704
    -9.3034  -8.7478  -8.0629  -7.4990  -6.1347

     occupation numbers 
     1.0000   1.0000   1.0000   1.0000   1.0000   1.0000   1.0000   1.0000
     1.0000   1.0000   1.0000   1.0000   1.0000   1.0000   1.0000   1.0000
     1.0000   1.0000   1.0000   1.0000   1.0000

          k = 0.2727 0.5774 0.0000 (  7528 PWs)   bands (ev):

   -77.7672 -49.2475 -49.1790 -48.9250 -21.4630 -21.4295 -20.3552 -19.7832
   -14.8234 -14.5502 -13.6000 -13.5030 -11.4726 -11.1976 -10.8381  -9.8731
    -9.5354  -9.0681  -7.9906  -7.3986  -5.9822

     occupation numbers 
     1.0000   1.0000   1.0000   1.0000   1.0000   1.0000   1.0000   1.0000
     1.0000   1.0000   1.0000   1.0000   1.0000   1.0000   1.0000   1.0000
     1.0000   1.0000   1.0000   1.0000   1.0000

          k =-0.0909 0.0525 0.0000 (  7619 PWs)   bands (ev):

   -77.8084 -49.0335 -49.0149 -48.9823 -24.5359 -24.4610 -21.7743 -20.4257
   -13.9879 -11.4383  -9.9350  -9.8274  -9.3400  -9.3057  -9.2918  -9.0888
    -8.7379  -7.8429  -7.6759  -7.3543  -5.5067

     occupation numbers 
     1.0000   1.0000   1.0000   1.0000   1.0000   1.0000   1.0000   1.0000
     1.0000   1.0000   1.0000   1.0000   1.0000   1.0000   1.0000   1.0000
     1.0000   1.0000   1.0000   1.0000   1.0000

          k = 0.0909 0.0525 0.0000 (  7619 PWs)   bands (ev):

   -77.8084 -49.0335 -49.0149 -48.9823 -24.5359 -24.4610 -21.7743 -20.4257
   -13.9879 -11.4383  -9.9349  -9.8272  -9.3402  -9.3058  -9.2917  -9.0886
    -8.7381  -7.8434  -7.6754  -7.3542  -5.5067

     occupation numbers 
     1.0000   1.0000   1.0000   1.0000   1.0000   1.0000   1.0000   1.0000
     1.0000   1.0000   1.0000   1.0000   1.0000   1.0000   1.0000   1.0000
     1.0000   1.0000   1.0000   1.0000   1.0000

          k =-0.1818 0.1050 0.0000 (  7593 PWs)   bands (ev):

   -77.7999 -49.0975 -49.0294 -48.9705 -24.1099 -24.0413 -21.4597 -20.2558
   -13.6937 -11.4632 -11.2334 -11.1287  -9.7214  -9.6749  -9.6649  -9.0725
    -8.4714  -8.2508  -8.0326  -7.4623  -5.8754

     occupation numbers 
     1.0000   1.0000   1.0000   1.0000   1.0000   1.0000   1.0000   1.0000
     1.0000   1.0000   1.0000   1.0000   1.0000   1.0000   1.0000   1.0000
     1.0000   1.0000   1.0000   1.0000   1.0000

          k = 0.1818 0.1050 0.0000 (  7593 PWs)   bands (ev):

   -77.7999 -49.0975 -49.0294 -48.9705 -24.1099 -24.0413 -21.4597 -20.2559
   -13.6937 -11.4632 -11.2332 -11.1288  -9.7212  -9.6752  -9.6648  -9.0725
    -8.4716  -8.2512  -8.0322  -7.4620  -5.8755

     occupation numbers 
     1.0000   1.0000   1.0000   1.0000   1.0000   1.0000   1.0000   1.0000
     1.0000   1.0000   1.0000   1.0000   1.0000   1.0000   1.0000   1.0000
     1.0000   1.0000   1.0000   1.0000   1.0000

          k =-0.2727 0.1575 0.0000 (  7563 PWs)   bands (ev):

   -77.7888 -49.1806 -49.0483 -48.9550 -23.4471 -23.3881 -21.0327 -20.0378
   -13.6589 -12.9941 -12.4512 -11.1041 -10.4231 -10.0865 -10.0686  -8.9050
    -8.7133  -8.4464  -8.0811  -7.6614  -6.2731

     occupation numbers 
     1.0000   1.0000   1.0000   1.0000   1.0000   1.0000   1.0000   1.0000
     1.0000   1.0000   1.0000   1.0000   1.0000   1.0000   1.0000   1.0000
     1.0000   1.0000   1.0000   1.0000   1.0000

          k = 0.2727 0.1575 0.0000 (  7563 PWs)   bands (ev):

   -77.7888 -49.1806 -49.0483 -48.9550 -23.4471 -23.3881 -21.0326 -20.0379
   -13.6589 -12.9941 -12.4511 -11.1043 -10.4229 -10.0867 -10.0686  -8.9050
    -8.7134  -8.4461  -8.0812  -7.6612  -6.2733

     occupation numbers 
     1.0000   1.0000   1.0000   1.0000   1.0000   1.0000   1.0000   1.0000
     1.0000   1.0000   1.0000   1.0000   1.0000   1.0000   1.0000   1.0000
     1.0000   1.0000   1.0000   1.0000   1.0000

          k =-0.3636 0.2099 0.0000 (  7528 PWs)   bands (ev):

   -77.7786 -49.2562 -49.0657 -48.9408 -22.6526 -22.6060 -20.6529 -19.8804
   -14.7084 -14.4464 -12.4769 -11.2742 -10.8762 -10.4289 -10.3981  -9.3383
    -8.7708  -8.4749  -7.7476  -7.7060  -6.4041

     occupation numbers 
     1.0000   1.0000   1.0000   1.0000   1.0000   1.0000   1.0000   1.0000
     1.0000   1.0000   1.0000   1.0000   1.0000   1.0000   1.0000   1.0000
     1.0000   1.0000   1.0000   1.0000   1.0000

          k = 0.3636 0.2099 0.0000 (  7528 PWs)   bands (ev):

   -77.7786 -49.2562 -49.0657 -48.9408 -22.6526 -22.6060 -20.6529 -19.8805
   -14.7083 -14.4464 -12.4767 -11.2743 -10.8762 -10.4291 -10.3982  -9.3382
    -8.7705  -8.4750  -7.7475  -7.7061  -6.4043

     occupation numbers 
     1.0000   1.0000   1.0000   1.0000   1.0000   1.0000   1.0000   1.0000
     1.0000   1.0000   1.0000   1.0000   1.0000   1.0000   1.0000   1.0000
     1.0000   1.0000   1.0000   1.0000   1.0000

          k =-0.4545 0.2624 0.0000 (  7518 PWs)   bands (ev):

   -77.7725 -49.3008 -49.0760 -48.9323 -21.9955 -21.9617 -20.4987 -19.8763
   -15.5630 -15.3303 -12.3020 -11.6661 -11.0309 -10.6180 -10.5806  -9.5090
    -8.9502  -8.2122  -7.7624  -7.4677  -6.3620

     occupation numbers 
     1.0000   1.0000   1.0000   1.0000   1.0000   1.0000   1.0000   1.0000
     1.0000   1.0000   1.0000   1.0000   1.0000   1.0000   1.0000   1.0000
     1.0000   1.0000   1.0000   1.0000   1.0000

          k = 0.4545 0.2624 0.0000 (  7518 PWs)   bands (ev):

   -77.7725 -49.3008 -49.0760 -48.9323 -21.9954 -21.9617 -20.4987 -19.8764
   -15.5629 -15.3303 -12.3017 -11.6663 -11.0310 -10.6182 -10.5807  -9.5089
    -8.9500  -8.2125  -7.7622  -7.4677  -6.3622

     occupation numbers 
     1.0000   1.0000   1.0000   1.0000   1.0000   1.0000   1.0000   1.0000
     1.0000   1.0000   1.0000   1.0000   1.0000   1.0000   1.0000   1.0000
     1.0000   1.0000   1.0000   1.0000   1.0000

          k =-0.0909 0.1575 0.0000 (  7591 PWs)   bands (ev):

   -77.8026 -49.0760 -49.0263 -48.9742 -24.2497 -24.1791 -21.5598 -20.3092
   -13.7782 -11.3634 -10.7895 -10.7665  -9.7948  -9.6554  -9.3776  -9.1336
    -8.5862  -8.0905  -8.0040  -7.3386  -5.7539

     occupation numbers 
     1.0000   1.0000   1.0000   1.0000   1.0000   1.0000   1.0000   1.0000
     1.0000   1.0000   1.0000   1.0000   1.0000   1.0000   1.0000   1.0000
     1.0000   1.0000   1.0000   1.0000   1.0000

          k = 0.1818-0.0000 0.0000 (  7591 PWs)   bands (ev):

   -77.8026 -49.0760 -49.0263 -48.9742 -24.2497 -24.1791 -21.5598 -20.3092
   -13.7782 -11.3634 -10.7895 -10.7665  -9.7948  -9.6554  -9.3776  -9.1336
    -8.5862  -8.0905  -8.0040  -7.3386  -5.7539

     occupation numbers 
     1.0000   1.0000   1.0000   1.0000   1.0000   1.0000   1.0000   1.0000
     1.0000   1.0000   1.0000   1.0000   1.0000   1.0000   1.0000   1.0000
     1.0000   1.0000   1.0000   1.0000   1.0000

          k =-0.0909 0.2624 0.0000 (  7569 PWs)   bands (ev):

   -77.7928 -49.1460 -49.0466 -48.9606 -23.7036 -23.6409 -21.1868 -20.1127
   -13.5382 -12.2732 -12.0010 -11.1175 -10.4467 -10.2102  -9.8768  -8.9036
    -8.7593  -8.3083  -8.1391  -7.5253  -6.1529

     occupation numbers 
     1.0000   1.0000   1.0000   1.0000   1.0000   1.0000   1.0000   1.0000
     1.0000   1.0000   1.0000   1.0000   1.0000   1.0000   1.0000   1.0000
     1.0000   1.0000   1.0000   1.0000   1.0000

          k =-0.1818 0.2099 0.0000 (  7569 PWs)   bands (ev):

   -77.7928 -49.1460 -49.0466 -48.9606 -23.7036 -23.6409 -21.1869 -20.1127
   -13.5382 -12.2732 -12.0010 -11.1174 -10.4467 -10.2101  -9.8769  -8.9036
    -8.7592  -8.3082  -8.1392  -7.5253  -6.1528

     occupation numbers 
     1.0000   1.0000   1.0000   1.0000   1.0000   1.0000   1.0000   1.0000
     1.0000   1.0000   1.0000   1.0000   1.0000   1.0000   1.0000   1.0000
     1.0000   1.0000   1.0000   1.0000   1.0000

          k = 0.2727 0.0525 0.0000 (  7569 PWs)   bands (ev):

   -77.7928 -49.1460 -49.0466 -48.9606 -23.7036 -23.6409 -21.1868 -20.1127
   -13.5382 -12.2732 -12.0010 -11.1175 -10.4467 -10.2102  -9.8768  -8.9036
    -8.7593  -8.3083  -8.1391  -7.5253  -6.1529

     occupation numbers 
     1.0000   1.0000   1.0000   1.0000   1.0000   1.0000   1.0000   1.0000
     1.0000   1.0000   1.0000   1.0000   1.0000   1.0000   1.0000   1.0000
     1.0000   1.0000   1.0000   1.0000   1.0000

          k =-0.1818-0.2099 0.0000 (  7569 PWs)   bands (ev):

   -77.7928 -49.1460 -49.0466 -48.9606 -23.7036 -23.6409 -21.1868 -20.1127
   -13.5382 -12.2732 -12.0009 -11.1176 -10.4466 -10.2103  -9.8768  -8.9035
    -8.7592  -8.3084  -8.1395  -7.5249  -6.1530

     occupation numbers 
     1.0000   1.0000   1.0000   1.0000   1.0000   1.0000   1.0000   1.0000
     1.0000   1.0000   1.0000   1.0000   1.0000   1.0000   1.0000   1.0000
     1.0000   1.0000   1.0000   1.0000   1.0000

          k = 0.2727-0.0525 0.0000 (  7569 PWs)   bands (ev):

   -77.7928 -49.1460 -49.0466 -48.9606 -23.7036 -23.6409 -21.1869 -20.1127
   -13.5382 -12.2732 -12.0010 -11.1174 -10.4467 -10.2101  -9.8769  -8.9036
    -8.7592  -8.3082  -8.1392  -7.5253  -6.1528

     occupation numbers 
     1.0000   1.0000   1.0000   1.0000   1.0000   1.0000   1.0000   1.0000
     1.0000   1.0000   1.0000   1.0000   1.0000   1.0000   1.0000   1.0000
     1.0000   1.0000   1.0000   1.0000   1.0000

          k =-0.0909 0.3674 0.0000 (  7562 PWs)   bands (ev):

   -77.7821 -49.2212 -49.0689 -48.9457 -22.9662 -22.9143 -20.7768 -19.9179
   -14.0987 -13.7442 -12.4931 -11.1688 -10.8887 -10.6867 -10.4131  -9.4059
    -8.6519  -8.3421  -8.0237  -7.7016  -6.3928

     occupation numbers 
     1.0000   1.0000   1.0000   1.0000   1.0000   1.0000   1.0000   1.0000
     1.0000   1.0000   1.0000   1.0000   1.0000   1.0000   1.0000   1.0000
     1.0000   1.0000   1.0000   1.0000   1.0000

          k =-0.2727 0.2624 0.0000 (  7562 PWs)   bands (ev):

   -77.7821 -49.2212 -49.0689 -48.9457 -22.9662 -22.9143 -20.7768 -19.9178
   -14.0988 -13.7443 -12.4932 -11.1687 -10.8887 -10.6866 -10.4131  -9.4061
    -8.6518  -8.3421  -8.0237  -7.7017  -6.3927

     occupation numbers 
     1.0000   1.0000   1.0000   1.0000   1.0000   1.0000   1.0000   1.0000
     1.0000   1.0000   1.0000   1.0000   1.0000   1.0000   1.0000   1.0000
     1.0000   1.0000   1.0000   1.0000   1.0000

          k = 0.3636 0.1050 0.0000 (  7562 PWs)   bands (ev):

   -77.7821 -49.2212 -49.0689 -48.9457 -22.9662 -22.9143 -20.7768 -19.9179
   -14.0987 -13.7442 -12.4931 -11.1688 -10.8887 -10.6867 -10.4130  -9.4059
    -8.6519  -8.3421  -8.0237  -7.7016  -6.3928

     occupation numbers 
     1.0000   1.0000   1.0000   1.0000   1.0000   1.0000   1.0000   1.0000
     1.0000   1.0000   1.0000   1.0000   1.0000   1.0000   1.0000   1.0000
     1.0000   1.0000   1.0000   1.0000   1.0000

          k =-0.2727-0.2624 0.0000 (  7562 PWs)   bands (ev):

   -77.7821 -49.2212 -49.0689 -48.9457 -22.9662 -22.9143 -20.7768 -19.9179
   -14.0987 -13.7442 -12.4931 -11.1688 -10.8887 -10.6868 -10.4131  -9.4060
    -8.6518  -8.3420  -8.0237  -7.7016  -6.3930

     occupation numbers 
     1.0000   1.0000   1.0000   1.0000   1.0000   1.0000   1.0000   1.0000
     1.0000   1.0000   1.0000   1.0000   1.0000   1.0000   1.0000   1.0000
     1.0000   1.0000   1.0000   1.0000   1.0000

          k = 0.3636-0.1050 0.0000 (  7562 PWs)   bands (ev):

   -77.7821 -49.2212 -49.0689 -48.9457 -22.9662 -22.9143 -20.7768 -19.9178
   -14.0988 -13.7443 -12.4932 -11.1687 -10.8887 -10.6866 -10.4131  -9.4061
    -8.6518  -8.3421  -8.0237  -7.7017  -6.3927

     occupation numbers 
     1.0000   1.0000   1.0000   1.0000   1.0000   1.0000   1.0000   1.0000
     1.0000   1.0000   1.0000   1.0000   1.0000   1.0000   1.0000   1.0000
     1.0000   1.0000   1.0000   1.0000   1.0000

          k =-0.0909 0.4724 0.0000 (  7517 PWs)   bands (ev):

   -77.7740 -49.2781 -49.0859 -48.9344 -22.2044 -22.1656 -20.5110 -19.8403
   -15.1370 -14.8989 -12.3255 -11.5693 -11.1159 -10.8675 -10.8342  -9.6441
    -8.8084  -8.2644  -7.9142  -7.6352  -6.3502

     occupation numbers 
     1.0000   1.0000   1.0000   1.0000   1.0000   1.0000   1.0000   1.0000
     1.0000   1.0000   1.0000   1.0000   1.0000   1.0000   1.0000   1.0000
     1.0000   1.0000   1.0000   1.0000   1.0000

          k =-0.3636 0.3149 0.0000 (  7517 PWs)   bands (ev):

   -77.7740 -49.2781 -49.0859 -48.9344 -22.2044 -22.1657 -20.5110 -19.8402
   -15.1371 -14.8990 -12.3257 -11.5691 -11.1159 -10.8675 -10.8340  -9.6445
    -8.8083  -8.2641  -7.9142  -7.6354  -6.3501

     occupation numbers 
     1.0000   1.0000   1.0000   1.0000   1.0000   1.0000   1.0000   1.0000
     1.0000   1.0000   1.0000   1.0000   1.0000   1.0000   1.0000   1.0000
     1.0000   1.0000   1.0000   1.0000   1.0000

          k = 0.4545 0.1575 0.0000 (  7517 PWs)   bands (ev):

   -77.7740 -49.2781 -49.0859 -48.9344 -22.2044 -22.1656 -20.5110 -19.8403
   -15.1370 -14.8989 -12.3255 -11.5693 -11.1159 -10.8675 -10.8342  -9.6441
    -8.8084  -8.2644  -7.9142  -7.6352  -6.3502

     occupation numbers 
     1.0000   1.0000   1.0000   1.0000   1.0000   1.0000   1.0000   1.0000
     1.0000   1.0000   1.0000   1.0000   1.0000   1.0000   1.0000   1.0000
     1.0000   1.0000   1.0000   1.0000   1.0000

          k =-0.3636-0.3149 0.0000 (  7517 PWs)   bands (ev):

   -77.7740 -49.2781 -49.0859 -48.9344 -22.2044 -22.1656 -20.5110 -19.8403
   -15.1370 -14.8989 -12.3255 -11.5692 -11.1159 -10.8674 -10.8343  -9.6445
    -8.8080  -8.2643  -7.9141  -7.6354  -6.3503

     occupation numbers 
     1.0000   1.0000   1.0000   1.0000   1.0000   1.0000   1.0000   1.0000
     1.0000   1.0000   1.0000   1.0000   1.0000   1.0000   1.0000   1.0000
     1.0000   1.0000   1.0000   1.0000   1.0000

          k = 0.4545-0.1575 0.0000 (  7517 PWs)   bands (ev):

   -77.7740 -49.2781 -49.0859 -48.9344 -22.2044 -22.1657 -20.5110 -19.8402
   -15.1371 -14.8990 -12.3257 -11.5691 -11.1159 -10.8675 -10.8340  -9.6445
    -8.8083  -8.2641  -7.9142  -7.6354  -6.3501

     occupation numbers 
     1.0000   1.0000   1.0000   1.0000   1.0000   1.0000   1.0000   1.0000
     1.0000   1.0000   1.0000   1.0000   1.0000   1.0000   1.0000   1.0000
     1.0000   1.0000   1.0000   1.0000   1.0000

          k =-0.4545 0.3674 0.0000 (  7510 PWs)   bands (ev):

   -77.7710 -49.2992 -49.0922 -48.9301 -21.8231 -21.7915 -20.4652 -19.8674
   -15.5788 -15.3460 -12.2146 -11.7717 -11.1875 -11.0786 -10.9102  -9.6063
    -9.0005  -8.1242  -7.8656  -7.5981  -6.2759

     occupation numbers 
     1.0000   1.0000   1.0000   1.0000   1.0000   1.0000   1.0000   1.0000
     1.0000   1.0000   1.0000   1.0000   1.0000   1.0000   1.0000   1.0000
     1.0000   1.0000   1.0000   1.0000   1.0000

          k = 0.5455 0.2099 0.0000 (  7510 PWs)   bands (ev):

   -77.7710 -49.2992 -49.0922 -48.9301 -21.8231 -21.7915 -20.4652 -19.8676
   -15.5787 -15.3459 -12.2143 -11.7720 -11.1876 -11.0784 -10.9104  -9.6062
    -9.0004  -8.1244  -7.8656  -7.5980  -6.2760

     occupation numbers 
     1.0000   1.0000   1.0000   1.0000   1.0000   1.0000   1.0000   1.0000
     1.0000   1.0000   1.0000   1.0000   1.0000   1.0000   1.0000   1.0000
     1.0000   1.0000   1.0000   1.0000   1.0000

          k =-0.1818 0.3149 0.0000 (  7565 PWs)   bands (ev):

   -77.7835 -49.2014 -49.0769 -48.9476 -23.0775 -23.0238 -20.8257 -19.9333
   -13.7778 -13.2859 -12.3772 -11.3710 -11.2216 -10.8523 -10.2687  -9.5314
    -8.6647  -8.3194  -7.9778  -7.7413  -6.3887

     occupation numbers 
     1.0000   1.0000   1.0000   1.0000   1.0000   1.0000   1.0000   1.0000
     1.0000   1.0000   1.0000   1.0000   1.0000   1.0000   1.0000   1.0000
     1.0000   1.0000   1.0000   1.0000   1.0000

          k = 0.3636-0.0000 0.0000 (  7565 PWs)   bands (ev):

   -77.7835 -49.2014 -49.0769 -48.9476 -23.0775 -23.0238 -20.8257 -19.9333
   -13.7778 -13.2859 -12.3772 -11.3710 -11.2216 -10.8523 -10.2687  -9.5314
    -8.6647  -8.3194  -7.9778  -7.7413  -6.3887

     occupation numbers 
     1.0000   1.0000   1.0000   1.0000   1.0000   1.0000   1.0000   1.0000
     1.0000   1.0000   1.0000   1.0000   1.0000   1.0000   1.0000   1.0000
     1.0000   1.0000   1.0000   1.0000   1.0000

          k =-0.1818 0.4199 0.0000 (  7510 PWs)   bands (ev):

   -77.7749 -49.2481 -49.1086 -48.9356 -22.3409 -22.2986 -20.5198 -19.8094
   -14.5552 -14.2786 -12.3306 -12.0498 -11.8805 -10.8206 -10.6591  -9.9756
    -8.6225  -8.5027  -8.0887  -7.6882  -6.3555

     occupation numbers 
     1.0000   1.0000   1.0000   1.0000   1.0000   1.0000   1.0000   1.0000
     1.0000   1.0000   1.0000   1.0000   1.0000   1.0000   1.0000   1.0000
     1.0000   1.0000   1.0000   1.0000   1.0000

          k =-0.2727 0.3674 0.0000 (  7510 PWs)   bands (ev):

   -77.7749 -49.2481 -49.1086 -48.9356 -22.3409 -22.2986 -20.5198 -19.8094
   -14.5552 -14.2786 -12.3306 -12.0497 -11.8805 -10.8204 -10.6591  -9.9758
    -8.6224  -8.5027  -8.0886  -7.6883  -6.3555

     occupation numbers 
     1.0000   1.0000   1.0000   1.0000   1.0000   1.0000   1.0000   1.0000
     1.0000   1.0000   1.0000   1.0000   1.0000   1.0000   1.0000   1.0000
     1.0000   1.0000   1.0000   1.0000   1.0000

          k = 0.4545 0.0525 0.0000 (  7510 PWs)   bands (ev):

   -77.7749 -49.2481 -49.1086 -48.9356 -22.3409 -22.2986 -20.5198 -19.8094
   -14.5552 -14.2786 -12.3306 -12.0498 -11.8805 -10.8206 -10.6591  -9.9756
    -8.6225  -8.5027  -8.0886  -7.6882  -6.3555

     occupation numbers 
     1.0000   1.0000   1.0000   1.0000   1.0000   1.0000   1.0000   1.0000
     1.0000   1.0000   1.0000   1.0000   1.0000   1.0000   1.0000   1.0000
     1.0000   1.0000   1.0000   1.0000   1.0000

          k =-0.2727-0.3674 0.0000 (  7510 PWs)   bands (ev):

   -77.7749 -49.2481 -49.1086 -48.9356 -22.3409 -22.2986 -20.5198 -19.8095
   -14.5551 -14.2785 -12.3305 -12.0498 -11.8805 -10.8204 -10.6590  -9.9759
    -8.6223  -8.5027  -8.0884  -7.6884  -6.3557

     occupation numbers 
     1.0000   1.0000   1.0000   1.0000   1.0000   1.0000   1.0000   1.0000
     1.0000   1.0000   1.0000   1.0000   1.0000   1.0000   1.0000   1.0000
     1.0000   1.0000   1.0000   1.0000   1.0000

          k = 0.4545-0.0525 0.0000 (  7510 PWs)   bands (ev):

   -77.7749 -49.2481 -49.1086 -48.9356 -22.3409 -22.2986 -20.5198 -19.8094
   -14.5552 -14.2786 -12.3306 -12.0497 -11.8805 -10.8204 -10.6591  -9.9758
    -8.6224  -8.5027  -8.0886  -7.6883  -6.3555

     occupation numbers 
     1.0000   1.0000   1.0000   1.0000   1.0000   1.0000   1.0000   1.0000
     1.0000   1.0000   1.0000   1.0000   1.0000   1.0000   1.0000   1.0000
     1.0000   1.0000   1.0000   1.0000   1.0000

          k =-0.1818 0.5249 0.0000 (  7532 PWs)   bands (ev):

   -77.7698 -49.2745 -49.1286 -48.9285 -21.7502 -21.7179 -20.4061 -19.8076
   -15.1828 -14.9444 -12.5664 -12.3884 -11.7187 -11.1663 -10.9789  -9.7923
    -9.0035  -8.6326  -8.0435  -7.5193  -6.1739

     occupation numbers 
     1.0000   1.0000   1.0000   1.0000   1.0000   1.0000   1.0000   1.0000
     1.0000   1.0000   1.0000   1.0000   1.0000   1.0000   1.0000   1.0000
     1.0000   1.0000   1.0000   1.0000   1.0000

          k =-0.3636 0.4199 0.0000 (  7532 PWs)   bands (ev):

   -77.7698 -49.2745 -49.1286 -48.9285 -21.7503 -21.7179 -20.4061 -19.8075
   -15.1829 -14.9445 -12.5665 -12.3883 -11.7188 -11.1663 -10.9788  -9.7926
    -9.0032  -8.6326  -8.0435  -7.5195  -6.1739

     occupation numbers 
     1.0000   1.0000   1.0000   1.0000   1.0000   1.0000   1.0000   1.0000
     1.0000   1.0000   1.0000   1.0000   1.0000   1.0000   1.0000   1.0000
     1.0000   1.0000   1.0000   1.0000   1.0000

          k = 0.5455 0.1050 0.0000 (  7532 PWs)   bands (ev):

   -77.7698 -49.2745 -49.1286 -48.9285 -21.7502 -21.7179 -20.4061 -19.8076
   -15.1828 -14.9444 -12.5664 -12.3884 -11.7187 -11.1663 -10.9789  -9.7923
    -9.0035  -8.6326  -8.0435  -7.5193  -6.1739

     occupation numbers 
     1.0000   1.0000   1.0000   1.0000   1.0000   1.0000   1.0000   1.0000
     1.0000   1.0000   1.0000   1.0000   1.0000   1.0000   1.0000   1.0000
     1.0000   1.0000   1.0000   1.0000   1.0000

          k =-0.3636-0.4199 0.0000 (  7532 PWs)   bands (ev):

   -77.7698 -49.2745 -49.1286 -48.9285 -21.7502 -21.7179 -20.4061 -19.8076
   -15.1828 -14.9444 -12.5664 -12.3884 -11.7187 -11.1663 -10.9788  -9.7927
    -9.0032  -8.6326  -8.0435  -7.5194  -6.1740

     occupation numbers 
     1.0000   1.0000   1.0000   1.0000   1.0000   1.0000   1.0000   1.0000
     1.0000   1.0000   1.0000   1.0000   1.0000   1.0000   1.0000   1.0000
     1.0000   1.0000   1.0000   1.0000   1.0000

          k = 0.5455-0.1050 0.0000 (  7532 PWs)   bands (ev):

   -77.7698 -49.2745 -49.1286 -48.9285 -21.7503 -21.7179 -20.4061 -19.8075
   -15.1829 -14.9445 -12.5665 -12.3883 -11.7188 -11.1663 -10.9788  -9.7926
    -9.0032  -8.6326  -8.0435  -7.5195  -6.1739

     occupation numbers 
     1.0000   1.0000   1.0000   1.0000   1.0000   1.0000   1.0000   1.0000
     1.0000   1.0000   1.0000   1.0000   1.0000   1.0000   1.0000   1.0000
     1.0000   1.0000   1.0000   1.0000   1.0000

          k =-0.2727 0.4724 0.0000 (  7553 PWs)   bands (ev):

   -77.7693 -49.2532 -49.1543 -48.9278 -21.7382 -21.7051 -20.3752 -19.7717
   -14.7910 -14.5232 -13.1604 -13.0246 -11.7810 -11.0221 -10.7514  -9.9701
    -9.3035  -8.7479  -8.0631  -7.4989  -6.1346

     occupation numbers 
     1.0000   1.0000   1.0000   1.0000   1.0000   1.0000   1.0000   1.0000
     1.0000   1.0000   1.0000   1.0000   1.0000   1.0000   1.0000   1.0000
     1.0000   1.0000   1.0000   1.0000   1.0000

          k = 0.5455-0.0000 0.0000 (  7553 PWs)   bands (ev):

   -77.7693 -49.2532 -49.1543 -48.9278 -21.7382 -21.7051 -20.3752 -19.7717
   -14.7910 -14.5232 -13.1604 -13.0246 -11.7810 -11.0222 -10.7514  -9.9701
    -9.3035  -8.7479  -8.0630  -7.4989  -6.1346

     occupation numbers 
     1.0000   1.0000   1.0000   1.0000   1.0000   1.0000   1.0000   1.0000
     1.0000   1.0000   1.0000   1.0000   1.0000   1.0000   1.0000   1.0000
     1.0000   1.0000   1.0000   1.0000   1.0000

          k =-0.3636 0.5249 0.0000 (  7528 PWs)   bands (ev):

   -77.7672 -49.2475 -49.1790 -48.9250 -21.4631 -21.4295 -20.3552 -19.7832
   -14.8234 -14.5503 -13.6000 -13.5030 -11.4726 -11.1977 -10.8381  -9.8731
    -9.5353  -9.0681  -7.9907  -7.3986  -5.9822

     occupation numbers 
     1.0000   1.0000   1.0000   1.0000   1.0000   1.0000   1.0000   1.0000
     1.0000   1.0000   1.0000   1.0000   1.0000   1.0000   1.0000   1.0000
     1.0000   1.0000   1.0000   1.0000   1.0000

          k = 0.6364 0.0525 0.0000 (  7528 PWs)   bands (ev):

   -77.7672 -49.2475 -49.1790 -48.9250 -21.4630 -21.4295 -20.3552 -19.7832
   -14.8234 -14.5502 -13.6000 -13.5030 -11.4726 -11.1976 -10.8381  -9.8731
    -9.5354  -9.0681  -7.9906  -7.3986  -5.9822

     occupation numbers 
     1.0000   1.0000   1.0000   1.0000   1.0000   1.0000   1.0000   1.0000
     1.0000   1.0000   1.0000   1.0000   1.0000   1.0000   1.0000   1.0000
     1.0000   1.0000   1.0000   1.0000   1.0000

     highest occupied level (ev):    -5.4002

!    total energy              =    -263.32587687 Ry
     estimated scf accuracy    <          6.8E-13 Ry

     The total energy is the sum of the following terms:
     one-electron contribution =   -4582.96138766 Ry
     hartree contribution      =    2288.07066692 Ry
     xc contribution           =     -44.81430992 Ry
     ewald contribution        =    2076.37915379 Ry

     convergence has been achieved in  17 iterations

     Forces acting on atoms (cartesian axes, Ry/au):

     atom    1 type  1   force =     0.00000691   -0.00000412    0.00016952
     atom    2 type  3   force =     0.00001752   -0.00001077   -0.00025081
     atom    3 type  3   force =     0.00000363   -0.00000173    0.00005776
     atom    4 type  3   force =    -0.00000569    0.00000397   -0.00012112
     atom    5 type  3   force =    -0.00000920    0.00000483   -0.00003153
     atom    6 type  2   force =    -0.00000800    0.00000414    0.00019006
     atom    7 type  2   force =    -0.00000517    0.00000367   -0.00001388
     The non-local contrib.  to forces
     atom    1 type  1   force =    -0.00001711    0.00001004   -0.00553482
     atom    2 type  3   force =    -0.00004834    0.00003148   -0.08162159
     atom    3 type  3   force =    -0.00001240    0.00000143    0.10505415
     atom    4 type  3   force =    -0.00016590    0.00009736   -0.88069134
     atom    5 type  3   force =    -0.00017357    0.00009943    0.84829313
     atom    6 type  2   force =    -0.00014711    0.00008733   -0.10337480
     atom    7 type  2   force =    -0.00006461    0.00003406    0.08551344
     The ionic contribution  to forces
     atom    1 type  1   force =    -0.00076977    0.00044665   -0.19585386
     atom    2 type  3   force =     0.00029012   -0.00019250  -43.64559467
     atom    3 type  3   force =     0.00018302   -0.00007891   43.81387454
     atom    4 type  3   force =     0.00017675   -0.00010028   90.27146441
     atom    5 type  3   force =     0.00023102   -0.00013538  -90.14809884
     atom    6 type  2   force =    -0.00012812    0.00008174  -62.63838496
     atom    7 type  2   force =     0.00001698   -0.00002133   62.54259337
     The local contribution  to forces
     atom    1 type  1   force =     0.00073079   -0.00042438    0.20149001
     atom    2 type  3   force =    -0.00028727    0.00018669   43.72689739
     atom    3 type  3   force =    -0.00022998    0.00011219  -43.91893665
     atom    4 type  3   force =    -0.00007953    0.00004333  -89.39096066
     atom    5 type  3   force =    -0.00012964    0.00007722   89.29970764
     atom    6 type  2   force =     0.00020423   -0.00012849   62.74188314
     atom    7 type  2   force =    -0.00002054    0.00002737  -62.62818707
     The core correction contribution to forces
     atom    1 type  1   force =     0.00000000    0.00000000    0.00000000
     atom    2 type  3   force =     0.00000000    0.00000000    0.00000000
     atom    3 type  3   force =     0.00000000    0.00000000    0.00000000
     atom    4 type  3   force =     0.00000000    0.00000000    0.00000000
     atom    5 type  3   force =     0.00000000    0.00000000    0.00000000
     atom    6 type  2   force =     0.00000000    0.00000000    0.00000000
     atom    7 type  2   force =     0.00000000    0.00000000    0.00000000
     The Hubbard contrib.    to forces
     atom    1 type  1   force =     0.00000000    0.00000000    0.00000000
     atom    2 type  3   force =     0.00000000    0.00000000    0.00000000
     atom    3 type  3   force =     0.00000000    0.00000000    0.00000000
     atom    4 type  3   force =     0.00000000    0.00000000    0.00000000
     atom    5 type  3   force =     0.00000000    0.00000000    0.00000000
     atom    6 type  2   force =     0.00000000    0.00000000    0.00000000
     atom    7 type  2   force =     0.00000000    0.00000000    0.00000000
     The SCF correction term to forces
     atom    1 type  1   force =     0.00000000    0.00000001    0.00000171
     atom    2 type  3   force =     0.00000002    0.00000001    0.00000158
     atom    3 type  3   force =     0.00000001    0.00000000   -0.00000076
     atom    4 type  3   force =    -0.00000000   -0.00000000   -0.00000002
     atom    5 type  3   force =    -0.00000000   -0.00000000    0.00000007
     atom    6 type  2   force =     0.00000000    0.00000000    0.00000020
     atom    7 type  2   force =     0.00000000    0.00000000   -0.00000010

     Total force =     0.000384     Total SCF correction =     0.000002
     Energy error            =      1.6E-06 Ry
     Gradient error          =      2.5E-04 Ry/Bohr

     bfgs converged in   7 scf cycles and   6 bfgs steps
     (criteria: energy <  1.0E-04 Ry, force <  1.0E-03 Ry/Bohr)

     End of BFGS Geometry Optimization

     Final energy             =    -263.3258768661 Ry

     File ./tmp/crsi2n4.bfgs deleted, as requested
Begin final coordinates

ATOMIC_POSITIONS (crystal)
Cr               0.8571284434        0.1428534275        0.4278020699
N                0.5237780247        0.4762062260        0.3724486798
N                0.5237765793        0.4762030343        0.4838551241
N                0.8571525028        0.1428192752        0.5953853156
N                0.1904603679        0.8095289785        0.2619663289
Si               0.5238074290        0.4761818135        0.2883710786
Si               0.5238306530        0.4761412449        0.5685354032
End final coordinates



     Writing all to output data dir ./tmp/crsi2n4.save/ :
     XML data file, charge density, pseudopotentials, collected wavefunctions
 
     init_run     :      2.75s CPU      2.92s WALL (       1 calls)
     electrons    :    647.65s CPU    652.52s WALL (       7 calls)
     update_pot   :      0.15s CPU      0.15s WALL (       6 calls)
     forces       :      4.00s CPU      4.01s WALL (       7 calls)

     Called by init_run:
     wfcinit      :      1.85s CPU      1.96s WALL (       1 calls)
     wfcinit:atom :      0.05s CPU      0.05s WALL (      61 calls)
     wfcinit:wfcr :      1.70s CPU      1.76s WALL (      61 calls)
     potinit      :      0.56s CPU      0.60s WALL (       1 calls)
     hinit0       :      0.25s CPU      0.26s WALL (       1 calls)

     Called by electrons:
     c_bands      :    596.23s CPU    600.79s WALL (     134 calls)
     sum_band     :     46.58s CPU     46.73s WALL (     134 calls)
     v_of_rho     :      1.32s CPU      1.39s WALL (     138 calls)
     v_h          :      0.34s CPU      0.35s WALL (     138 calls)
     v_xc         :      0.98s CPU      1.04s WALL (     138 calls)
     mix_rho      :      1.95s CPU      2.02s WALL (     134 calls)

     Called by c_bands:
     init_us_2    :      9.69s CPU      9.76s WALL (   16836 calls)
     cegterg      :    566.43s CPU    570.68s WALL (    8174 calls)

     Called by sum_band:
     sum_band:wei :      0.00s CPU      0.00s WALL (     134 calls)
     sum_band:loo :     46.19s CPU     46.35s WALL (     134 calls)
     sum_band:buf :      6.67s CPU      6.70s WALL (    8174 calls)
     sum_band:ini :      4.68s CPU      4.71s WALL (    8174 calls)

     Called by *egterg:
     cdiaghg      :    103.38s CPU    104.10s WALL (   45901 calls)
                                      103.88s GPU  (   45901 calls)
     cegterg:over :     93.80s CPU     94.15s WALL (   38276 calls)
     cegterg:upda :     28.13s CPU     28.29s WALL (   38276 calls)
     cegterg:last :     22.42s CPU     22.53s WALL (   19960 calls)
     h_psi        :    299.03s CPU    302.72s WALL (   46511 calls)
                                      302.51s GPU  (   46511 calls)
     g_psi        :      0.30s CPU      2.44s WALL (   38276 calls)
                                        2.29s GPU  (   38276 calls)

     Called by h_psi:
     h_psi:calbec :      2.81s CPU     48.73s WALL (   46511 calls)
                                       48.48s GPU  (   46511 calls)
     vloc_psi     :    201.20s CPU    204.43s WALL (   46511 calls)
                                      204.21s GPU  (   46511 calls)
     add_vuspsi   :     12.65s CPU     46.41s WALL (   46511 calls)
                                       46.20s GPU  (   46511 calls)

     General routines
     calbec       :      2.71s CPU      2.80s WALL (   48219 calls)
     fft          :      0.77s CPU      1.16s WALL (    1658 calls)
                                        0.42s GPU  (    1520 calls)
     ffts         :      0.72s CPU      0.75s WALL (     272 calls)
                                        0.03s GPU  (     134 calls)
     fftw         :      3.77s CPU    198.10s WALL (  143984 calls)
                                      197.50s GPU  (  143984 calls)
     interpolate  :      1.64s CPU      1.65s WALL (     138 calls)
 
     Parallel routines
 
     PWSCF        :  10m54.96s CPU  11m 0.18s WALL

 
   This run was terminated on:   7:26:38  12Mar2026            

=------------------------------------------------------------------------------=
   JOB DONE.
=------------------------------------------------------------------------------=
