
     Program PWSCF v.7.4.1 starts on 28Apr2026 at 12:20:49 

     This program is part of the open-source Quantum ESPRESSO suite
     for quantum simulation of materials; please cite
         "P. Giannozzi et al., J. Phys.:Condens. Matter 21 395502 (2009);
         "P. Giannozzi et al., J. Phys.:Condens. Matter 29 465901 (2017);
         "P. Giannozzi et al., J. Chem. Phys. 152 154105 (2020);
          URL http://www.quantum-espresso.org", 
     in publications or presentations arising from this work. More details at
     http://www.quantum-espresso.org/quote

     Parallel version (MPI), running on     1 processors

     MPI processes distributed on     1 nodes
     15195 MiB available memory on the printing compute node when the environment starts
 
     Reading input from crsi2n4_uni_0.010.in
Warning: card &CELL ignored
Warning: card / ignored
Warning: card &FCP ignored
Warning: card / ignored
Warning: card &RISM ignored
Warning: card / ignored

     Current dimensions of program PWSCF are:
     Max number of different atomic species (ntypx) = 10
     Max number of k-points (npk) =  40000
     Max angular momentum in pseudopotentials (lmaxx) =  4
     Message from routine setup:
     no reason to have ecutrho>4*ecutwfc
 
     Subspace diagonalization in iterative solution of the eigenvalue problem:
     a serial algorithm will be used

 
     G-vector sticks info
     --------------------
     sticks:   dense  smooth     PW     G-vecs:    dense   smooth      PW
     Sum         809     649    199               166177   119177   20845
 
     Using Slab Decomposition
 


     bravais-lattice index     =            0
     lattice parameter (alat)  =       5.4281  a.u.
     unit-cell volume          =    1230.1454 (a.u.)^3
     number of atoms/cell      =            7
     number of atomic types    =            3
     number of electrons       =        42.00
     number of Kohn-Sham states=           21
     kinetic-energy cutoff     =      80.0000  Ry
     charge density cutoff     =     400.0000  Ry
     scf convergence threshold =      1.0E-10
     mixing beta               =       0.4000
     number of iterations used =            8  plain     mixing
     Exchange-correlation= PBE
                           (   1   4   3   4   0   0   0)

     GPU acceleration is ACTIVE.  1 visible GPUs per MPI rank
     GPU-aware MPI enabled


     GPU used by master process:

        Device Number: 0
        Device name: NVIDIA RTX A2000 12GB
        Compute capability : 86
        Ratio of single to double precision performance  : 64
        Memory Clock Rate (KHz): 6001000
        Memory Bus Width (bits): 192
        Peak Memory Bandwidth (GB/s): 288.05

     celldm(1)=   5.428125  celldm(2)=   0.000000  celldm(3)=   0.000000
     celldm(4)=   0.000000  celldm(5)=   0.000000  celldm(6)=   0.000000

     crystal axes: (cart. coord. in units of alat)
               a(1) = (   1.000000   0.000000   0.000000 )  
               a(2) = (  -0.500000   0.857451   0.000000 )  
               a(3) = (   0.000000   0.000000   8.970109 )  

     reciprocal axes: (cart. coord. in units 2 pi/alat)
               b(1) = (  1.000000  0.583124 -0.000000 )  
               b(2) = (  0.000000  1.166248  0.000000 )  
               b(3) = (  0.000000 -0.000000  0.111481 )  


     PseudoPot. # 1 for Cr read from file:
     /home/rao/Desktop/pseudo/ONCVPSP/sg15/Cr_ONCV_PBE_sr.upf
     MD5 check sum: 8c25700f94aee329d8014e8d8708abb4
     Pseudo is Norm-conserving, Zval = 14.0
     Generated using ONCVPSP code by D. R. Hamann
     Using radial grid of 1490 points,  6 beta functions with: 
                l(1) =   0
                l(2) =   0
                l(3) =   1
                l(4) =   1
                l(5) =   2
                l(6) =   2

     PseudoPot. # 2 for N  read from file:
     /home/rao/Desktop/pseudo/ONCVPSP/sg15/N_ONCV_PBE_sr.upf
     MD5 check sum: 584dff68b02d160f04ff099e3496afa1
     Pseudo is Norm-conserving, Zval =  5.0
     Generated using ONCVPSP code by D. R. Hamann
     Using radial grid of 1058 points,  4 beta functions with: 
                l(1) =   0
                l(2) =   0
                l(3) =   1
                l(4) =   1

     PseudoPot. # 3 for Si read from file:
     /home/rao/Desktop/pseudo/ONCVPSP/sg15/Si_ONCV_PBE_sr.upf
     MD5 check sum: 8553c464762ac42b85b1eed164b4d029
     Pseudo is Norm-conserving, Zval =  4.0
     Generated using ONCVPSP code by D. R. Hamann
     Using radial grid of 1510 points,  4 beta functions with: 
                l(1) =   0
                l(2) =   0
                l(3) =   1
                l(4) =   1

     atomic species   valence    mass     pseudopotential
     Cr               14.00    51.99610     Cr( 1.00)
     N                 5.00    14.00700     N ( 1.00)
     Si                4.00    28.08500     Si( 1.00)

     No symmetry found


                                    s                        frac. trans.

      isym =  1     identity                                     

 cryst.   s( 1) = (     1          0          0      )
                  (     0          1          0      )
                  (     0          0          1      )

 cart.    s( 1) = (  1.0000000  0.0000000  0.0000000 )
                  (  0.0000000  1.0000000  0.0000000 )
                  (  0.0000000  0.0000000  1.0000000 )


   Cartesian axes

     site n.     atom                  positions (alat units)
         1        Cr     tau(   1) = (   0.7856988   0.1225229   3.8380307  )
         2        N      tau(   2) = (   0.2856827   0.4085852   3.4398032  )
         3        N      tau(   3) = (   0.2856137   0.4075585   4.2417188  )
         4        N      tau(   4) = (   0.7855716   0.1248695   5.0424810  )
         5        N      tau(   5) = (  -0.2141121   0.6919703   2.6474621  )
         6        Si     tau(   6) = (   0.2858994   0.4080605   2.8312311  )
         7        Si     tau(   7) = (   0.2856128   0.4087289   4.8549251  )

   Crystallographic axes

     site n.     atom                  positions (cryst. coord.)
         1        Cr     tau(   1) = (  0.8571448  0.1428920  0.4278689  )
         2        N      tau(   2) = (  0.5239385  0.4765115  0.3834740  )
         3        N      tau(   3) = (  0.5232708  0.4753141  0.4728726  )
         4        N      tau(   4) = (  0.8583860  0.1456288  0.5621427  )
         5        N      tau(   5) = (  0.1893923  0.8070088  0.2951427  )
         6        Si     tau(   6) = (  0.5238492  0.4758996  0.3156295  )
         7        Si     tau(   7) = (  0.5239523  0.4766791  0.5412337  )

     number of k points=   121
                       cart. coord. in units 2pi/alat
        k(    1) = (   0.0000000   0.0000000   0.0000000), wk =   0.0165289
        k(    2) = (   0.0000000   0.1060225   0.0000000), wk =   0.0165289
        k(    3) = (   0.0000000   0.2120450   0.0000000), wk =   0.0165289
        k(    4) = (   0.0000000   0.3180675   0.0000000), wk =   0.0165289
        k(    5) = (   0.0000000   0.4240901   0.0000000), wk =   0.0165289
        k(    6) = (   0.0000000   0.5301126   0.0000000), wk =   0.0165289
        k(    7) = (   0.0000000  -0.5301126   0.0000000), wk =   0.0165289
        k(    8) = (   0.0000000  -0.4240901   0.0000000), wk =   0.0165289
        k(    9) = (   0.0000000  -0.3180675   0.0000000), wk =   0.0165289
        k(   10) = (   0.0000000  -0.2120450   0.0000000), wk =   0.0165289
        k(   11) = (   0.0000000  -0.1060225   0.0000000), wk =   0.0165289
        k(   12) = (   0.0909091   0.0530113   0.0000000), wk =   0.0165289
        k(   13) = (   0.0909091   0.1590338   0.0000000), wk =   0.0165289
        k(   14) = (   0.0909091   0.2650563   0.0000000), wk =   0.0165289
        k(   15) = (   0.0909091   0.3710788   0.0000000), wk =   0.0165289
        k(   16) = (   0.0909091   0.4771013   0.0000000), wk =   0.0165289
        k(   17) = (   0.0909091   0.5831238   0.0000000), wk =   0.0165289
        k(   18) = (   0.0909091  -0.4771013   0.0000000), wk =   0.0165289
        k(   19) = (   0.0909091  -0.3710788   0.0000000), wk =   0.0165289
        k(   20) = (   0.0909091  -0.2650563   0.0000000), wk =   0.0165289
        k(   21) = (   0.0909091  -0.1590338   0.0000000), wk =   0.0165289
        k(   22) = (   0.0909091  -0.0530113   0.0000000), wk =   0.0165289
        k(   23) = (   0.1818182   0.1060225   0.0000000), wk =   0.0165289
        k(   24) = (   0.1818182   0.2120450   0.0000000), wk =   0.0165289
        k(   25) = (   0.1818182   0.3180675   0.0000000), wk =   0.0165289
        k(   26) = (   0.1818182   0.4240901   0.0000000), wk =   0.0165289
        k(   27) = (   0.1818182   0.5301126   0.0000000), wk =   0.0165289
        k(   28) = (   0.1818182   0.6361351   0.0000000), wk =   0.0165289
        k(   29) = (   0.1818182  -0.4240901   0.0000000), wk =   0.0165289
        k(   30) = (   0.1818182  -0.3180675   0.0000000), wk =   0.0165289
        k(   31) = (   0.1818182  -0.2120450   0.0000000), wk =   0.0165289
        k(   32) = (   0.1818182  -0.1060225   0.0000000), wk =   0.0165289
        k(   33) = (   0.1818182  -0.0000000   0.0000000), wk =   0.0165289
        k(   34) = (   0.2727273   0.1590338   0.0000000), wk =   0.0165289
        k(   35) = (   0.2727273   0.2650563   0.0000000), wk =   0.0165289
        k(   36) = (   0.2727273   0.3710788   0.0000000), wk =   0.0165289
        k(   37) = (   0.2727273   0.4771013   0.0000000), wk =   0.0165289
        k(   38) = (   0.2727273   0.5831238   0.0000000), wk =   0.0165289
        k(   39) = (   0.2727273   0.6891463   0.0000000), wk =   0.0165289
        k(   40) = (   0.2727273  -0.3710788   0.0000000), wk =   0.0165289
        k(   41) = (   0.2727273  -0.2650563   0.0000000), wk =   0.0165289
        k(   42) = (   0.2727273  -0.1590338   0.0000000), wk =   0.0165289
        k(   43) = (   0.2727273  -0.0530113   0.0000000), wk =   0.0165289
        k(   44) = (   0.2727273   0.0530113   0.0000000), wk =   0.0165289
        k(   45) = (   0.3636364   0.2120450   0.0000000), wk =   0.0165289
        k(   46) = (   0.3636364   0.3180675   0.0000000), wk =   0.0165289
        k(   47) = (   0.3636364   0.4240901   0.0000000), wk =   0.0165289
        k(   48) = (   0.3636364   0.5301126   0.0000000), wk =   0.0165289
        k(   49) = (   0.3636364   0.6361351   0.0000000), wk =   0.0165289
        k(   50) = (   0.3636364   0.7421576   0.0000000), wk =   0.0165289
        k(   51) = (   0.3636364  -0.3180675   0.0000000), wk =   0.0165289
        k(   52) = (   0.3636364  -0.2120450   0.0000000), wk =   0.0165289
        k(   53) = (   0.3636364  -0.1060225   0.0000000), wk =   0.0165289
        k(   54) = (   0.3636364   0.0000000   0.0000000), wk =   0.0165289
        k(   55) = (   0.3636364   0.1060225   0.0000000), wk =   0.0165289
        k(   56) = (   0.4545455   0.2650563   0.0000000), wk =   0.0165289
        k(   57) = (   0.4545455   0.3710788   0.0000000), wk =   0.0165289
        k(   58) = (   0.4545455   0.4771013   0.0000000), wk =   0.0165289
        k(   59) = (   0.4545455   0.5831238   0.0000000), wk =   0.0165289
        k(   60) = (   0.4545455   0.6891463   0.0000000), wk =   0.0165289
        k(   61) = (   0.4545455   0.7951689   0.0000000), wk =   0.0165289
        k(   62) = (   0.4545455  -0.2650563   0.0000000), wk =   0.0165289
        k(   63) = (   0.4545455  -0.1590338   0.0000000), wk =   0.0165289
        k(   64) = (   0.4545455  -0.0530113   0.0000000), wk =   0.0165289
        k(   65) = (   0.4545455   0.0530113   0.0000000), wk =   0.0165289
        k(   66) = (   0.4545455   0.1590338   0.0000000), wk =   0.0165289
        k(   67) = (  -0.4545455  -0.2650563   0.0000000), wk =   0.0165289
        k(   68) = (  -0.4545455  -0.1590338   0.0000000), wk =   0.0165289
        k(   69) = (  -0.4545455  -0.0530113   0.0000000), wk =   0.0165289
        k(   70) = (  -0.4545455   0.0530113   0.0000000), wk =   0.0165289
        k(   71) = (  -0.4545455   0.1590338   0.0000000), wk =   0.0165289
        k(   72) = (  -0.4545455   0.2650563   0.0000000), wk =   0.0165289
        k(   73) = (  -0.4545455  -0.7951689   0.0000000), wk =   0.0165289
        k(   74) = (  -0.4545455  -0.6891463   0.0000000), wk =   0.0165289
        k(   75) = (  -0.4545455  -0.5831238   0.0000000), wk =   0.0165289
        k(   76) = (  -0.4545455  -0.4771013   0.0000000), wk =   0.0165289
        k(   77) = (  -0.4545455  -0.3710788   0.0000000), wk =   0.0165289
        k(   78) = (  -0.3636364  -0.2120450   0.0000000), wk =   0.0165289
        k(   79) = (  -0.3636364  -0.1060225   0.0000000), wk =   0.0165289
        k(   80) = (  -0.3636364   0.0000000   0.0000000), wk =   0.0165289
        k(   81) = (  -0.3636364   0.1060225   0.0000000), wk =   0.0165289
        k(   82) = (  -0.3636364   0.2120450   0.0000000), wk =   0.0165289
        k(   83) = (  -0.3636364   0.3180675   0.0000000), wk =   0.0165289
        k(   84) = (  -0.3636364  -0.7421576   0.0000000), wk =   0.0165289
        k(   85) = (  -0.3636364  -0.6361351   0.0000000), wk =   0.0165289
        k(   86) = (  -0.3636364  -0.5301126   0.0000000), wk =   0.0165289
        k(   87) = (  -0.3636364  -0.4240901   0.0000000), wk =   0.0165289
        k(   88) = (  -0.3636364  -0.3180675   0.0000000), wk =   0.0165289
        k(   89) = (  -0.2727273  -0.1590338   0.0000000), wk =   0.0165289
        k(   90) = (  -0.2727273  -0.0530113   0.0000000), wk =   0.0165289
        k(   91) = (  -0.2727273   0.0530113   0.0000000), wk =   0.0165289
        k(   92) = (  -0.2727273   0.1590338   0.0000000), wk =   0.0165289
        k(   93) = (  -0.2727273   0.2650563   0.0000000), wk =   0.0165289
        k(   94) = (  -0.2727273   0.3710788   0.0000000), wk =   0.0165289
        k(   95) = (  -0.2727273  -0.6891463   0.0000000), wk =   0.0165289
        k(   96) = (  -0.2727273  -0.5831238   0.0000000), wk =   0.0165289
        k(   97) = (  -0.2727273  -0.4771013   0.0000000), wk =   0.0165289
        k(   98) = (  -0.2727273  -0.3710788   0.0000000), wk =   0.0165289
        k(   99) = (  -0.2727273  -0.2650563   0.0000000), wk =   0.0165289
        k(  100) = (  -0.1818182  -0.1060225   0.0000000), wk =   0.0165289
        k(  101) = (  -0.1818182   0.0000000   0.0000000), wk =   0.0165289
        k(  102) = (  -0.1818182   0.1060225   0.0000000), wk =   0.0165289
        k(  103) = (  -0.1818182   0.2120450   0.0000000), wk =   0.0165289
        k(  104) = (  -0.1818182   0.3180675   0.0000000), wk =   0.0165289
        k(  105) = (  -0.1818182   0.4240901   0.0000000), wk =   0.0165289
        k(  106) = (  -0.1818182  -0.6361351   0.0000000), wk =   0.0165289
        k(  107) = (  -0.1818182  -0.5301126   0.0000000), wk =   0.0165289
        k(  108) = (  -0.1818182  -0.4240901   0.0000000), wk =   0.0165289
        k(  109) = (  -0.1818182  -0.3180675   0.0000000), wk =   0.0165289
        k(  110) = (  -0.1818182  -0.2120450   0.0000000), wk =   0.0165289
        k(  111) = (  -0.0909091  -0.0530113   0.0000000), wk =   0.0165289
        k(  112) = (  -0.0909091   0.0530113   0.0000000), wk =   0.0165289
        k(  113) = (  -0.0909091   0.1590338   0.0000000), wk =   0.0165289
        k(  114) = (  -0.0909091   0.2650563   0.0000000), wk =   0.0165289
        k(  115) = (  -0.0909091   0.3710788   0.0000000), wk =   0.0165289
        k(  116) = (  -0.0909091   0.4771013   0.0000000), wk =   0.0165289
        k(  117) = (  -0.0909091  -0.5831238   0.0000000), wk =   0.0165289
        k(  118) = (  -0.0909091  -0.4771013   0.0000000), wk =   0.0165289
        k(  119) = (  -0.0909091  -0.3710788   0.0000000), wk =   0.0165289
        k(  120) = (  -0.0909091  -0.2650563   0.0000000), wk =   0.0165289
        k(  121) = (  -0.0909091  -0.1590338   0.0000000), wk =   0.0165289

                       cryst. coord.
        k(    1) = (   0.0000000   0.0000000   0.0000000), wk =   0.0165289
        k(    2) = (   0.0000000   0.0909091   0.0000000), wk =   0.0165289
        k(    3) = (   0.0000000   0.1818182   0.0000000), wk =   0.0165289
        k(    4) = (   0.0000000   0.2727273   0.0000000), wk =   0.0165289
        k(    5) = (   0.0000000   0.3636364   0.0000000), wk =   0.0165289
        k(    6) = (   0.0000000   0.4545455   0.0000000), wk =   0.0165289
        k(    7) = (   0.0000000  -0.4545455   0.0000000), wk =   0.0165289
        k(    8) = (   0.0000000  -0.3636364   0.0000000), wk =   0.0165289
        k(    9) = (   0.0000000  -0.2727273   0.0000000), wk =   0.0165289
        k(   10) = (   0.0000000  -0.1818182   0.0000000), wk =   0.0165289
        k(   11) = (   0.0000000  -0.0909091   0.0000000), wk =   0.0165289
        k(   12) = (   0.0909091  -0.0000000   0.0000000), wk =   0.0165289
        k(   13) = (   0.0909091   0.0909091   0.0000000), wk =   0.0165289
        k(   14) = (   0.0909091   0.1818182   0.0000000), wk =   0.0165289
        k(   15) = (   0.0909091   0.2727273   0.0000000), wk =   0.0165289
        k(   16) = (   0.0909091   0.3636364   0.0000000), wk =   0.0165289
        k(   17) = (   0.0909091   0.4545455   0.0000000), wk =   0.0165289
        k(   18) = (   0.0909091  -0.4545455   0.0000000), wk =   0.0165289
        k(   19) = (   0.0909091  -0.3636364   0.0000000), wk =   0.0165289
        k(   20) = (   0.0909091  -0.2727273   0.0000000), wk =   0.0165289
        k(   21) = (   0.0909091  -0.1818182   0.0000000), wk =   0.0165289
        k(   22) = (   0.0909091  -0.0909091   0.0000000), wk =   0.0165289
        k(   23) = (   0.1818182  -0.0000000   0.0000000), wk =   0.0165289
        k(   24) = (   0.1818182   0.0909091   0.0000000), wk =   0.0165289
        k(   25) = (   0.1818182   0.1818182   0.0000000), wk =   0.0165289
        k(   26) = (   0.1818182   0.2727273   0.0000000), wk =   0.0165289
        k(   27) = (   0.1818182   0.3636364   0.0000000), wk =   0.0165289
        k(   28) = (   0.1818182   0.4545455   0.0000000), wk =   0.0165289
        k(   29) = (   0.1818182  -0.4545455   0.0000000), wk =   0.0165289
        k(   30) = (   0.1818182  -0.3636364   0.0000000), wk =   0.0165289
        k(   31) = (   0.1818182  -0.2727273   0.0000000), wk =   0.0165289
        k(   32) = (   0.1818182  -0.1818182   0.0000000), wk =   0.0165289
        k(   33) = (   0.1818182  -0.0909091   0.0000000), wk =   0.0165289
        k(   34) = (   0.2727273   0.0000000   0.0000000), wk =   0.0165289
        k(   35) = (   0.2727273   0.0909091   0.0000000), wk =   0.0165289
        k(   36) = (   0.2727273   0.1818182   0.0000000), wk =   0.0165289
        k(   37) = (   0.2727273   0.2727273   0.0000000), wk =   0.0165289
        k(   38) = (   0.2727273   0.3636364   0.0000000), wk =   0.0165289
        k(   39) = (   0.2727273   0.4545455   0.0000000), wk =   0.0165289
        k(   40) = (   0.2727273  -0.4545455   0.0000000), wk =   0.0165289
        k(   41) = (   0.2727273  -0.3636364   0.0000000), wk =   0.0165289
        k(   42) = (   0.2727273  -0.2727273   0.0000000), wk =   0.0165289
        k(   43) = (   0.2727273  -0.1818182   0.0000000), wk =   0.0165289
        k(   44) = (   0.2727273  -0.0909091   0.0000000), wk =   0.0165289
        k(   45) = (   0.3636364  -0.0000000   0.0000000), wk =   0.0165289
        k(   46) = (   0.3636364   0.0909091   0.0000000), wk =   0.0165289
        k(   47) = (   0.3636364   0.1818182   0.0000000), wk =   0.0165289
        k(   48) = (   0.3636364   0.2727273   0.0000000), wk =   0.0165289
        k(   49) = (   0.3636364   0.3636364   0.0000000), wk =   0.0165289
        k(   50) = (   0.3636364   0.4545455   0.0000000), wk =   0.0165289
        k(   51) = (   0.3636364  -0.4545455   0.0000000), wk =   0.0165289
        k(   52) = (   0.3636364  -0.3636364   0.0000000), wk =   0.0165289
        k(   53) = (   0.3636364  -0.2727273   0.0000000), wk =   0.0165289
        k(   54) = (   0.3636364  -0.1818182   0.0000000), wk =   0.0165289
        k(   55) = (   0.3636364  -0.0909091   0.0000000), wk =   0.0165289
        k(   56) = (   0.4545455   0.0000000   0.0000000), wk =   0.0165289
        k(   57) = (   0.4545455   0.0909091   0.0000000), wk =   0.0165289
        k(   58) = (   0.4545455   0.1818182   0.0000000), wk =   0.0165289
        k(   59) = (   0.4545455   0.2727273   0.0000000), wk =   0.0165289
        k(   60) = (   0.4545455   0.3636364   0.0000000), wk =   0.0165289
        k(   61) = (   0.4545455   0.4545455   0.0000000), wk =   0.0165289
        k(   62) = (   0.4545455  -0.4545455   0.0000000), wk =   0.0165289
        k(   63) = (   0.4545455  -0.3636364   0.0000000), wk =   0.0165289
        k(   64) = (   0.4545455  -0.2727273   0.0000000), wk =   0.0165289
        k(   65) = (   0.4545455  -0.1818182   0.0000000), wk =   0.0165289
        k(   66) = (   0.4545455  -0.0909091   0.0000000), wk =   0.0165289
        k(   67) = (  -0.4545455   0.0000000   0.0000000), wk =   0.0165289
        k(   68) = (  -0.4545455   0.0909091   0.0000000), wk =   0.0165289
        k(   69) = (  -0.4545455   0.1818182   0.0000000), wk =   0.0165289
        k(   70) = (  -0.4545455   0.2727273   0.0000000), wk =   0.0165289
        k(   71) = (  -0.4545455   0.3636364   0.0000000), wk =   0.0165289
        k(   72) = (  -0.4545455   0.4545455   0.0000000), wk =   0.0165289
        k(   73) = (  -0.4545455  -0.4545455   0.0000000), wk =   0.0165289
        k(   74) = (  -0.4545455  -0.3636364   0.0000000), wk =   0.0165289
        k(   75) = (  -0.4545455  -0.2727273   0.0000000), wk =   0.0165289
        k(   76) = (  -0.4545455  -0.1818182   0.0000000), wk =   0.0165289
        k(   77) = (  -0.4545455  -0.0909091   0.0000000), wk =   0.0165289
        k(   78) = (  -0.3636364   0.0000000   0.0000000), wk =   0.0165289
        k(   79) = (  -0.3636364   0.0909091   0.0000000), wk =   0.0165289
        k(   80) = (  -0.3636364   0.1818182   0.0000000), wk =   0.0165289
        k(   81) = (  -0.3636364   0.2727273   0.0000000), wk =   0.0165289
        k(   82) = (  -0.3636364   0.3636364   0.0000000), wk =   0.0165289
        k(   83) = (  -0.3636364   0.4545455   0.0000000), wk =   0.0165289
        k(   84) = (  -0.3636364  -0.4545455   0.0000000), wk =   0.0165289
        k(   85) = (  -0.3636364  -0.3636364   0.0000000), wk =   0.0165289
        k(   86) = (  -0.3636364  -0.2727273   0.0000000), wk =   0.0165289
        k(   87) = (  -0.3636364  -0.1818182   0.0000000), wk =   0.0165289
        k(   88) = (  -0.3636364  -0.0909091   0.0000000), wk =   0.0165289
        k(   89) = (  -0.2727273  -0.0000000   0.0000000), wk =   0.0165289
        k(   90) = (  -0.2727273   0.0909091   0.0000000), wk =   0.0165289
        k(   91) = (  -0.2727273   0.1818182   0.0000000), wk =   0.0165289
        k(   92) = (  -0.2727273   0.2727273   0.0000000), wk =   0.0165289
        k(   93) = (  -0.2727273   0.3636364   0.0000000), wk =   0.0165289
        k(   94) = (  -0.2727273   0.4545455   0.0000000), wk =   0.0165289
        k(   95) = (  -0.2727273  -0.4545455   0.0000000), wk =   0.0165289
        k(   96) = (  -0.2727273  -0.3636364   0.0000000), wk =   0.0165289
        k(   97) = (  -0.2727273  -0.2727273   0.0000000), wk =   0.0165289
        k(   98) = (  -0.2727273  -0.1818182   0.0000000), wk =   0.0165289
        k(   99) = (  -0.2727273  -0.0909091   0.0000000), wk =   0.0165289
        k(  100) = (  -0.1818182   0.0000000   0.0000000), wk =   0.0165289
        k(  101) = (  -0.1818182   0.0909091   0.0000000), wk =   0.0165289
        k(  102) = (  -0.1818182   0.1818182   0.0000000), wk =   0.0165289
        k(  103) = (  -0.1818182   0.2727273   0.0000000), wk =   0.0165289
        k(  104) = (  -0.1818182   0.3636364   0.0000000), wk =   0.0165289
        k(  105) = (  -0.1818182   0.4545455   0.0000000), wk =   0.0165289
        k(  106) = (  -0.1818182  -0.4545455   0.0000000), wk =   0.0165289
        k(  107) = (  -0.1818182  -0.3636364   0.0000000), wk =   0.0165289
        k(  108) = (  -0.1818182  -0.2727273   0.0000000), wk =   0.0165289
        k(  109) = (  -0.1818182  -0.1818182   0.0000000), wk =   0.0165289
        k(  110) = (  -0.1818182  -0.0909091   0.0000000), wk =   0.0165289
        k(  111) = (  -0.0909091  -0.0000000   0.0000000), wk =   0.0165289
        k(  112) = (  -0.0909091   0.0909091   0.0000000), wk =   0.0165289
        k(  113) = (  -0.0909091   0.1818182   0.0000000), wk =   0.0165289
        k(  114) = (  -0.0909091   0.2727273   0.0000000), wk =   0.0165289
        k(  115) = (  -0.0909091   0.3636364   0.0000000), wk =   0.0165289
        k(  116) = (  -0.0909091   0.4545455   0.0000000), wk =   0.0165289
        k(  117) = (  -0.0909091  -0.4545455   0.0000000), wk =   0.0165289
        k(  118) = (  -0.0909091  -0.3636364   0.0000000), wk =   0.0165289
        k(  119) = (  -0.0909091  -0.2727273   0.0000000), wk =   0.0165289
        k(  120) = (  -0.0909091  -0.1818182   0.0000000), wk =   0.0165289
        k(  121) = (  -0.0909091  -0.0909091   0.0000000), wk =   0.0165289

     Dense  grid:   166177 G-vectors     FFT dimensions: (  36,  36, 320)

     Smooth grid:   119177 G-vectors     FFT dimensions: (  32,  32, 288)

     Dynamical RAM for                 wfc:       4.76 MB

     Dynamical RAM for     wfc (w. buffer):     581.08 MB

     Dynamical RAM for           str. fact:       7.61 MB

     Dynamical RAM for           local pot:       0.00 MB

     Dynamical RAM for          nlocal pot:      14.97 MB

     Dynamical RAM for                qrad:       4.82 MB

     Dynamical RAM for          rho,v,vnew:      17.10 MB

     Dynamical RAM for               rhoin:       5.70 MB

     Dynamical RAM for            rho*nmix:      40.57 MB

     Dynamical RAM for           G-vectors:      10.42 MB

     Dynamical RAM for          h,s,v(r/c):       0.08 MB

     Dynamical RAM for          <psi|beta>:       0.02 MB

     Dynamical RAM for                 psi:       9.53 MB

     Dynamical RAM for                hpsi:       9.53 MB

     Dynamical RAM for      wfcinit/wfcrot:       9.54 MB

     Estimated static dynamical RAM per process >     667.65 MB

     Estimated max dynamical RAM per process >     727.37 MB
 ----2D----2D----2D----2D----2D----2D----2D----2D----2D----2D----2D----2D
  The code is running with the 2D cutoff
  Please refer to:
  Sohier, T., Calandra, M., & Mauri, F. (2017), 
  Density functional perturbation theory for gated two-dimensional heterostructures:
  Theoretical developments and application to flexural phonons in graphene.
  Physical Review B, 96(7), 75448. https://doi.org/10.1103/PhysRevB.96.075448
 ----2D----2D----2D----2D----2D----2D----2D----2D----2D----2D----2D----2D

     Initial potential from superposition of free atoms

     starting charge      41.9980, renormalised to      42.0000

     negative rho (up, down):  1.936E-06 0.000E+00
     Starting wfcs are   34 randomized atomic wfcs

     total cpu time spent up to now is        7.4 secs

     Self-consistent Calculation
[tb_dev] Currently allocated     1.51E+00 Mbytes, locked:    0 /   5
[tb_pin] Currently allocated     0.00E+00 Mbytes, locked:    0 /   0

     iteration #  1     ecut=    80.00 Ry     beta= 0.40
     Davidson diagonalization with overlap

---- Real-time Memory Report at c_bands before calling an iterative solver
          1279 MiB given to the printing process from OS
             0 MiB allocation reported by mallinfo(arena+hblkhd)
         14334 MiB available memory on the node where the printing process lives
     GPU memory used/free/total (MiB): 1307 / 10606 / 11914
------------------
     ethr =  1.00E-02,  avg # of iterations =  2.0

     total cpu time spent up to now is       19.0 secs

     total energy              =    -262.69098326 Ry
     estimated scf accuracy    <       2.26626873 Ry
[tb_dev] Currently allocated     2.67E-05 Mbytes, locked:    0 /   1
[tb_pin] Currently allocated     0.00E+00 Mbytes, locked:    0 /   0

     iteration #  2     ecut=    80.00 Ry     beta= 0.40
     Davidson diagonalization with overlap

---- Real-time Memory Report at c_bands before calling an iterative solver
          1295 MiB given to the printing process from OS
             0 MiB allocation reported by mallinfo(arena+hblkhd)
         14322 MiB available memory on the node where the printing process lives
     GPU memory used/free/total (MiB): 1331 / 10582 / 11914
------------------
     ethr =  5.40E-03,  avg # of iterations =  5.8

     total cpu time spent up to now is       38.1 secs

     total energy              =    -263.15478757 Ry
     estimated scf accuracy    <       0.88251088 Ry
[tb_dev] Currently allocated     2.67E-05 Mbytes, locked:    0 /   1
[tb_pin] Currently allocated     0.00E+00 Mbytes, locked:    0 /   0

     iteration #  3     ecut=    80.00 Ry     beta= 0.40
     Davidson diagonalization with overlap

---- Real-time Memory Report at c_bands before calling an iterative solver
          1324 MiB given to the printing process from OS
             0 MiB allocation reported by mallinfo(arena+hblkhd)
         14304 MiB available memory on the node where the printing process lives
     GPU memory used/free/total (MiB): 1331 / 10582 / 11914
------------------
     ethr =  2.10E-03,  avg # of iterations =  4.8

     total cpu time spent up to now is       53.3 secs

     total energy              =    -263.33400116 Ry
     estimated scf accuracy    <       0.05177347 Ry
[tb_dev] Currently allocated     2.67E-05 Mbytes, locked:    0 /   1
[tb_pin] Currently allocated     0.00E+00 Mbytes, locked:    0 /   0

     iteration #  4     ecut=    80.00 Ry     beta= 0.40
     Davidson diagonalization with overlap

---- Real-time Memory Report at c_bands before calling an iterative solver
          1329 MiB given to the printing process from OS
             0 MiB allocation reported by mallinfo(arena+hblkhd)
         14305 MiB available memory on the node where the printing process lives
     GPU memory used/free/total (MiB): 1331 / 10582 / 11914
------------------
     ethr =  1.23E-04,  avg # of iterations =  4.8

     total cpu time spent up to now is       68.9 secs

     total energy              =    -263.34320222 Ry
     estimated scf accuracy    <       0.01244580 Ry
[tb_dev] Currently allocated     2.67E-05 Mbytes, locked:    0 /   1
[tb_pin] Currently allocated     0.00E+00 Mbytes, locked:    0 /   0

     iteration #  5     ecut=    80.00 Ry     beta= 0.40
     Davidson diagonalization with overlap

---- Real-time Memory Report at c_bands before calling an iterative solver
          1333 MiB given to the printing process from OS
             0 MiB allocation reported by mallinfo(arena+hblkhd)
         14297 MiB available memory on the node where the printing process lives
     GPU memory used/free/total (MiB): 1331 / 10582 / 11914
------------------
     ethr =  2.96E-05,  avg # of iterations =  7.2

     total cpu time spent up to now is       89.8 secs

     total energy              =    -263.34531452 Ry
     estimated scf accuracy    <       0.02428006 Ry
[tb_dev] Currently allocated     2.67E-05 Mbytes, locked:    0 /   1
[tb_pin] Currently allocated     0.00E+00 Mbytes, locked:    0 /   0

     iteration #  6     ecut=    80.00 Ry     beta= 0.40
     Davidson diagonalization with overlap

---- Real-time Memory Report at c_bands before calling an iterative solver
          1338 MiB given to the printing process from OS
             0 MiB allocation reported by mallinfo(arena+hblkhd)
         14292 MiB available memory on the node where the printing process lives
     GPU memory used/free/total (MiB): 1333 / 10580 / 11914
------------------
     ethr =  2.96E-05,  avg # of iterations =  4.9

     total cpu time spent up to now is      105.4 secs

     total energy              =    -263.34557583 Ry
     estimated scf accuracy    <       0.00449866 Ry
[tb_dev] Currently allocated     2.67E-05 Mbytes, locked:    0 /   1
[tb_pin] Currently allocated     0.00E+00 Mbytes, locked:    0 /   0

     iteration #  7     ecut=    80.00 Ry     beta= 0.40
     Davidson diagonalization with overlap

---- Real-time Memory Report at c_bands before calling an iterative solver
          1344 MiB given to the printing process from OS
             0 MiB allocation reported by mallinfo(arena+hblkhd)
         14291 MiB available memory on the node where the printing process lives
     GPU memory used/free/total (MiB): 1333 / 10580 / 11914
------------------
     ethr =  1.07E-05,  avg # of iterations =  7.2

     total cpu time spent up to now is      124.4 secs

     total energy              =    -263.34554357 Ry
     estimated scf accuracy    <       0.01117786 Ry
[tb_dev] Currently allocated     2.67E-05 Mbytes, locked:    0 /   1
[tb_pin] Currently allocated     0.00E+00 Mbytes, locked:    0 /   0

     iteration #  8     ecut=    80.00 Ry     beta= 0.40
     Davidson diagonalization with overlap

---- Real-time Memory Report at c_bands before calling an iterative solver
          1350 MiB given to the printing process from OS
             0 MiB allocation reported by mallinfo(arena+hblkhd)
         14288 MiB available memory on the node where the printing process lives
     GPU memory used/free/total (MiB): 1333 / 10580 / 11914
------------------
     ethr =  1.07E-05,  avg # of iterations =  6.1

     total cpu time spent up to now is      141.7 secs

     total energy              =    -263.34740183 Ry
     estimated scf accuracy    <       0.00040410 Ry
[tb_dev] Currently allocated     2.67E-05 Mbytes, locked:    0 /   1
[tb_pin] Currently allocated     0.00E+00 Mbytes, locked:    0 /   0

     iteration #  9     ecut=    80.00 Ry     beta= 0.40
     Davidson diagonalization with overlap

---- Real-time Memory Report at c_bands before calling an iterative solver
          1356 MiB given to the printing process from OS
             0 MiB allocation reported by mallinfo(arena+hblkhd)
         14286 MiB available memory on the node where the printing process lives
     GPU memory used/free/total (MiB): 1333 / 10580 / 11914
------------------
     ethr =  9.62E-07,  avg # of iterations =  4.5

     total cpu time spent up to now is      156.5 secs

     total energy              =    -263.34742744 Ry
     estimated scf accuracy    <       0.00030190 Ry
[tb_dev] Currently allocated     2.67E-05 Mbytes, locked:    0 /   1
[tb_pin] Currently allocated     0.00E+00 Mbytes, locked:    0 /   0

     iteration # 10     ecut=    80.00 Ry     beta= 0.40
     Davidson diagonalization with overlap

---- Real-time Memory Report at c_bands before calling an iterative solver
          1360 MiB given to the printing process from OS
             0 MiB allocation reported by mallinfo(arena+hblkhd)
         14282 MiB available memory on the node where the printing process lives
     GPU memory used/free/total (MiB): 1333 / 10580 / 11914
------------------
     ethr =  7.19E-07,  avg # of iterations =  4.3

     total cpu time spent up to now is      170.6 secs

     total energy              =    -263.34746656 Ry
     estimated scf accuracy    <       0.00002254 Ry
[tb_dev] Currently allocated     2.67E-05 Mbytes, locked:    0 /   1
[tb_pin] Currently allocated     0.00E+00 Mbytes, locked:    0 /   0

     iteration # 11     ecut=    80.00 Ry     beta= 0.40
     Davidson diagonalization with overlap

---- Real-time Memory Report at c_bands before calling an iterative solver
          1360 MiB given to the printing process from OS
             0 MiB allocation reported by mallinfo(arena+hblkhd)
         14285 MiB available memory on the node where the printing process lives
     GPU memory used/free/total (MiB): 1333 / 10580 / 11914
------------------
     ethr =  5.37E-08,  avg # of iterations =  5.7

     total cpu time spent up to now is      187.7 secs

     total energy              =    -263.34747677 Ry
     estimated scf accuracy    <       0.00000304 Ry
[tb_dev] Currently allocated     2.67E-05 Mbytes, locked:    0 /   1
[tb_pin] Currently allocated     0.00E+00 Mbytes, locked:    0 /   0

     iteration # 12     ecut=    80.00 Ry     beta= 0.40
     Davidson diagonalization with overlap

---- Real-time Memory Report at c_bands before calling an iterative solver
          1360 MiB given to the printing process from OS
             0 MiB allocation reported by mallinfo(arena+hblkhd)
         14286 MiB available memory on the node where the printing process lives
     GPU memory used/free/total (MiB): 1333 / 10580 / 11914
------------------
     ethr =  7.23E-09,  avg # of iterations =  6.5

     total cpu time spent up to now is      206.1 secs

     total energy              =    -263.34747645 Ry
     estimated scf accuracy    <       0.00000949 Ry
[tb_dev] Currently allocated     2.67E-05 Mbytes, locked:    0 /   1
[tb_pin] Currently allocated     0.00E+00 Mbytes, locked:    0 /   0

     iteration # 13     ecut=    80.00 Ry     beta= 0.40
     Davidson diagonalization with overlap

---- Real-time Memory Report at c_bands before calling an iterative solver
          1361 MiB given to the printing process from OS
             0 MiB allocation reported by mallinfo(arena+hblkhd)
         14285 MiB available memory on the node where the printing process lives
     GPU memory used/free/total (MiB): 1333 / 10580 / 11914
------------------
     ethr =  7.23E-09,  avg # of iterations =  4.0

     total cpu time spent up to now is      219.3 secs

     total energy              =    -263.34747631 Ry
     estimated scf accuracy    <       0.00000230 Ry
[tb_dev] Currently allocated     2.67E-05 Mbytes, locked:    0 /   1
[tb_pin] Currently allocated     0.00E+00 Mbytes, locked:    0 /   0

     iteration # 14     ecut=    80.00 Ry     beta= 0.40
     Davidson diagonalization with overlap

---- Real-time Memory Report at c_bands before calling an iterative solver
          1361 MiB given to the printing process from OS
             0 MiB allocation reported by mallinfo(arena+hblkhd)
         14281 MiB available memory on the node where the printing process lives
     GPU memory used/free/total (MiB): 1333 / 10580 / 11914
------------------
     ethr =  5.47E-09,  avg # of iterations =  5.3

     total cpu time spent up to now is      235.1 secs

     total energy              =    -263.34747693 Ry
     estimated scf accuracy    <       0.00000062 Ry
[tb_dev] Currently allocated     2.67E-05 Mbytes, locked:    0 /   1
[tb_pin] Currently allocated     0.00E+00 Mbytes, locked:    0 /   0

     iteration # 15     ecut=    80.00 Ry     beta= 0.40
     Davidson diagonalization with overlap

---- Real-time Memory Report at c_bands before calling an iterative solver
          1361 MiB given to the printing process from OS
             0 MiB allocation reported by mallinfo(arena+hblkhd)
         14284 MiB available memory on the node where the printing process lives
     GPU memory used/free/total (MiB): 1333 / 10580 / 11914
------------------
     ethr =  1.47E-09,  avg # of iterations =  2.8

     total cpu time spent up to now is      247.5 secs

     total energy              =    -263.34747681 Ry
     estimated scf accuracy    <       0.00000048 Ry
[tb_dev] Currently allocated     2.67E-05 Mbytes, locked:    0 /   1
[tb_pin] Currently allocated     0.00E+00 Mbytes, locked:    0 /   0

     iteration # 16     ecut=    80.00 Ry     beta= 0.40
     Davidson diagonalization with overlap

---- Real-time Memory Report at c_bands before calling an iterative solver
          1361 MiB given to the printing process from OS
             0 MiB allocation reported by mallinfo(arena+hblkhd)
         14280 MiB available memory on the node where the printing process lives
     GPU memory used/free/total (MiB): 1333 / 10580 / 11914
------------------
     ethr =  1.13E-09,  avg # of iterations =  5.2

     total cpu time spent up to now is      263.0 secs

     total energy              =    -263.34747693 Ry
     estimated scf accuracy    <       0.00000014 Ry
[tb_dev] Currently allocated     2.67E-05 Mbytes, locked:    0 /   1
[tb_pin] Currently allocated     0.00E+00 Mbytes, locked:    0 /   0

     iteration # 17     ecut=    80.00 Ry     beta= 0.40
     Davidson diagonalization with overlap

---- Real-time Memory Report at c_bands before calling an iterative solver
          1362 MiB given to the printing process from OS
             0 MiB allocation reported by mallinfo(arena+hblkhd)
         14278 MiB available memory on the node where the printing process lives
     GPU memory used/free/total (MiB): 1333 / 10580 / 11914
------------------
     ethr =  3.44E-10,  avg # of iterations =  1.9

     total cpu time spent up to now is      273.5 secs

     total energy              =    -263.34747691 Ry
     estimated scf accuracy    <       0.00000009 Ry
[tb_dev] Currently allocated     2.67E-05 Mbytes, locked:    0 /   1
[tb_pin] Currently allocated     0.00E+00 Mbytes, locked:    0 /   0

     iteration # 18     ecut=    80.00 Ry     beta= 0.40
     Davidson diagonalization with overlap

---- Real-time Memory Report at c_bands before calling an iterative solver
          1362 MiB given to the printing process from OS
             0 MiB allocation reported by mallinfo(arena+hblkhd)
         14273 MiB available memory on the node where the printing process lives
     GPU memory used/free/total (MiB): 1333 / 10580 / 11914
------------------
     ethr =  2.17E-10,  avg # of iterations =  5.4

     total cpu time spent up to now is      289.6 secs

     total energy              =    -263.34747693 Ry
     estimated scf accuracy    <       0.00000001 Ry
[tb_dev] Currently allocated     2.67E-05 Mbytes, locked:    0 /   1
[tb_pin] Currently allocated     0.00E+00 Mbytes, locked:    0 /   0

     iteration # 19     ecut=    80.00 Ry     beta= 0.40
     Davidson diagonalization with overlap

---- Real-time Memory Report at c_bands before calling an iterative solver
          1362 MiB given to the printing process from OS
             0 MiB allocation reported by mallinfo(arena+hblkhd)
         14269 MiB available memory on the node where the printing process lives
     GPU memory used/free/total (MiB): 1333 / 10580 / 11914
------------------
     ethr =  3.26E-11,  avg # of iterations =  4.0

     total cpu time spent up to now is      303.8 secs

     total energy              =    -263.34747693 Ry
     estimated scf accuracy    <       0.00000001 Ry
[tb_dev] Currently allocated     2.67E-05 Mbytes, locked:    0 /   1
[tb_pin] Currently allocated     0.00E+00 Mbytes, locked:    0 /   0

     iteration # 20     ecut=    80.00 Ry     beta= 0.40
     Davidson diagonalization with overlap

---- Real-time Memory Report at c_bands before calling an iterative solver
          1362 MiB given to the printing process from OS
             0 MiB allocation reported by mallinfo(arena+hblkhd)
         14276 MiB available memory on the node where the printing process lives
     GPU memory used/free/total (MiB): 1333 / 10580 / 11914
------------------
     ethr =  2.82E-11,  avg # of iterations =  5.7

     total cpu time spent up to now is      319.9 secs

     total energy              =    -263.34747693 Ry
     estimated scf accuracy    <          6.1E-09 Ry
[tb_dev] Currently allocated     2.67E-05 Mbytes, locked:    0 /   1
[tb_pin] Currently allocated     0.00E+00 Mbytes, locked:    0 /   0

     iteration # 21     ecut=    80.00 Ry     beta= 0.40
     Davidson diagonalization with overlap

---- Real-time Memory Report at c_bands before calling an iterative solver
          1363 MiB given to the printing process from OS
             0 MiB allocation reported by mallinfo(arena+hblkhd)
         14281 MiB available memory on the node where the printing process lives
     GPU memory used/free/total (MiB): 1333 / 10580 / 11914
------------------
     ethr =  1.46E-11,  avg # of iterations =  2.0

     total cpu time spent up to now is      330.0 secs

     total energy              =    -263.34747693 Ry
     estimated scf accuracy    <          2.6E-09 Ry
[tb_dev] Currently allocated     2.67E-05 Mbytes, locked:    0 /   1
[tb_pin] Currently allocated     0.00E+00 Mbytes, locked:    0 /   0

     iteration # 22     ecut=    80.00 Ry     beta= 0.40
     Davidson diagonalization with overlap

---- Real-time Memory Report at c_bands before calling an iterative solver
          1363 MiB given to the printing process from OS
             0 MiB allocation reported by mallinfo(arena+hblkhd)
         14276 MiB available memory on the node where the printing process lives
     GPU memory used/free/total (MiB): 1333 / 10580 / 11914
------------------
     ethr =  6.08E-12,  avg # of iterations =  5.8

     total cpu time spent up to now is      346.1 secs

     total energy              =    -263.34747693 Ry
     estimated scf accuracy    <          3.9E-10 Ry
[tb_dev] Currently allocated     2.67E-05 Mbytes, locked:    0 /   1
[tb_pin] Currently allocated     0.00E+00 Mbytes, locked:    0 /   0

     iteration # 23     ecut=    80.00 Ry     beta= 0.40
     Davidson diagonalization with overlap

---- Real-time Memory Report at c_bands before calling an iterative solver
          1363 MiB given to the printing process from OS
             0 MiB allocation reported by mallinfo(arena+hblkhd)
         14276 MiB available memory on the node where the printing process lives
     GPU memory used/free/total (MiB): 1333 / 10580 / 11914
------------------
     ethr =  9.30E-13,  avg # of iterations =  4.5

     total cpu time spent up to now is      361.0 secs

     total energy              =    -263.34747693 Ry
     estimated scf accuracy    <          6.1E-10 Ry
[tb_dev] Currently allocated     2.67E-05 Mbytes, locked:    0 /   1
[tb_pin] Currently allocated     0.00E+00 Mbytes, locked:    0 /   0

     iteration # 24     ecut=    80.00 Ry     beta= 0.40
     Davidson diagonalization with overlap

---- Real-time Memory Report at c_bands before calling an iterative solver
          1363 MiB given to the printing process from OS
             0 MiB allocation reported by mallinfo(arena+hblkhd)
         14267 MiB available memory on the node where the printing process lives
     GPU memory used/free/total (MiB): 1333 / 10580 / 11914
------------------
     ethr =  9.30E-13,  avg # of iterations =  1.3

     total cpu time spent up to now is      370.2 secs

     total energy              =    -263.34747693 Ry
     estimated scf accuracy    <          4.2E-10 Ry
[tb_dev] Currently allocated     2.67E-05 Mbytes, locked:    0 /   1
[tb_pin] Currently allocated     0.00E+00 Mbytes, locked:    0 /   0

     iteration # 25     ecut=    80.00 Ry     beta= 0.40
     Davidson diagonalization with overlap

---- Real-time Memory Report at c_bands before calling an iterative solver
          1363 MiB given to the printing process from OS
             0 MiB allocation reported by mallinfo(arena+hblkhd)
         14265 MiB available memory on the node where the printing process lives
     GPU memory used/free/total (MiB): 1333 / 10580 / 11914
------------------
     ethr =  9.30E-13,  avg # of iterations =  5.9

     total cpu time spent up to now is      386.7 secs

     total energy              =    -263.34747693 Ry
     estimated scf accuracy    <          1.3E-10 Ry
[tb_dev] Currently allocated     2.67E-05 Mbytes, locked:    0 /   1
[tb_pin] Currently allocated     0.00E+00 Mbytes, locked:    0 /   0

     iteration # 26     ecut=    80.00 Ry     beta= 0.40
     Davidson diagonalization with overlap

---- Real-time Memory Report at c_bands before calling an iterative solver
          1364 MiB given to the printing process from OS
             0 MiB allocation reported by mallinfo(arena+hblkhd)
         14266 MiB available memory on the node where the printing process lives
     GPU memory used/free/total (MiB): 1333 / 10580 / 11914
------------------
     ethr =  3.20E-13,  avg # of iterations =  1.1

     total cpu time spent up to now is      395.7 secs

     End of self-consistent calculation

          k = 0.0000 0.0000 0.0000 ( 14965 PWs)   bands (ev):

   -77.8390 -49.0612 -49.0443 -48.9891 -24.4282 -24.3435 -21.6966 -20.2966
   -13.9147 -11.2739  -9.3548  -9.3347  -9.2825  -9.2269  -9.1744  -8.8685
    -8.7860  -7.5471  -7.5259  -7.4479  -5.3638

     occupation numbers 
     1.0000   1.0000   1.0000   1.0000   1.0000   1.0000   1.0000   1.0000
     1.0000   1.0000   1.0000   1.0000   1.0000   1.0000   1.0000   1.0000
     1.0000   1.0000   1.0000   1.0000   1.0000

          k = 0.0000 0.1060 0.0000 ( 14925 PWs)   bands (ev):

   -77.8363 -49.0660 -49.0652 -48.9853 -24.2866 -24.2039 -21.5890 -20.2382
   -13.8031 -11.2225  -9.9081  -9.8245  -9.4673  -9.4278  -9.1581  -9.0308
    -8.7806  -7.7765  -7.6929  -7.2740  -5.4694

     occupation numbers 
     1.0000   1.0000   1.0000   1.0000   1.0000   1.0000   1.0000   1.0000
     1.0000   1.0000   1.0000   1.0000   1.0000   1.0000   1.0000   1.0000
     1.0000   1.0000   1.0000   1.0000   1.0000

          k = 0.0000 0.2120 0.0000 ( 14887 PWs)   bands (ev):

   -77.8292 -49.1209 -49.0791 -48.9752 -23.8737 -23.7968 -21.2935 -20.0808
   -13.5347 -11.3704 -11.1825 -10.9710  -9.8092  -9.7844  -9.6611  -8.9139
    -8.5240  -8.1688  -8.0413  -7.3596  -5.8293

     occupation numbers 
     1.0000   1.0000   1.0000   1.0000   1.0000   1.0000   1.0000   1.0000
     1.0000   1.0000   1.0000   1.0000   1.0000   1.0000   1.0000   1.0000
     1.0000   1.0000   1.0000   1.0000   1.0000

          k = 0.0000 0.3181 0.0000 ( 14849 PWs)   bands (ev):

   -77.8198 -49.1932 -49.0961 -48.9619 -23.2323 -23.1638 -20.8959 -19.8820
   -13.5610 -12.9052 -12.3102 -10.9082 -10.3298 -10.2184 -10.1908  -8.7805
    -8.5888  -8.4452  -8.1498  -7.5374  -6.2084

     occupation numbers 
     1.0000   1.0000   1.0000   1.0000   1.0000   1.0000   1.0000   1.0000
     1.0000   1.0000   1.0000   1.0000   1.0000   1.0000   1.0000   1.0000
     1.0000   1.0000   1.0000   1.0000   1.0000

          k = 0.0000 0.4241 0.0000 ( 14807 PWs)   bands (ev):

   -77.8111 -49.2591 -49.1117 -48.9497 -22.4658 -22.4076 -20.5498 -19.7460
   -14.5884 -14.3061 -12.3228 -11.1325 -10.7051 -10.5582 -10.5218  -9.1944
    -8.7611  -8.3493  -7.7909  -7.6191  -6.3322

     occupation numbers 
     1.0000   1.0000   1.0000   1.0000   1.0000   1.0000   1.0000   1.0000
     1.0000   1.0000   1.0000   1.0000   1.0000   1.0000   1.0000   1.0000
     1.0000   1.0000   1.0000   1.0000   1.0000

          k = 0.0000 0.5301 0.0000 ( 14854 PWs)   bands (ev):

   -77.8060 -49.2980 -49.1210 -48.9424 -21.8342 -21.7858 -20.4191 -19.7549
   -15.4069 -15.1535 -12.1479 -11.5251 -10.8450 -10.7456 -10.7041  -9.3393
    -8.9359  -8.1011  -7.6357  -7.5609  -6.2904

     occupation numbers 
     1.0000   1.0000   1.0000   1.0000   1.0000   1.0000   1.0000   1.0000
     1.0000   1.0000   1.0000   1.0000   1.0000   1.0000   1.0000   1.0000
     1.0000   1.0000   1.0000   1.0000   1.0000

          k = 0.0000-0.5301 0.0000 ( 14854 PWs)   bands (ev):

   -77.8060 -49.2980 -49.1210 -48.9424 -21.8342 -21.7858 -20.4191 -19.7549
   -15.4069 -15.1535 -12.1479 -11.5251 -10.8450 -10.7456 -10.7041  -9.3393
    -8.9359  -8.1011  -7.6357  -7.5609  -6.2904

     occupation numbers 
     1.0000   1.0000   1.0000   1.0000   1.0000   1.0000   1.0000   1.0000
     1.0000   1.0000   1.0000   1.0000   1.0000   1.0000   1.0000   1.0000
     1.0000   1.0000   1.0000   1.0000   1.0000

          k = 0.0000-0.4241 0.0000 ( 14807 PWs)   bands (ev):

   -77.8111 -49.2591 -49.1117 -48.9497 -22.4658 -22.4076 -20.5498 -19.7460
   -14.5884 -14.3061 -12.3228 -11.1325 -10.7051 -10.5582 -10.5218  -9.1944
    -8.7611  -8.3493  -7.7909  -7.6191  -6.3322

     occupation numbers 
     1.0000   1.0000   1.0000   1.0000   1.0000   1.0000   1.0000   1.0000
     1.0000   1.0000   1.0000   1.0000   1.0000   1.0000   1.0000   1.0000
     1.0000   1.0000   1.0000   1.0000   1.0000

          k = 0.0000-0.3181 0.0000 ( 14849 PWs)   bands (ev):

   -77.8198 -49.1932 -49.0961 -48.9619 -23.2323 -23.1638 -20.8959 -19.8820
   -13.5610 -12.9052 -12.3102 -10.9082 -10.3298 -10.2184 -10.1908  -8.7805
    -8.5888  -8.4452  -8.1498  -7.5374  -6.2084

     occupation numbers 
     1.0000   1.0000   1.0000   1.0000   1.0000   1.0000   1.0000   1.0000
     1.0000   1.0000   1.0000   1.0000   1.0000   1.0000   1.0000   1.0000
     1.0000   1.0000   1.0000   1.0000   1.0000

          k = 0.0000-0.2120 0.0000 ( 14887 PWs)   bands (ev):

   -77.8292 -49.1209 -49.0791 -48.9752 -23.8737 -23.7968 -21.2935 -20.0808
   -13.5347 -11.3704 -11.1825 -10.9710  -9.8092  -9.7844  -9.6611  -8.9139
    -8.5240  -8.1688  -8.0413  -7.3596  -5.8293

     occupation numbers 
     1.0000   1.0000   1.0000   1.0000   1.0000   1.0000   1.0000   1.0000
     1.0000   1.0000   1.0000   1.0000   1.0000   1.0000   1.0000   1.0000
     1.0000   1.0000   1.0000   1.0000   1.0000

          k = 0.0000-0.1060 0.0000 ( 14925 PWs)   bands (ev):

   -77.8363 -49.0660 -49.0652 -48.9853 -24.2866 -24.2039 -21.5890 -20.2382
   -13.8031 -11.2225  -9.9081  -9.8245  -9.4673  -9.4278  -9.1581  -9.0308
    -8.7806  -7.7765  -7.6929  -7.2740  -5.4694

     occupation numbers 
     1.0000   1.0000   1.0000   1.0000   1.0000   1.0000   1.0000   1.0000
     1.0000   1.0000   1.0000   1.0000   1.0000   1.0000   1.0000   1.0000
     1.0000   1.0000   1.0000   1.0000   1.0000

          k = 0.0909 0.0530 0.0000 ( 14931 PWs)   bands (ev):

   -77.8364 -49.0791 -49.0513 -48.9855 -24.2889 -24.2062 -21.5912 -20.2402
   -13.8057 -11.2249  -9.9825  -9.9086  -9.3776  -9.3382  -9.1764  -9.0796
    -8.7180  -7.7871  -7.6654  -7.2878  -5.4715

     occupation numbers 
     1.0000   1.0000   1.0000   1.0000   1.0000   1.0000   1.0000   1.0000
     1.0000   1.0000   1.0000   1.0000   1.0000   1.0000   1.0000   1.0000
     1.0000   1.0000   1.0000   1.0000   1.0000

          k = 0.0909 0.1590 0.0000 ( 14905 PWs)   bands (ev):

   -77.8315 -49.1079 -49.0697 -48.9785 -24.0115 -23.9327 -21.3895 -20.1322
   -13.6127 -11.1784 -10.7980 -10.7556  -9.8312  -9.7276  -9.3760  -8.9806
    -8.6095  -8.0693  -7.9296  -7.2686  -5.7144

     occupation numbers 
     1.0000   1.0000   1.0000   1.0000   1.0000   1.0000   1.0000   1.0000
     1.0000   1.0000   1.0000   1.0000   1.0000   1.0000   1.0000   1.0000
     1.0000   1.0000   1.0000   1.0000   1.0000

          k = 0.0909 0.2651 0.0000 ( 14877 PWs)   bands (ev):

   -77.8233 -49.1651 -49.0915 -48.9668 -23.4827 -23.4109 -21.0410 -19.9519
   -13.4195 -12.2244 -11.9166 -10.9234 -10.4792 -10.2913  -9.8649  -8.7768
    -8.6849  -8.3469  -8.0778  -7.4385  -6.0982

     occupation numbers 
     1.0000   1.0000   1.0000   1.0000   1.0000   1.0000   1.0000   1.0000
     1.0000   1.0000   1.0000   1.0000   1.0000   1.0000   1.0000   1.0000
     1.0000   1.0000   1.0000   1.0000   1.0000

          k = 0.0909 0.3711 0.0000 ( 14857 PWs)   bands (ev):

   -77.8142 -49.2294 -49.1127 -48.9540 -22.7702 -22.7077 -20.6635 -19.7785
   -14.0103 -13.6380 -12.3397 -11.1122 -10.8708 -10.6715 -10.3907  -9.3063
    -8.5385  -8.2882  -8.0626  -7.5909  -6.3307

     occupation numbers 
     1.0000   1.0000   1.0000   1.0000   1.0000   1.0000   1.0000   1.0000
     1.0000   1.0000   1.0000   1.0000   1.0000   1.0000   1.0000   1.0000
     1.0000   1.0000   1.0000   1.0000   1.0000

          k = 0.0909 0.4771 0.0000 ( 14846 PWs)   bands (ev):

   -77.8074 -49.2785 -49.1284 -48.9443 -22.0367 -21.9847 -20.4281 -19.7198
   -15.0031 -14.7433 -12.1868 -11.5055 -11.1501 -10.8778 -10.7162  -9.5119
    -8.7428  -8.1672  -7.9228  -7.5526  -6.2998

     occupation numbers 
     1.0000   1.0000   1.0000   1.0000   1.0000   1.0000   1.0000   1.0000
     1.0000   1.0000   1.0000   1.0000   1.0000   1.0000   1.0000   1.0000
     1.0000   1.0000   1.0000   1.0000   1.0000

          k = 0.0909 0.5831 0.0000 ( 14836 PWs)   bands (ev):

   -77.8048 -49.2968 -49.1342 -48.9406 -21.6706 -21.6235 -20.3949 -19.7534
   -15.4238 -15.1694 -12.0898 -11.6757 -11.1889 -11.1166 -10.8069  -9.4584
    -8.9352  -8.0471  -7.8540  -7.5218  -6.2325

     occupation numbers 
     1.0000   1.0000   1.0000   1.0000   1.0000   1.0000   1.0000   1.0000
     1.0000   1.0000   1.0000   1.0000   1.0000   1.0000   1.0000   1.0000
     1.0000   1.0000   1.0000   1.0000   1.0000

          k = 0.0909-0.4771 0.0000 ( 14846 PWs)   bands (ev):

   -77.8074 -49.2785 -49.1284 -48.9443 -22.0367 -21.9847 -20.4281 -19.7198
   -15.0031 -14.7433 -12.1868 -11.5055 -11.1499 -10.8779 -10.7164  -9.5113
    -8.7433  -8.1673  -7.9231  -7.5527  -6.2995

     occupation numbers 
     1.0000   1.0000   1.0000   1.0000   1.0000   1.0000   1.0000   1.0000
     1.0000   1.0000   1.0000   1.0000   1.0000   1.0000   1.0000   1.0000
     1.0000   1.0000   1.0000   1.0000   1.0000

          k = 0.0909-0.3711 0.0000 ( 14857 PWs)   bands (ev):

   -77.8142 -49.2294 -49.1127 -48.9540 -22.7702 -22.7077 -20.6635 -19.7785
   -14.0105 -13.6380 -12.3396 -11.1122 -10.8706 -10.6713 -10.3909  -9.3061
    -8.5383  -8.2883  -8.0628  -7.5912  -6.3304

     occupation numbers 
     1.0000   1.0000   1.0000   1.0000   1.0000   1.0000   1.0000   1.0000
     1.0000   1.0000   1.0000   1.0000   1.0000   1.0000   1.0000   1.0000
     1.0000   1.0000   1.0000   1.0000   1.0000

          k = 0.0909-0.2651 0.0000 ( 14877 PWs)   bands (ev):

   -77.8233 -49.1651 -49.0915 -48.9668 -23.4827 -23.4109 -21.0410 -19.9519
   -13.4196 -12.2246 -11.9167 -10.9234 -10.4790 -10.2911  -9.8651  -8.7767
    -8.6852  -8.3469  -8.0771  -7.4392  -6.0979

     occupation numbers 
     1.0000   1.0000   1.0000   1.0000   1.0000   1.0000   1.0000   1.0000
     1.0000   1.0000   1.0000   1.0000   1.0000   1.0000   1.0000   1.0000
     1.0000   1.0000   1.0000   1.0000   1.0000

          k = 0.0909-0.1590 0.0000 ( 14905 PWs)   bands (ev):

   -77.8315 -49.1079 -49.0697 -48.9785 -24.0115 -23.9327 -21.3895 -20.1322
   -13.6127 -11.1783 -10.7987 -10.7555  -9.8307  -9.7272  -9.3762  -8.9807
    -8.6093  -8.0698  -7.9288  -7.2692  -5.7142

     occupation numbers 
     1.0000   1.0000   1.0000   1.0000   1.0000   1.0000   1.0000   1.0000
     1.0000   1.0000   1.0000   1.0000   1.0000   1.0000   1.0000   1.0000
     1.0000   1.0000   1.0000   1.0000   1.0000

          k = 0.0909-0.0530 0.0000 ( 14931 PWs)   bands (ev):

   -77.8364 -49.0791 -49.0513 -48.9855 -24.2888 -24.2062 -21.5912 -20.2402
   -13.8057 -11.2249  -9.9829  -9.9089  -9.3769  -9.3381  -9.1765  -9.0797
    -8.7178  -7.7861  -7.6664  -7.2879  -5.4714

     occupation numbers 
     1.0000   1.0000   1.0000   1.0000   1.0000   1.0000   1.0000   1.0000
     1.0000   1.0000   1.0000   1.0000   1.0000   1.0000   1.0000   1.0000
     1.0000   1.0000   1.0000   1.0000   1.0000

          k = 0.1818 0.1060 0.0000 ( 14891 PWs)   bands (ev):

   -77.8296 -49.1320 -49.0648 -48.9757 -23.8827 -23.8057 -21.3019 -20.0887
   -13.5465 -11.4370 -11.2601 -10.9970  -9.7099  -9.6953  -9.6788  -8.9249
    -8.4668  -8.1752  -7.9974  -7.3778  -5.8354

     occupation numbers 
     1.0000   1.0000   1.0000   1.0000   1.0000   1.0000   1.0000   1.0000
     1.0000   1.0000   1.0000   1.0000   1.0000   1.0000   1.0000   1.0000
     1.0000   1.0000   1.0000   1.0000   1.0000

          k = 0.1818 0.2120 0.0000 ( 14881 PWs)   bands (ev):

   -77.8236 -49.1707 -49.0836 -48.9671 -23.4894 -23.4176 -21.0473 -19.9582
   -13.4350 -12.2787 -11.9617 -10.9330 -10.4281 -10.2190  -9.8601  -8.7814
    -8.6775  -8.3159  -8.0610  -7.4451  -6.1029

     occupation numbers 
     1.0000   1.0000   1.0000   1.0000   1.0000   1.0000   1.0000   1.0000
     1.0000   1.0000   1.0000   1.0000   1.0000   1.0000   1.0000   1.0000
     1.0000   1.0000   1.0000   1.0000   1.0000

          k = 0.1818 0.3181 0.0000 ( 14870 PWs)   bands (ev):

   -77.8157 -49.2160 -49.1133 -48.9560 -22.8843 -22.8203 -20.7143 -19.7984
   -13.7312 -13.2406 -12.2449 -11.3607 -11.2061 -10.6902 -10.2191  -9.4285
    -8.5459  -8.3073  -7.9126  -7.6498  -6.3368

     occupation numbers 
     1.0000   1.0000   1.0000   1.0000   1.0000   1.0000   1.0000   1.0000
     1.0000   1.0000   1.0000   1.0000   1.0000   1.0000   1.0000   1.0000
     1.0000   1.0000   1.0000   1.0000   1.0000

          k = 0.1818 0.4241 0.0000 ( 14842 PWs)   bands (ev):

   -77.8084 -49.2543 -49.1437 -48.9457 -22.1744 -22.1198 -20.4400 -19.6961
   -14.4704 -14.1695 -12.2496 -12.0280 -11.8480 -10.6769 -10.5612  -9.8369
    -8.5690  -8.4294  -8.0006  -7.5944  -6.3256

     occupation numbers 
     1.0000   1.0000   1.0000   1.0000   1.0000   1.0000   1.0000   1.0000
     1.0000   1.0000   1.0000   1.0000   1.0000   1.0000   1.0000   1.0000
     1.0000   1.0000   1.0000   1.0000   1.0000

          k = 0.1818 0.5301 0.0000 ( 14851 PWs)   bands (ev):

   -77.8041 -49.2759 -49.1629 -48.9395 -21.6064 -21.5588 -20.3492 -19.7080
   -15.0549 -14.7913 -12.5558 -12.3920 -11.6142 -11.0475 -10.8182  -9.6495
    -8.9261  -8.5814  -7.9373  -7.4313  -6.1630

     occupation numbers 
     1.0000   1.0000   1.0000   1.0000   1.0000   1.0000   1.0000   1.0000
     1.0000   1.0000   1.0000   1.0000   1.0000   1.0000   1.0000   1.0000
     1.0000   1.0000   1.0000   1.0000   1.0000

          k = 0.1818 0.6361 0.0000 ( 14851 PWs)   bands (ev):

   -77.8041 -49.2759 -49.1629 -48.9395 -21.6064 -21.5588 -20.3492 -19.7080
   -15.0550 -14.7913 -12.5558 -12.3919 -11.6141 -11.0476 -10.8185  -9.6489
    -8.9264  -8.5813  -7.9377  -7.4312  -6.1628

     occupation numbers 
     1.0000   1.0000   1.0000   1.0000   1.0000   1.0000   1.0000   1.0000
     1.0000   1.0000   1.0000   1.0000   1.0000   1.0000   1.0000   1.0000
     1.0000   1.0000   1.0000   1.0000   1.0000

          k = 0.1818-0.4241 0.0000 ( 14842 PWs)   bands (ev):

   -77.8084 -49.2543 -49.1437 -48.9457 -22.1743 -22.1197 -20.4401 -19.6961
   -14.4706 -14.1695 -12.2494 -12.0278 -11.8479 -10.6771 -10.5616  -9.8363
    -8.5690  -8.4291  -8.0017  -7.5943  -6.3252

     occupation numbers 
     1.0000   1.0000   1.0000   1.0000   1.0000   1.0000   1.0000   1.0000
     1.0000   1.0000   1.0000   1.0000   1.0000   1.0000   1.0000   1.0000
     1.0000   1.0000   1.0000   1.0000   1.0000

          k = 0.1818-0.3181 0.0000 ( 14870 PWs)   bands (ev):

   -77.8157 -49.2161 -49.1133 -48.9560 -22.8843 -22.8203 -20.7144 -19.7984
   -13.7315 -13.2407 -12.2449 -11.3604 -11.2058 -10.6900 -10.2194  -9.4285
    -8.5459  -8.3072  -7.9125  -7.6507  -6.3363

     occupation numbers 
     1.0000   1.0000   1.0000   1.0000   1.0000   1.0000   1.0000   1.0000
     1.0000   1.0000   1.0000   1.0000   1.0000   1.0000   1.0000   1.0000
     1.0000   1.0000   1.0000   1.0000   1.0000

          k = 0.1818-0.2120 0.0000 ( 14881 PWs)   bands (ev):

   -77.8236 -49.1707 -49.0836 -48.9671 -23.4894 -23.4176 -21.0473 -19.9582
   -13.4352 -12.2789 -11.9618 -10.9328 -10.4278 -10.2185  -9.8603  -8.7812
    -8.6778  -8.3158  -8.0606  -7.4458  -6.1025

     occupation numbers 
     1.0000   1.0000   1.0000   1.0000   1.0000   1.0000   1.0000   1.0000
     1.0000   1.0000   1.0000   1.0000   1.0000   1.0000   1.0000   1.0000
     1.0000   1.0000   1.0000   1.0000   1.0000

          k = 0.1818-0.1060 0.0000 ( 14891 PWs)   bands (ev):

   -77.8296 -49.1320 -49.0648 -48.9757 -23.8827 -23.8057 -21.3019 -20.0887
   -13.5465 -11.4371 -11.2603 -10.9969  -9.7094  -9.6952  -9.6789  -8.9248
    -8.4667  -8.1743  -7.9983  -7.3782  -5.8351

     occupation numbers 
     1.0000   1.0000   1.0000   1.0000   1.0000   1.0000   1.0000   1.0000
     1.0000   1.0000   1.0000   1.0000   1.0000   1.0000   1.0000   1.0000
     1.0000   1.0000   1.0000   1.0000   1.0000

          k = 0.1818-0.0000 0.0000 ( 14895 PWs)   bands (ev):

   -77.8318 -49.1158 -49.0594 -48.9789 -24.0181 -23.9393 -21.3957 -20.1377
   -13.6201 -11.1911 -10.8422 -10.7954  -9.8080  -9.6743  -9.3742  -8.9882
    -8.5659  -8.0561  -7.9167  -7.2828  -5.7169

     occupation numbers 
     1.0000   1.0000   1.0000   1.0000   1.0000   1.0000   1.0000   1.0000
     1.0000   1.0000   1.0000   1.0000   1.0000   1.0000   1.0000   1.0000
     1.0000   1.0000   1.0000   1.0000   1.0000

          k = 0.2727 0.1590 0.0000 ( 14858 PWs)   bands (ev):

   -77.8206 -49.2021 -49.0811 -48.9628 -23.2517 -23.1832 -20.9133 -19.8993
   -13.6115 -12.9817 -12.3483 -10.9277 -10.3600 -10.0969 -10.0696  -8.7932
    -8.5911  -8.3863  -8.0928  -7.5574  -6.2165

     occupation numbers 
     1.0000   1.0000   1.0000   1.0000   1.0000   1.0000   1.0000   1.0000
     1.0000   1.0000   1.0000   1.0000   1.0000   1.0000   1.0000   1.0000
     1.0000   1.0000   1.0000   1.0000   1.0000

          k = 0.2727 0.2651 0.0000 ( 14847 PWs)   bands (ev):

   -77.8150 -49.2362 -49.1005 -48.9548 -22.7875 -22.7251 -20.6792 -19.7951
   -14.0720 -13.7070 -12.3549 -11.0816 -10.7961 -10.6214 -10.3694  -9.2933
    -8.5406  -8.2533  -8.0168  -7.6052  -6.3410

     occupation numbers 
     1.0000   1.0000   1.0000   1.0000   1.0000   1.0000   1.0000   1.0000
     1.0000   1.0000   1.0000   1.0000   1.0000   1.0000   1.0000   1.0000
     1.0000   1.0000   1.0000   1.0000   1.0000

          k = 0.2727 0.3711 0.0000 ( 14867 PWs)   bands (ev):

   -77.8088 -49.2584 -49.1367 -48.9461 -22.1853 -22.1307 -20.4497 -19.7067
   -14.5114 -14.2132 -12.2287 -11.9834 -11.7968 -10.6842 -10.5701  -9.8270
    -8.5454  -8.4260  -7.9864  -7.6014  -6.3330

     occupation numbers 
     1.0000   1.0000   1.0000   1.0000   1.0000   1.0000   1.0000   1.0000
     1.0000   1.0000   1.0000   1.0000   1.0000   1.0000   1.0000   1.0000
     1.0000   1.0000   1.0000   1.0000   1.0000

          k = 0.2727 0.4771 0.0000 ( 14862 PWs)   bands (ev):

   -77.8041 -49.2608 -49.1788 -48.9395 -21.6058 -21.5579 -20.3305 -19.6862
   -14.7214 -14.4242 -13.0898 -12.9556 -11.6557 -10.8665 -10.6515  -9.8252
    -9.2054  -8.6420  -7.9564  -7.4137  -6.1393

     occupation numbers 
     1.0000   1.0000   1.0000   1.0000   1.0000   1.0000   1.0000   1.0000
     1.0000   1.0000   1.0000   1.0000   1.0000   1.0000   1.0000   1.0000
     1.0000   1.0000   1.0000   1.0000   1.0000

          k = 0.2727 0.5831 0.0000 ( 14822 PWs)   bands (ev):

   -77.8024 -49.2533 -49.2028 -48.9370 -21.3409 -21.2907 -20.3229 -19.7045
   -14.7382 -14.4265 -13.5283 -13.4398 -11.3736 -11.0318 -10.7000  -9.7930
    -9.3848  -8.9450  -7.8905  -7.3151  -5.9967

     occupation numbers 
     1.0000   1.0000   1.0000   1.0000   1.0000   1.0000   1.0000   1.0000
     1.0000   1.0000   1.0000   1.0000   1.0000   1.0000   1.0000   1.0000
     1.0000   1.0000   1.0000   1.0000   1.0000

          k = 0.2727 0.6891 0.0000 ( 14862 PWs)   bands (ev):

   -77.8041 -49.2608 -49.1788 -48.9395 -21.6057 -21.5578 -20.3307 -19.6863
   -14.7216 -14.4242 -13.0894 -12.9555 -11.6557 -10.8669 -10.6518  -9.8246
    -9.2051  -8.6423  -7.9572  -7.4136  -6.1390

     occupation numbers 
     1.0000   1.0000   1.0000   1.0000   1.0000   1.0000   1.0000   1.0000
     1.0000   1.0000   1.0000   1.0000   1.0000   1.0000   1.0000   1.0000
     1.0000   1.0000   1.0000   1.0000   1.0000

          k = 0.2727-0.3711 0.0000 ( 14867 PWs)   bands (ev):

   -77.8088 -49.2584 -49.1366 -48.9461 -22.1852 -22.1306 -20.4499 -19.7068
   -14.5117 -14.2132 -12.2285 -11.9832 -11.7968 -10.6845 -10.5701  -9.8266
    -8.5451  -8.4260  -7.9876  -7.6013  -6.3325

     occupation numbers 
     1.0000   1.0000   1.0000   1.0000   1.0000   1.0000   1.0000   1.0000
     1.0000   1.0000   1.0000   1.0000   1.0000   1.0000   1.0000   1.0000
     1.0000   1.0000   1.0000   1.0000   1.0000

          k = 0.2727-0.2651 0.0000 ( 14847 PWs)   bands (ev):

   -77.8150 -49.2363 -49.1004 -48.9548 -22.7875 -22.7250 -20.6793 -19.7952
   -14.0723 -13.7070 -12.3550 -11.0815 -10.7960 -10.6208 -10.3696  -9.2932
    -8.5406  -8.2537  -8.0170  -7.6055  -6.3405

     occupation numbers 
     1.0000   1.0000   1.0000   1.0000   1.0000   1.0000   1.0000   1.0000
     1.0000   1.0000   1.0000   1.0000   1.0000   1.0000   1.0000   1.0000
     1.0000   1.0000   1.0000   1.0000   1.0000

          k = 0.2727-0.1590 0.0000 ( 14858 PWs)   bands (ev):

   -77.8206 -49.2021 -49.0810 -48.9629 -23.2517 -23.1831 -20.9135 -19.8993
   -13.6117 -12.9818 -12.3483 -10.9275 -10.3601 -10.0962 -10.0697  -8.7927
    -8.5912  -8.3869  -8.0928  -7.5577  -6.2161

     occupation numbers 
     1.0000   1.0000   1.0000   1.0000   1.0000   1.0000   1.0000   1.0000
     1.0000   1.0000   1.0000   1.0000   1.0000   1.0000   1.0000   1.0000
     1.0000   1.0000   1.0000   1.0000   1.0000

          k = 0.2727-0.0530 0.0000 ( 14860 PWs)   bands (ev):

   -77.8240 -49.1734 -49.0779 -48.9676 -23.4998 -23.4279 -21.0561 -19.9658
   -13.4440 -12.2810 -11.9606 -10.9340 -10.4346 -10.2168  -9.8492  -8.7850
    -8.6684  -8.3048  -8.0473  -7.4598  -6.0998

     occupation numbers 
     1.0000   1.0000   1.0000   1.0000   1.0000   1.0000   1.0000   1.0000
     1.0000   1.0000   1.0000   1.0000   1.0000   1.0000   1.0000   1.0000
     1.0000   1.0000   1.0000   1.0000   1.0000

          k = 0.2727 0.0530 0.0000 ( 14860 PWs)   bands (ev):

   -77.8240 -49.1734 -49.0779 -48.9676 -23.4998 -23.4279 -21.0561 -19.9658
   -13.4439 -12.2810 -11.9605 -10.9341 -10.4347 -10.2169  -9.8492  -8.7851
    -8.6684  -8.3048  -8.0470  -7.4597  -6.1000

     occupation numbers 
     1.0000   1.0000   1.0000   1.0000   1.0000   1.0000   1.0000   1.0000
     1.0000   1.0000   1.0000   1.0000   1.0000   1.0000   1.0000   1.0000
     1.0000   1.0000   1.0000   1.0000   1.0000

          k = 0.3636 0.2120 0.0000 ( 14845 PWs)   bands (ev):

   -77.8124 -49.2662 -49.0958 -48.9510 -22.4980 -22.4400 -20.5771 -19.7744
   -14.6547 -14.3709 -12.3324 -11.1623 -10.7222 -10.4238 -10.3874  -9.2039
    -8.6887  -8.3666  -7.7326  -7.6398  -6.3431

     occupation numbers 
     1.0000   1.0000   1.0000   1.0000   1.0000   1.0000   1.0000   1.0000
     1.0000   1.0000   1.0000   1.0000   1.0000   1.0000   1.0000   1.0000
     1.0000   1.0000   1.0000   1.0000   1.0000

          k = 0.3636 0.3181 0.0000 ( 14867 PWs)   bands (ev):

   -77.8085 -49.2850 -49.1138 -48.9455 -22.0674 -22.0157 -20.4540 -19.7479
   -15.0661 -14.8042 -12.1879 -11.4809 -11.0473 -10.8073 -10.7069  -9.5077
    -8.7039  -8.1727  -7.8767  -7.5587  -6.3172

     occupation numbers 
     1.0000   1.0000   1.0000   1.0000   1.0000   1.0000   1.0000   1.0000
     1.0000   1.0000   1.0000   1.0000   1.0000   1.0000   1.0000   1.0000
     1.0000   1.0000   1.0000   1.0000   1.0000

          k = 0.3636 0.4241 0.0000 ( 14868 PWs)   bands (ev):

   -77.8049 -49.2817 -49.1513 -48.9404 -21.6320 -21.5847 -20.3680 -19.7284
   -15.1062 -14.8414 -12.4813 -12.3088 -11.6019 -11.0625 -10.8124  -9.6432
    -8.9044  -8.5530  -7.9469  -7.4339  -6.1736

     occupation numbers 
     1.0000   1.0000   1.0000   1.0000   1.0000   1.0000   1.0000   1.0000
     1.0000   1.0000   1.0000   1.0000   1.0000   1.0000   1.0000   1.0000
     1.0000   1.0000   1.0000   1.0000   1.0000

          k = 0.3636 0.5301 0.0000 ( 14847 PWs)   bands (ev):

   -77.8028 -49.2584 -49.1950 -48.9374 -21.3566 -21.3068 -20.3305 -19.7127
   -14.7704 -14.4630 -13.4786 -13.3855 -11.3767 -11.0284 -10.7071  -9.7760
    -9.3753  -8.9514  -7.8978  -7.3152  -5.9950

     occupation numbers 
     1.0000   1.0000   1.0000   1.0000   1.0000   1.0000   1.0000   1.0000
     1.0000   1.0000   1.0000   1.0000   1.0000   1.0000   1.0000   1.0000
     1.0000   1.0000   1.0000   1.0000   1.0000

          k = 0.3636 0.6361 0.0000 ( 14847 PWs)   bands (ev):

   -77.8028 -49.2585 -49.1950 -48.9374 -21.3565 -21.3066 -20.3307 -19.7128
   -14.7706 -14.4630 -13.4783 -13.3855 -11.3768 -11.0285 -10.7073  -9.7758
    -9.3747  -8.9518  -7.8981  -7.3151  -5.9949

     occupation numbers 
     1.0000   1.0000   1.0000   1.0000   1.0000   1.0000   1.0000   1.0000
     1.0000   1.0000   1.0000   1.0000   1.0000   1.0000   1.0000   1.0000
     1.0000   1.0000   1.0000   1.0000   1.0000

          k = 0.3636 0.7422 0.0000 ( 14868 PWs)   bands (ev):

   -77.8049 -49.2817 -49.1513 -48.9404 -21.6318 -21.5845 -20.3684 -19.7286
   -15.1064 -14.8412 -12.4810 -12.3086 -11.6021 -11.0627 -10.8125  -9.6426
    -8.9044  -8.5532  -7.9477  -7.4339  -6.1733

     occupation numbers 
     1.0000   1.0000   1.0000   1.0000   1.0000   1.0000   1.0000   1.0000
     1.0000   1.0000   1.0000   1.0000   1.0000   1.0000   1.0000   1.0000
     1.0000   1.0000   1.0000   1.0000   1.0000

          k = 0.3636-0.3181 0.0000 ( 14867 PWs)   bands (ev):

   -77.8085 -49.2850 -49.1138 -48.9455 -22.0672 -22.0155 -20.4543 -19.7480
   -15.0663 -14.8041 -12.1881 -11.4808 -11.0470 -10.8073 -10.7067  -9.5072
    -8.7043  -8.1730  -7.8771  -7.5589  -6.3168

     occupation numbers 
     1.0000   1.0000   1.0000   1.0000   1.0000   1.0000   1.0000   1.0000
     1.0000   1.0000   1.0000   1.0000   1.0000   1.0000   1.0000   1.0000
     1.0000   1.0000   1.0000   1.0000   1.0000

          k = 0.3636-0.2120 0.0000 ( 14845 PWs)   bands (ev):

   -77.8124 -49.2662 -49.0957 -48.9510 -22.4979 -22.4399 -20.5773 -19.7745
   -14.6550 -14.3708 -12.3326 -11.1623 -10.7218 -10.4233 -10.3874  -9.2037
    -8.6892  -8.3668  -7.7328  -7.6400  -6.3427

     occupation numbers 
     1.0000   1.0000   1.0000   1.0000   1.0000   1.0000   1.0000   1.0000
     1.0000   1.0000   1.0000   1.0000   1.0000   1.0000   1.0000   1.0000
     1.0000   1.0000   1.0000   1.0000   1.0000

          k = 0.3636-0.1060 0.0000 ( 14868 PWs)   bands (ev):

   -77.8154 -49.2361 -49.0979 -48.9553 -22.7999 -22.7373 -20.6878 -19.8019
   -14.0635 -13.6926 -12.3544 -11.0815 -10.7987 -10.6308 -10.3672  -9.2807
    -8.5464  -8.2609  -8.0277  -7.6083  -6.3286

     occupation numbers 
     1.0000   1.0000   1.0000   1.0000   1.0000   1.0000   1.0000   1.0000
     1.0000   1.0000   1.0000   1.0000   1.0000   1.0000   1.0000   1.0000
     1.0000   1.0000   1.0000   1.0000   1.0000

          k = 0.3636 0.0000 0.0000 ( 14884 PWs)   bands (ev):

   -77.8165 -49.2193 -49.1043 -48.9569 -22.9072 -22.8431 -20.7318 -19.8137
   -13.7464 -13.2502 -12.2496 -11.3368 -11.1793 -10.6976 -10.2067  -9.4078
    -8.5590  -8.3005  -7.8918  -7.6733  -6.3256

     occupation numbers 
     1.0000   1.0000   1.0000   1.0000   1.0000   1.0000   1.0000   1.0000
     1.0000   1.0000   1.0000   1.0000   1.0000   1.0000   1.0000   1.0000
     1.0000   1.0000   1.0000   1.0000   1.0000

          k = 0.3636 0.1060 0.0000 ( 14868 PWs)   bands (ev):

   -77.8154 -49.2361 -49.0979 -48.9553 -22.7999 -22.7374 -20.6877 -19.8019
   -14.0633 -13.6927 -12.3544 -11.0816 -10.7987 -10.6312 -10.3673  -9.2806
    -8.5463  -8.2606  -8.0277  -7.6082  -6.3288

     occupation numbers 
     1.0000   1.0000   1.0000   1.0000   1.0000   1.0000   1.0000   1.0000
     1.0000   1.0000   1.0000   1.0000   1.0000   1.0000   1.0000   1.0000
     1.0000   1.0000   1.0000   1.0000   1.0000

          k = 0.4545 0.2651 0.0000 ( 14872 PWs)   bands (ev):

   -77.8075 -49.3040 -49.1045 -48.9440 -21.8777 -21.8296 -20.4526 -19.7908
   -15.4634 -15.2066 -12.1576 -11.5503 -10.8492 -10.6046 -10.5627  -9.3636
    -8.8563  -8.1281  -7.6563  -7.4984  -6.3064

     occupation numbers 
     1.0000   1.0000   1.0000   1.0000   1.0000   1.0000   1.0000   1.0000
     1.0000   1.0000   1.0000   1.0000   1.0000   1.0000   1.0000   1.0000
     1.0000   1.0000   1.0000   1.0000   1.0000

          k = 0.4545 0.3711 0.0000 ( 14873 PWs)   bands (ev):

   -77.8061 -49.3027 -49.1186 -48.9421 -21.7131 -21.6664 -20.4257 -19.7864
   -15.4766 -15.2191 -12.0849 -11.6620 -11.1001 -11.0258 -10.7826  -9.4586
    -8.8988  -8.0535  -7.8227  -7.5249  -6.2455

     occupation numbers 
     1.0000   1.0000   1.0000   1.0000   1.0000   1.0000   1.0000   1.0000
     1.0000   1.0000   1.0000   1.0000   1.0000   1.0000   1.0000   1.0000
     1.0000   1.0000   1.0000   1.0000   1.0000

          k = 0.4545 0.4771 0.0000 ( 14858 PWs)   bands (ev):

   -77.8051 -49.2813 -49.1501 -48.9407 -21.6437 -21.5964 -20.3714 -19.7308
   -15.0963 -14.8304 -12.4854 -12.3115 -11.6007 -11.0555 -10.8093  -9.6305
    -8.9212  -8.5609  -7.9568  -7.4304  -6.1596

     occupation numbers 
     1.0000   1.0000   1.0000   1.0000   1.0000   1.0000   1.0000   1.0000
     1.0000   1.0000   1.0000   1.0000   1.0000   1.0000   1.0000   1.0000
     1.0000   1.0000   1.0000   1.0000   1.0000

          k = 0.4545 0.5831 0.0000 ( 14842 PWs)   bands (ev):

   -77.8047 -49.2632 -49.1720 -48.9402 -21.6322 -21.5844 -20.3423 -19.6969
   -14.7272 -14.4277 -13.0620 -12.9277 -11.6594 -10.8594 -10.6336  -9.8164
    -9.2109  -8.6554  -7.9721  -7.4095  -6.1225

     occupation numbers 
     1.0000   1.0000   1.0000   1.0000   1.0000   1.0000   1.0000   1.0000
     1.0000   1.0000   1.0000   1.0000   1.0000   1.0000   1.0000   1.0000
     1.0000   1.0000   1.0000   1.0000   1.0000

          k = 0.4545 0.6891 0.0000 ( 14858 PWs)   bands (ev):

   -77.8051 -49.2813 -49.1501 -48.9407 -21.6436 -21.5962 -20.3717 -19.7310
   -15.0964 -14.8303 -12.4852 -12.3114 -11.6010 -11.0555 -10.8092  -9.6305
    -8.9208  -8.5613  -7.9572  -7.4304  -6.1595

     occupation numbers 
     1.0000   1.0000   1.0000   1.0000   1.0000   1.0000   1.0000   1.0000
     1.0000   1.0000   1.0000   1.0000   1.0000   1.0000   1.0000   1.0000
     1.0000   1.0000   1.0000   1.0000   1.0000

          k = 0.4545 0.7952 0.0000 ( 14873 PWs)   bands (ev):

   -77.8061 -49.3027 -49.1186 -48.9421 -21.7129 -21.6661 -20.4261 -19.7866
   -15.4768 -15.2189 -12.0853 -11.6620 -11.0997 -11.0259 -10.7823  -9.4582
    -8.8991  -8.0536  -7.8231  -7.5251  -6.2452

     occupation numbers 
     1.0000   1.0000   1.0000   1.0000   1.0000   1.0000   1.0000   1.0000
     1.0000   1.0000   1.0000   1.0000   1.0000   1.0000   1.0000   1.0000
     1.0000   1.0000   1.0000   1.0000   1.0000

          k = 0.4545-0.2651 0.0000 ( 14872 PWs)   bands (ev):

   -77.8075 -49.3040 -49.1044 -48.9440 -21.8775 -21.8294 -20.4530 -19.7909
   -15.4635 -15.2064 -12.1580 -11.5503 -10.8488 -10.6040 -10.5626  -9.3632
    -8.8568  -8.1282  -7.6567  -7.4986  -6.3060

     occupation numbers 
     1.0000   1.0000   1.0000   1.0000   1.0000   1.0000   1.0000   1.0000
     1.0000   1.0000   1.0000   1.0000   1.0000   1.0000   1.0000   1.0000
     1.0000   1.0000   1.0000   1.0000   1.0000

          k = 0.4545-0.1590 0.0000 ( 14868 PWs)   bands (ev):

   -77.8087 -49.2843 -49.1129 -48.9458 -22.0776 -22.0257 -20.4585 -19.7508
   -15.0553 -14.7920 -12.1908 -11.4749 -11.0473 -10.8171 -10.7070  -9.4919
    -8.7232  -8.1792  -7.8889  -7.5585  -6.2999

     occupation numbers 
     1.0000   1.0000   1.0000   1.0000   1.0000   1.0000   1.0000   1.0000
     1.0000   1.0000   1.0000   1.0000   1.0000   1.0000   1.0000   1.0000
     1.0000   1.0000   1.0000   1.0000   1.0000

          k = 0.4545-0.0530 0.0000 ( 14874 PWs)   bands (ev):

   -77.8094 -49.2584 -49.1323 -48.9468 -22.2086 -22.1539 -20.4628 -19.7172
   -14.4984 -14.1951 -12.2318 -11.9785 -11.7987 -10.6803 -10.5566  -9.8105
    -8.5700  -8.4302  -8.0109  -7.5930  -6.3107

     occupation numbers 
     1.0000   1.0000   1.0000   1.0000   1.0000   1.0000   1.0000   1.0000
     1.0000   1.0000   1.0000   1.0000   1.0000   1.0000   1.0000   1.0000
     1.0000   1.0000   1.0000   1.0000   1.0000

          k = 0.4545 0.0530 0.0000 ( 14874 PWs)   bands (ev):

   -77.8094 -49.2584 -49.1323 -48.9468 -22.2086 -22.1539 -20.4627 -19.7172
   -14.4983 -14.1951 -12.2318 -11.9786 -11.7986 -10.6803 -10.5569  -9.8103
    -8.5703  -8.4300  -8.0108  -7.5930  -6.3107

     occupation numbers 
     1.0000   1.0000   1.0000   1.0000   1.0000   1.0000   1.0000   1.0000
     1.0000   1.0000   1.0000   1.0000   1.0000   1.0000   1.0000   1.0000
     1.0000   1.0000   1.0000   1.0000   1.0000

          k = 0.4545 0.1590 0.0000 ( 14868 PWs)   bands (ev):

   -77.8087 -49.2843 -49.1129 -48.9458 -22.0777 -22.0259 -20.4583 -19.7507
   -15.0551 -14.7921 -12.1906 -11.4750 -11.0474 -10.8172 -10.7075  -9.4918
    -8.7232  -8.1790  -7.8888  -7.5583  -6.3000

     occupation numbers 
     1.0000   1.0000   1.0000   1.0000   1.0000   1.0000   1.0000   1.0000
     1.0000   1.0000   1.0000   1.0000   1.0000   1.0000   1.0000   1.0000
     1.0000   1.0000   1.0000   1.0000   1.0000

          k =-0.4545-0.2651 0.0000 ( 14872 PWs)   bands (ev):

   -77.8075 -49.3040 -49.1045 -48.9440 -21.8777 -21.8296 -20.4526 -19.7908
   -15.4634 -15.2066 -12.1576 -11.5503 -10.8492 -10.6046 -10.5627  -9.3636
    -8.8563  -8.1281  -7.6563  -7.4984  -6.3064

     occupation numbers 
     1.0000   1.0000   1.0000   1.0000   1.0000   1.0000   1.0000   1.0000
     1.0000   1.0000   1.0000   1.0000   1.0000   1.0000   1.0000   1.0000
     1.0000   1.0000   1.0000   1.0000   1.0000

          k =-0.4545-0.1590 0.0000 ( 14868 PWs)   bands (ev):

   -77.8087 -49.2843 -49.1129 -48.9458 -22.0777 -22.0259 -20.4583 -19.7507
   -15.0551 -14.7921 -12.1906 -11.4750 -11.0474 -10.8172 -10.7075  -9.4918
    -8.7232  -8.1790  -7.8888  -7.5583  -6.3000

     occupation numbers 
     1.0000   1.0000   1.0000   1.0000   1.0000   1.0000   1.0000   1.0000
     1.0000   1.0000   1.0000   1.0000   1.0000   1.0000   1.0000   1.0000
     1.0000   1.0000   1.0000   1.0000   1.0000

          k =-0.4545-0.0530 0.0000 ( 14874 PWs)   bands (ev):

   -77.8094 -49.2584 -49.1323 -48.9468 -22.2086 -22.1539 -20.4627 -19.7172
   -14.4983 -14.1951 -12.2318 -11.9786 -11.7986 -10.6803 -10.5569  -9.8103
    -8.5703  -8.4300  -8.0108  -7.5930  -6.3107

     occupation numbers 
     1.0000   1.0000   1.0000   1.0000   1.0000   1.0000   1.0000   1.0000
     1.0000   1.0000   1.0000   1.0000   1.0000   1.0000   1.0000   1.0000
     1.0000   1.0000   1.0000   1.0000   1.0000

          k =-0.4545 0.0530 0.0000 ( 14874 PWs)   bands (ev):

   -77.8094 -49.2584 -49.1323 -48.9468 -22.2086 -22.1539 -20.4628 -19.7172
   -14.4984 -14.1951 -12.2318 -11.9785 -11.7987 -10.6803 -10.5566  -9.8105
    -8.5700  -8.4302  -8.0109  -7.5930  -6.3107

     occupation numbers 
     1.0000   1.0000   1.0000   1.0000   1.0000   1.0000   1.0000   1.0000
     1.0000   1.0000   1.0000   1.0000   1.0000   1.0000   1.0000   1.0000
     1.0000   1.0000   1.0000   1.0000   1.0000

          k =-0.4545 0.1590 0.0000 ( 14868 PWs)   bands (ev):

   -77.8087 -49.2843 -49.1129 -48.9458 -22.0776 -22.0257 -20.4585 -19.7508
   -15.0553 -14.7920 -12.1908 -11.4749 -11.0473 -10.8171 -10.7070  -9.4919
    -8.7232  -8.1792  -7.8889  -7.5585  -6.2999

     occupation numbers 
     1.0000   1.0000   1.0000   1.0000   1.0000   1.0000   1.0000   1.0000
     1.0000   1.0000   1.0000   1.0000   1.0000   1.0000   1.0000   1.0000
     1.0000   1.0000   1.0000   1.0000   1.0000

          k =-0.4545 0.2651 0.0000 ( 14872 PWs)   bands (ev):

   -77.8075 -49.3040 -49.1044 -48.9440 -21.8775 -21.8294 -20.4530 -19.7909
   -15.4635 -15.2064 -12.1580 -11.5503 -10.8488 -10.6040 -10.5626  -9.3632
    -8.8568  -8.1282  -7.6567  -7.4986  -6.3060

     occupation numbers 
     1.0000   1.0000   1.0000   1.0000   1.0000   1.0000   1.0000   1.0000
     1.0000   1.0000   1.0000   1.0000   1.0000   1.0000   1.0000   1.0000
     1.0000   1.0000   1.0000   1.0000   1.0000

          k =-0.4545-0.7952 0.0000 ( 14873 PWs)   bands (ev):

   -77.8061 -49.3027 -49.1186 -48.9421 -21.7129 -21.6661 -20.4261 -19.7866
   -15.4768 -15.2189 -12.0853 -11.6620 -11.0997 -11.0259 -10.7823  -9.4582
    -8.8991  -8.0536  -7.8231  -7.5251  -6.2452

     occupation numbers 
     1.0000   1.0000   1.0000   1.0000   1.0000   1.0000   1.0000   1.0000
     1.0000   1.0000   1.0000   1.0000   1.0000   1.0000   1.0000   1.0000
     1.0000   1.0000   1.0000   1.0000   1.0000

          k =-0.4545-0.6891 0.0000 ( 14858 PWs)   bands (ev):

   -77.8051 -49.2813 -49.1501 -48.9407 -21.6436 -21.5962 -20.3717 -19.7310
   -15.0964 -14.8303 -12.4852 -12.3114 -11.6010 -11.0555 -10.8092  -9.6305
    -8.9208  -8.5613  -7.9572  -7.4304  -6.1595

     occupation numbers 
     1.0000   1.0000   1.0000   1.0000   1.0000   1.0000   1.0000   1.0000
     1.0000   1.0000   1.0000   1.0000   1.0000   1.0000   1.0000   1.0000
     1.0000   1.0000   1.0000   1.0000   1.0000

          k =-0.4545-0.5831 0.0000 ( 14842 PWs)   bands (ev):

   -77.8047 -49.2632 -49.1720 -48.9402 -21.6322 -21.5844 -20.3423 -19.6969
   -14.7272 -14.4277 -13.0620 -12.9277 -11.6594 -10.8594 -10.6336  -9.8164
    -9.2109  -8.6554  -7.9721  -7.4095  -6.1225

     occupation numbers 
     1.0000   1.0000   1.0000   1.0000   1.0000   1.0000   1.0000   1.0000
     1.0000   1.0000   1.0000   1.0000   1.0000   1.0000   1.0000   1.0000
     1.0000   1.0000   1.0000   1.0000   1.0000

          k =-0.4545-0.4771 0.0000 ( 14858 PWs)   bands (ev):

   -77.8051 -49.2813 -49.1501 -48.9407 -21.6437 -21.5964 -20.3714 -19.7308
   -15.0963 -14.8304 -12.4854 -12.3115 -11.6007 -11.0555 -10.8093  -9.6305
    -8.9212  -8.5609  -7.9568  -7.4304  -6.1596

     occupation numbers 
     1.0000   1.0000   1.0000   1.0000   1.0000   1.0000   1.0000   1.0000
     1.0000   1.0000   1.0000   1.0000   1.0000   1.0000   1.0000   1.0000
     1.0000   1.0000   1.0000   1.0000   1.0000

          k =-0.4545-0.3711 0.0000 ( 14873 PWs)   bands (ev):

   -77.8061 -49.3027 -49.1186 -48.9421 -21.7131 -21.6664 -20.4257 -19.7864
   -15.4766 -15.2191 -12.0849 -11.6620 -11.1001 -11.0258 -10.7826  -9.4586
    -8.8988  -8.0535  -7.8227  -7.5249  -6.2455

     occupation numbers 
     1.0000   1.0000   1.0000   1.0000   1.0000   1.0000   1.0000   1.0000
     1.0000   1.0000   1.0000   1.0000   1.0000   1.0000   1.0000   1.0000
     1.0000   1.0000   1.0000   1.0000   1.0000

          k =-0.3636-0.2120 0.0000 ( 14845 PWs)   bands (ev):

   -77.8124 -49.2662 -49.0958 -48.9510 -22.4980 -22.4400 -20.5771 -19.7744
   -14.6547 -14.3709 -12.3324 -11.1623 -10.7222 -10.4238 -10.3874  -9.2039
    -8.6887  -8.3666  -7.7326  -7.6398  -6.3431

     occupation numbers 
     1.0000   1.0000   1.0000   1.0000   1.0000   1.0000   1.0000   1.0000
     1.0000   1.0000   1.0000   1.0000   1.0000   1.0000   1.0000   1.0000
     1.0000   1.0000   1.0000   1.0000   1.0000

          k =-0.3636-0.1060 0.0000 ( 14868 PWs)   bands (ev):

   -77.8154 -49.2361 -49.0979 -48.9553 -22.7999 -22.7374 -20.6877 -19.8019
   -14.0633 -13.6927 -12.3544 -11.0816 -10.7987 -10.6312 -10.3673  -9.2806
    -8.5463  -8.2606  -8.0277  -7.6082  -6.3288

     occupation numbers 
     1.0000   1.0000   1.0000   1.0000   1.0000   1.0000   1.0000   1.0000
     1.0000   1.0000   1.0000   1.0000   1.0000   1.0000   1.0000   1.0000
     1.0000   1.0000   1.0000   1.0000   1.0000

          k =-0.3636 0.0000 0.0000 ( 14884 PWs)   bands (ev):

   -77.8165 -49.2193 -49.1043 -48.9569 -22.9072 -22.8431 -20.7318 -19.8137
   -13.7464 -13.2502 -12.2496 -11.3368 -11.1793 -10.6976 -10.2067  -9.4078
    -8.5590  -8.3005  -7.8918  -7.6733  -6.3256

     occupation numbers 
     1.0000   1.0000   1.0000   1.0000   1.0000   1.0000   1.0000   1.0000
     1.0000   1.0000   1.0000   1.0000   1.0000   1.0000   1.0000   1.0000
     1.0000   1.0000   1.0000   1.0000   1.0000

          k =-0.3636 0.1060 0.0000 ( 14868 PWs)   bands (ev):

   -77.8154 -49.2361 -49.0979 -48.9553 -22.7999 -22.7373 -20.6878 -19.8019
   -14.0635 -13.6926 -12.3544 -11.0815 -10.7987 -10.6308 -10.3672  -9.2807
    -8.5464  -8.2609  -8.0277  -7.6083  -6.3286

     occupation numbers 
     1.0000   1.0000   1.0000   1.0000   1.0000   1.0000   1.0000   1.0000
     1.0000   1.0000   1.0000   1.0000   1.0000   1.0000   1.0000   1.0000
     1.0000   1.0000   1.0000   1.0000   1.0000

          k =-0.3636 0.2120 0.0000 ( 14845 PWs)   bands (ev):

   -77.8124 -49.2662 -49.0957 -48.9510 -22.4979 -22.4399 -20.5773 -19.7745
   -14.6550 -14.3708 -12.3326 -11.1623 -10.7218 -10.4233 -10.3874  -9.2037
    -8.6892  -8.3668  -7.7328  -7.6400  -6.3427

     occupation numbers 
     1.0000   1.0000   1.0000   1.0000   1.0000   1.0000   1.0000   1.0000
     1.0000   1.0000   1.0000   1.0000   1.0000   1.0000   1.0000   1.0000
     1.0000   1.0000   1.0000   1.0000   1.0000

          k =-0.3636 0.3181 0.0000 ( 14867 PWs)   bands (ev):

   -77.8085 -49.2850 -49.1138 -48.9455 -22.0672 -22.0155 -20.4543 -19.7480
   -15.0663 -14.8041 -12.1881 -11.4808 -11.0470 -10.8073 -10.7067  -9.5072
    -8.7043  -8.1730  -7.8771  -7.5589  -6.3168

     occupation numbers 
     1.0000   1.0000   1.0000   1.0000   1.0000   1.0000   1.0000   1.0000
     1.0000   1.0000   1.0000   1.0000   1.0000   1.0000   1.0000   1.0000
     1.0000   1.0000   1.0000   1.0000   1.0000

          k =-0.3636-0.7422 0.0000 ( 14868 PWs)   bands (ev):

   -77.8049 -49.2817 -49.1513 -48.9404 -21.6318 -21.5845 -20.3684 -19.7286
   -15.1064 -14.8412 -12.4810 -12.3086 -11.6021 -11.0627 -10.8125  -9.6426
    -8.9044  -8.5532  -7.9477  -7.4339  -6.1733

     occupation numbers 
     1.0000   1.0000   1.0000   1.0000   1.0000   1.0000   1.0000   1.0000
     1.0000   1.0000   1.0000   1.0000   1.0000   1.0000   1.0000   1.0000
     1.0000   1.0000   1.0000   1.0000   1.0000

          k =-0.3636-0.6361 0.0000 ( 14847 PWs)   bands (ev):

   -77.8028 -49.2585 -49.1950 -48.9374 -21.3565 -21.3066 -20.3307 -19.7128
   -14.7706 -14.4630 -13.4783 -13.3855 -11.3768 -11.0285 -10.7073  -9.7758
    -9.3747  -8.9518  -7.8981  -7.3151  -5.9949

     occupation numbers 
     1.0000   1.0000   1.0000   1.0000   1.0000   1.0000   1.0000   1.0000
     1.0000   1.0000   1.0000   1.0000   1.0000   1.0000   1.0000   1.0000
     1.0000   1.0000   1.0000   1.0000   1.0000

          k =-0.3636-0.5301 0.0000 ( 14847 PWs)   bands (ev):

   -77.8028 -49.2584 -49.1950 -48.9374 -21.3566 -21.3068 -20.3305 -19.7127
   -14.7704 -14.4630 -13.4786 -13.3855 -11.3767 -11.0284 -10.7071  -9.7760
    -9.3753  -8.9514  -7.8978  -7.3152  -5.9950

     occupation numbers 
     1.0000   1.0000   1.0000   1.0000   1.0000   1.0000   1.0000   1.0000
     1.0000   1.0000   1.0000   1.0000   1.0000   1.0000   1.0000   1.0000
     1.0000   1.0000   1.0000   1.0000   1.0000

          k =-0.3636-0.4241 0.0000 ( 14868 PWs)   bands (ev):

   -77.8049 -49.2817 -49.1513 -48.9404 -21.6320 -21.5847 -20.3680 -19.7284
   -15.1062 -14.8414 -12.4813 -12.3088 -11.6019 -11.0625 -10.8124  -9.6432
    -8.9044  -8.5530  -7.9469  -7.4339  -6.1736

     occupation numbers 
     1.0000   1.0000   1.0000   1.0000   1.0000   1.0000   1.0000   1.0000
     1.0000   1.0000   1.0000   1.0000   1.0000   1.0000   1.0000   1.0000
     1.0000   1.0000   1.0000   1.0000   1.0000

          k =-0.3636-0.3181 0.0000 ( 14867 PWs)   bands (ev):

   -77.8085 -49.2850 -49.1138 -48.9455 -22.0674 -22.0157 -20.4540 -19.7479
   -15.0661 -14.8042 -12.1879 -11.4809 -11.0473 -10.8073 -10.7069  -9.5077
    -8.7039  -8.1727  -7.8767  -7.5587  -6.3172

     occupation numbers 
     1.0000   1.0000   1.0000   1.0000   1.0000   1.0000   1.0000   1.0000
     1.0000   1.0000   1.0000   1.0000   1.0000   1.0000   1.0000   1.0000
     1.0000   1.0000   1.0000   1.0000   1.0000

          k =-0.2727-0.1590 0.0000 ( 14858 PWs)   bands (ev):

   -77.8206 -49.2021 -49.0811 -48.9628 -23.2517 -23.1832 -20.9133 -19.8993
   -13.6115 -12.9817 -12.3483 -10.9277 -10.3600 -10.0969 -10.0696  -8.7932
    -8.5911  -8.3863  -8.0928  -7.5574  -6.2165

     occupation numbers 
     1.0000   1.0000   1.0000   1.0000   1.0000   1.0000   1.0000   1.0000
     1.0000   1.0000   1.0000   1.0000   1.0000   1.0000   1.0000   1.0000
     1.0000   1.0000   1.0000   1.0000   1.0000

          k =-0.2727-0.0530 0.0000 ( 14860 PWs)   bands (ev):

   -77.8240 -49.1734 -49.0779 -48.9676 -23.4998 -23.4279 -21.0561 -19.9658
   -13.4439 -12.2810 -11.9605 -10.9341 -10.4347 -10.2169  -9.8492  -8.7851
    -8.6684  -8.3048  -8.0470  -7.4597  -6.1000

     occupation numbers 
     1.0000   1.0000   1.0000   1.0000   1.0000   1.0000   1.0000   1.0000
     1.0000   1.0000   1.0000   1.0000   1.0000   1.0000   1.0000   1.0000
     1.0000   1.0000   1.0000   1.0000   1.0000

          k =-0.2727 0.0530 0.0000 ( 14860 PWs)   bands (ev):

   -77.8240 -49.1734 -49.0779 -48.9676 -23.4998 -23.4279 -21.0561 -19.9658
   -13.4440 -12.2810 -11.9606 -10.9340 -10.4346 -10.2168  -9.8492  -8.7850
    -8.6684  -8.3048  -8.0473  -7.4598  -6.0998

     occupation numbers 
     1.0000   1.0000   1.0000   1.0000   1.0000   1.0000   1.0000   1.0000
     1.0000   1.0000   1.0000   1.0000   1.0000   1.0000   1.0000   1.0000
     1.0000   1.0000   1.0000   1.0000   1.0000

          k =-0.2727 0.1590 0.0000 ( 14858 PWs)   bands (ev):

   -77.8206 -49.2021 -49.0810 -48.9629 -23.2517 -23.1831 -20.9135 -19.8993
   -13.6117 -12.9818 -12.3483 -10.9275 -10.3601 -10.0962 -10.0697  -8.7927
    -8.5912  -8.3869  -8.0928  -7.5577  -6.2161

     occupation numbers 
     1.0000   1.0000   1.0000   1.0000   1.0000   1.0000   1.0000   1.0000
     1.0000   1.0000   1.0000   1.0000   1.0000   1.0000   1.0000   1.0000
     1.0000   1.0000   1.0000   1.0000   1.0000

          k =-0.2727 0.2651 0.0000 ( 14847 PWs)   bands (ev):

   -77.8150 -49.2363 -49.1004 -48.9548 -22.7875 -22.7250 -20.6793 -19.7952
   -14.0723 -13.7070 -12.3550 -11.0815 -10.7960 -10.6208 -10.3696  -9.2932
    -8.5406  -8.2537  -8.0170  -7.6055  -6.3405

     occupation numbers 
     1.0000   1.0000   1.0000   1.0000   1.0000   1.0000   1.0000   1.0000
     1.0000   1.0000   1.0000   1.0000   1.0000   1.0000   1.0000   1.0000
     1.0000   1.0000   1.0000   1.0000   1.0000

          k =-0.2727 0.3711 0.0000 ( 14867 PWs)   bands (ev):

   -77.8088 -49.2584 -49.1366 -48.9461 -22.1852 -22.1306 -20.4499 -19.7068
   -14.5117 -14.2132 -12.2285 -11.9832 -11.7968 -10.6845 -10.5701  -9.8266
    -8.5451  -8.4260  -7.9876  -7.6013  -6.3325

     occupation numbers 
     1.0000   1.0000   1.0000   1.0000   1.0000   1.0000   1.0000   1.0000
     1.0000   1.0000   1.0000   1.0000   1.0000   1.0000   1.0000   1.0000
     1.0000   1.0000   1.0000   1.0000   1.0000

          k =-0.2727-0.6891 0.0000 ( 14862 PWs)   bands (ev):

   -77.8041 -49.2608 -49.1788 -48.9395 -21.6057 -21.5578 -20.3307 -19.6863
   -14.7216 -14.4242 -13.0894 -12.9555 -11.6557 -10.8669 -10.6518  -9.8246
    -9.2051  -8.6423  -7.9572  -7.4136  -6.1390

     occupation numbers 
     1.0000   1.0000   1.0000   1.0000   1.0000   1.0000   1.0000   1.0000
     1.0000   1.0000   1.0000   1.0000   1.0000   1.0000   1.0000   1.0000
     1.0000   1.0000   1.0000   1.0000   1.0000

          k =-0.2727-0.5831 0.0000 ( 14822 PWs)   bands (ev):

   -77.8024 -49.2533 -49.2028 -48.9370 -21.3409 -21.2907 -20.3229 -19.7045
   -14.7382 -14.4265 -13.5283 -13.4398 -11.3736 -11.0318 -10.7000  -9.7930
    -9.3848  -8.9450  -7.8905  -7.3151  -5.9967

     occupation numbers 
     1.0000   1.0000   1.0000   1.0000   1.0000   1.0000   1.0000   1.0000
     1.0000   1.0000   1.0000   1.0000   1.0000   1.0000   1.0000   1.0000
     1.0000   1.0000   1.0000   1.0000   1.0000

          k =-0.2727-0.4771 0.0000 ( 14862 PWs)   bands (ev):

   -77.8041 -49.2608 -49.1788 -48.9395 -21.6058 -21.5579 -20.3305 -19.6862
   -14.7214 -14.4242 -13.0898 -12.9556 -11.6557 -10.8665 -10.6515  -9.8252
    -9.2054  -8.6420  -7.9564  -7.4137  -6.1393

     occupation numbers 
     1.0000   1.0000   1.0000   1.0000   1.0000   1.0000   1.0000   1.0000
     1.0000   1.0000   1.0000   1.0000   1.0000   1.0000   1.0000   1.0000
     1.0000   1.0000   1.0000   1.0000   1.0000

          k =-0.2727-0.3711 0.0000 ( 14867 PWs)   bands (ev):

   -77.8088 -49.2584 -49.1367 -48.9461 -22.1853 -22.1307 -20.4497 -19.7067
   -14.5114 -14.2132 -12.2287 -11.9834 -11.7968 -10.6842 -10.5701  -9.8270
    -8.5454  -8.4260  -7.9864  -7.6014  -6.3330

     occupation numbers 
     1.0000   1.0000   1.0000   1.0000   1.0000   1.0000   1.0000   1.0000
     1.0000   1.0000   1.0000   1.0000   1.0000   1.0000   1.0000   1.0000
     1.0000   1.0000   1.0000   1.0000   1.0000

          k =-0.2727-0.2651 0.0000 ( 14847 PWs)   bands (ev):

   -77.8150 -49.2362 -49.1005 -48.9548 -22.7875 -22.7251 -20.6792 -19.7951
   -14.0720 -13.7070 -12.3549 -11.0816 -10.7961 -10.6214 -10.3694  -9.2933
    -8.5406  -8.2533  -8.0168  -7.6052  -6.3410

     occupation numbers 
     1.0000   1.0000   1.0000   1.0000   1.0000   1.0000   1.0000   1.0000
     1.0000   1.0000   1.0000   1.0000   1.0000   1.0000   1.0000   1.0000
     1.0000   1.0000   1.0000   1.0000   1.0000

          k =-0.1818-0.1060 0.0000 ( 14891 PWs)   bands (ev):

   -77.8296 -49.1320 -49.0648 -48.9757 -23.8827 -23.8057 -21.3019 -20.0887
   -13.5465 -11.4370 -11.2601 -10.9970  -9.7099  -9.6953  -9.6788  -8.9249
    -8.4668  -8.1752  -7.9974  -7.3778  -5.8354

     occupation numbers 
     1.0000   1.0000   1.0000   1.0000   1.0000   1.0000   1.0000   1.0000
     1.0000   1.0000   1.0000   1.0000   1.0000   1.0000   1.0000   1.0000
     1.0000   1.0000   1.0000   1.0000   1.0000

          k =-0.1818 0.0000 0.0000 ( 14895 PWs)   bands (ev):

   -77.8318 -49.1158 -49.0594 -48.9789 -24.0181 -23.9393 -21.3957 -20.1377
   -13.6201 -11.1911 -10.8422 -10.7954  -9.8080  -9.6743  -9.3742  -8.9882
    -8.5659  -8.0561  -7.9167  -7.2828  -5.7169

     occupation numbers 
     1.0000   1.0000   1.0000   1.0000   1.0000   1.0000   1.0000   1.0000
     1.0000   1.0000   1.0000   1.0000   1.0000   1.0000   1.0000   1.0000
     1.0000   1.0000   1.0000   1.0000   1.0000

          k =-0.1818 0.1060 0.0000 ( 14891 PWs)   bands (ev):

   -77.8296 -49.1320 -49.0648 -48.9757 -23.8827 -23.8057 -21.3019 -20.0887
   -13.5465 -11.4371 -11.2603 -10.9969  -9.7094  -9.6952  -9.6789  -8.9248
    -8.4667  -8.1743  -7.9983  -7.3782  -5.8351

     occupation numbers 
     1.0000   1.0000   1.0000   1.0000   1.0000   1.0000   1.0000   1.0000
     1.0000   1.0000   1.0000   1.0000   1.0000   1.0000   1.0000   1.0000
     1.0000   1.0000   1.0000   1.0000   1.0000

          k =-0.1818 0.2120 0.0000 ( 14881 PWs)   bands (ev):

   -77.8236 -49.1707 -49.0836 -48.9671 -23.4894 -23.4176 -21.0473 -19.9582
   -13.4352 -12.2789 -11.9618 -10.9328 -10.4278 -10.2185  -9.8603  -8.7812
    -8.6778  -8.3158  -8.0606  -7.4458  -6.1025

     occupation numbers 
     1.0000   1.0000   1.0000   1.0000   1.0000   1.0000   1.0000   1.0000
     1.0000   1.0000   1.0000   1.0000   1.0000   1.0000   1.0000   1.0000
     1.0000   1.0000   1.0000   1.0000   1.0000

          k =-0.1818 0.3181 0.0000 ( 14870 PWs)   bands (ev):

   -77.8157 -49.2161 -49.1133 -48.9560 -22.8843 -22.8203 -20.7144 -19.7984
   -13.7315 -13.2407 -12.2449 -11.3604 -11.2058 -10.6900 -10.2194  -9.4285
    -8.5459  -8.3072  -7.9125  -7.6507  -6.3363

     occupation numbers 
     1.0000   1.0000   1.0000   1.0000   1.0000   1.0000   1.0000   1.0000
     1.0000   1.0000   1.0000   1.0000   1.0000   1.0000   1.0000   1.0000
     1.0000   1.0000   1.0000   1.0000   1.0000

          k =-0.1818 0.4241 0.0000 ( 14842 PWs)   bands (ev):

   -77.8084 -49.2543 -49.1437 -48.9457 -22.1743 -22.1197 -20.4401 -19.6961
   -14.4706 -14.1695 -12.2494 -12.0278 -11.8479 -10.6771 -10.5616  -9.8363
    -8.5690  -8.4291  -8.0017  -7.5943  -6.3252

     occupation numbers 
     1.0000   1.0000   1.0000   1.0000   1.0000   1.0000   1.0000   1.0000
     1.0000   1.0000   1.0000   1.0000   1.0000   1.0000   1.0000   1.0000
     1.0000   1.0000   1.0000   1.0000   1.0000

          k =-0.1818-0.6361 0.0000 ( 14851 PWs)   bands (ev):

   -77.8041 -49.2759 -49.1629 -48.9395 -21.6064 -21.5588 -20.3492 -19.7080
   -15.0550 -14.7913 -12.5558 -12.3919 -11.6141 -11.0476 -10.8185  -9.6489
    -8.9264  -8.5813  -7.9377  -7.4312  -6.1628

     occupation numbers 
     1.0000   1.0000   1.0000   1.0000   1.0000   1.0000   1.0000   1.0000
     1.0000   1.0000   1.0000   1.0000   1.0000   1.0000   1.0000   1.0000
     1.0000   1.0000   1.0000   1.0000   1.0000

          k =-0.1818-0.5301 0.0000 ( 14851 PWs)   bands (ev):

   -77.8041 -49.2759 -49.1629 -48.9395 -21.6064 -21.5588 -20.3492 -19.7080
   -15.0549 -14.7913 -12.5558 -12.3920 -11.6142 -11.0475 -10.8182  -9.6495
    -8.9261  -8.5814  -7.9373  -7.4313  -6.1630

     occupation numbers 
     1.0000   1.0000   1.0000   1.0000   1.0000   1.0000   1.0000   1.0000
     1.0000   1.0000   1.0000   1.0000   1.0000   1.0000   1.0000   1.0000
     1.0000   1.0000   1.0000   1.0000   1.0000

          k =-0.1818-0.4241 0.0000 ( 14842 PWs)   bands (ev):

   -77.8084 -49.2543 -49.1437 -48.9457 -22.1744 -22.1198 -20.4400 -19.6961
   -14.4704 -14.1695 -12.2496 -12.0280 -11.8480 -10.6769 -10.5612  -9.8369
    -8.5690  -8.4294  -8.0006  -7.5944  -6.3256

     occupation numbers 
     1.0000   1.0000   1.0000   1.0000   1.0000   1.0000   1.0000   1.0000
     1.0000   1.0000   1.0000   1.0000   1.0000   1.0000   1.0000   1.0000
     1.0000   1.0000   1.0000   1.0000   1.0000

          k =-0.1818-0.3181 0.0000 ( 14870 PWs)   bands (ev):

   -77.8157 -49.2160 -49.1133 -48.9560 -22.8843 -22.8203 -20.7143 -19.7984
   -13.7312 -13.2406 -12.2449 -11.3607 -11.2061 -10.6902 -10.2191  -9.4285
    -8.5459  -8.3073  -7.9126  -7.6498  -6.3368

     occupation numbers 
     1.0000   1.0000   1.0000   1.0000   1.0000   1.0000   1.0000   1.0000
     1.0000   1.0000   1.0000   1.0000   1.0000   1.0000   1.0000   1.0000
     1.0000   1.0000   1.0000   1.0000   1.0000

          k =-0.1818-0.2120 0.0000 ( 14881 PWs)   bands (ev):

   -77.8236 -49.1707 -49.0836 -48.9671 -23.4894 -23.4176 -21.0473 -19.9582
   -13.4350 -12.2787 -11.9617 -10.9330 -10.4281 -10.2190  -9.8601  -8.7814
    -8.6775  -8.3159  -8.0610  -7.4451  -6.1029

     occupation numbers 
     1.0000   1.0000   1.0000   1.0000   1.0000   1.0000   1.0000   1.0000
     1.0000   1.0000   1.0000   1.0000   1.0000   1.0000   1.0000   1.0000
     1.0000   1.0000   1.0000   1.0000   1.0000

          k =-0.0909-0.0530 0.0000 ( 14931 PWs)   bands (ev):

   -77.8364 -49.0791 -49.0513 -48.9855 -24.2889 -24.2062 -21.5912 -20.2402
   -13.8057 -11.2249  -9.9825  -9.9086  -9.3776  -9.3382  -9.1764  -9.0796
    -8.7180  -7.7871  -7.6654  -7.2878  -5.4715

     occupation numbers 
     1.0000   1.0000   1.0000   1.0000   1.0000   1.0000   1.0000   1.0000
     1.0000   1.0000   1.0000   1.0000   1.0000   1.0000   1.0000   1.0000
     1.0000   1.0000   1.0000   1.0000   1.0000

          k =-0.0909 0.0530 0.0000 ( 14931 PWs)   bands (ev):

   -77.8364 -49.0791 -49.0513 -48.9855 -24.2888 -24.2062 -21.5912 -20.2402
   -13.8057 -11.2249  -9.9829  -9.9089  -9.3769  -9.3381  -9.1765  -9.0797
    -8.7178  -7.7861  -7.6664  -7.2879  -5.4714

     occupation numbers 
     1.0000   1.0000   1.0000   1.0000   1.0000   1.0000   1.0000   1.0000
     1.0000   1.0000   1.0000   1.0000   1.0000   1.0000   1.0000   1.0000
     1.0000   1.0000   1.0000   1.0000   1.0000

          k =-0.0909 0.1590 0.0000 ( 14905 PWs)   bands (ev):

   -77.8315 -49.1079 -49.0697 -48.9785 -24.0115 -23.9327 -21.3895 -20.1322
   -13.6127 -11.1783 -10.7987 -10.7555  -9.8307  -9.7272  -9.3762  -8.9807
    -8.6093  -8.0698  -7.9288  -7.2692  -5.7142

     occupation numbers 
     1.0000   1.0000   1.0000   1.0000   1.0000   1.0000   1.0000   1.0000
     1.0000   1.0000   1.0000   1.0000   1.0000   1.0000   1.0000   1.0000
     1.0000   1.0000   1.0000   1.0000   1.0000

          k =-0.0909 0.2651 0.0000 ( 14877 PWs)   bands (ev):

   -77.8233 -49.1651 -49.0915 -48.9668 -23.4827 -23.4109 -21.0410 -19.9519
   -13.4196 -12.2246 -11.9167 -10.9234 -10.4790 -10.2911  -9.8651  -8.7767
    -8.6852  -8.3469  -8.0771  -7.4392  -6.0979

     occupation numbers 
     1.0000   1.0000   1.0000   1.0000   1.0000   1.0000   1.0000   1.0000
     1.0000   1.0000   1.0000   1.0000   1.0000   1.0000   1.0000   1.0000
     1.0000   1.0000   1.0000   1.0000   1.0000

          k =-0.0909 0.3711 0.0000 ( 14857 PWs)   bands (ev):

   -77.8142 -49.2294 -49.1127 -48.9540 -22.7702 -22.7077 -20.6635 -19.7785
   -14.0105 -13.6380 -12.3396 -11.1122 -10.8706 -10.6713 -10.3909  -9.3061
    -8.5383  -8.2883  -8.0628  -7.5912  -6.3304

     occupation numbers 
     1.0000   1.0000   1.0000   1.0000   1.0000   1.0000   1.0000   1.0000
     1.0000   1.0000   1.0000   1.0000   1.0000   1.0000   1.0000   1.0000
     1.0000   1.0000   1.0000   1.0000   1.0000

          k =-0.0909 0.4771 0.0000 ( 14846 PWs)   bands (ev):

   -77.8074 -49.2785 -49.1284 -48.9443 -22.0367 -21.9847 -20.4281 -19.7198
   -15.0031 -14.7433 -12.1868 -11.5055 -11.1499 -10.8779 -10.7164  -9.5113
    -8.7433  -8.1673  -7.9231  -7.5527  -6.2995

     occupation numbers 
     1.0000   1.0000   1.0000   1.0000   1.0000   1.0000   1.0000   1.0000
     1.0000   1.0000   1.0000   1.0000   1.0000   1.0000   1.0000   1.0000
     1.0000   1.0000   1.0000   1.0000   1.0000

          k =-0.0909-0.5831 0.0000 ( 14836 PWs)   bands (ev):

   -77.8048 -49.2968 -49.1342 -48.9406 -21.6706 -21.6235 -20.3949 -19.7534
   -15.4238 -15.1694 -12.0898 -11.6757 -11.1889 -11.1166 -10.8069  -9.4584
    -8.9352  -8.0471  -7.8540  -7.5218  -6.2325

     occupation numbers 
     1.0000   1.0000   1.0000   1.0000   1.0000   1.0000   1.0000   1.0000
     1.0000   1.0000   1.0000   1.0000   1.0000   1.0000   1.0000   1.0000
     1.0000   1.0000   1.0000   1.0000   1.0000

          k =-0.0909-0.4771 0.0000 ( 14846 PWs)   bands (ev):

   -77.8074 -49.2785 -49.1284 -48.9443 -22.0367 -21.9847 -20.4281 -19.7198
   -15.0031 -14.7433 -12.1868 -11.5055 -11.1501 -10.8778 -10.7162  -9.5119
    -8.7428  -8.1672  -7.9228  -7.5526  -6.2998

     occupation numbers 
     1.0000   1.0000   1.0000   1.0000   1.0000   1.0000   1.0000   1.0000
     1.0000   1.0000   1.0000   1.0000   1.0000   1.0000   1.0000   1.0000
     1.0000   1.0000   1.0000   1.0000   1.0000

          k =-0.0909-0.3711 0.0000 ( 14857 PWs)   bands (ev):

   -77.8142 -49.2294 -49.1127 -48.9540 -22.7702 -22.7077 -20.6635 -19.7785
   -14.0103 -13.6380 -12.3397 -11.1122 -10.8708 -10.6715 -10.3907  -9.3063
    -8.5385  -8.2882  -8.0626  -7.5909  -6.3307

     occupation numbers 
     1.0000   1.0000   1.0000   1.0000   1.0000   1.0000   1.0000   1.0000
     1.0000   1.0000   1.0000   1.0000   1.0000   1.0000   1.0000   1.0000
     1.0000   1.0000   1.0000   1.0000   1.0000

          k =-0.0909-0.2651 0.0000 ( 14877 PWs)   bands (ev):

   -77.8233 -49.1651 -49.0915 -48.9668 -23.4827 -23.4109 -21.0410 -19.9519
   -13.4195 -12.2244 -11.9166 -10.9234 -10.4792 -10.2913  -9.8649  -8.7768
    -8.6849  -8.3469  -8.0778  -7.4385  -6.0982

     occupation numbers 
     1.0000   1.0000   1.0000   1.0000   1.0000   1.0000   1.0000   1.0000
     1.0000   1.0000   1.0000   1.0000   1.0000   1.0000   1.0000   1.0000
     1.0000   1.0000   1.0000   1.0000   1.0000

          k =-0.0909-0.1590 0.0000 ( 14905 PWs)   bands (ev):

   -77.8315 -49.1079 -49.0697 -48.9785 -24.0115 -23.9327 -21.3895 -20.1322
   -13.6127 -11.1784 -10.7980 -10.7556  -9.8312  -9.7276  -9.3760  -8.9806
    -8.6095  -8.0693  -7.9296  -7.2686  -5.7144

     occupation numbers 
     1.0000   1.0000   1.0000   1.0000   1.0000   1.0000   1.0000   1.0000
     1.0000   1.0000   1.0000   1.0000   1.0000   1.0000   1.0000   1.0000
     1.0000   1.0000   1.0000   1.0000   1.0000

     highest occupied level (ev):    -5.3638

!    total energy              =    -263.34747693 Ry
     estimated scf accuracy    <          9.8E-11 Ry

     The total energy is the sum of the following terms:
     one-electron contribution =   -6541.49914476 Ry
     hartree contribution      =    3267.35504377 Ry
     xc contribution           =     -44.67915933 Ry
     ewald contribution        =    3055.47578338 Ry

     convergence has been achieved in  26 iterations

     Writing all to output data dir ./tmp/crsi2n4.save/ :
     XML data file, charge density, pseudopotentials, collected wavefunctions
 
     init_run     :      7.05s CPU      7.28s WALL (       1 calls)
     electrons    :    387.68s CPU    388.31s WALL (       1 calls)

     Called by init_run:
     wfcinit      :      5.77s CPU      5.95s WALL (       1 calls)
     wfcinit:atom :      0.08s CPU      0.08s WALL (     121 calls)
     wfcinit:wfcr :      5.48s CPU      5.52s WALL (     121 calls)
     potinit      :      0.94s CPU      0.97s WALL (       1 calls)
     hinit0       :      0.16s CPU      0.17s WALL (       1 calls)

     Called by electrons:
     c_bands      :    356.60s CPU    357.16s WALL (      26 calls)
     sum_band     :     29.84s CPU     29.86s WALL (      26 calls)
     v_of_rho     :      0.40s CPU      0.43s WALL (      27 calls)
     v_h          :      0.09s CPU      0.10s WALL (      27 calls)
     v_xc         :      0.30s CPU      0.33s WALL (      27 calls)
     mix_rho      :      0.53s CPU      0.55s WALL (      26 calls)

     Called by c_bands:
     init_us_2    :      4.70s CPU      4.72s WALL (    6413 calls)
     cegterg      :    341.62s CPU    342.16s WALL (    3146 calls)

     Called by sum_band:
     sum_band:wei :      0.00s CPU      0.00s WALL (      26 calls)
     sum_band:loo :     29.74s CPU     29.76s WALL (      26 calls)
     sum_band:buf :      3.79s CPU      3.79s WALL (    3146 calls)
     sum_band:ini :      2.35s CPU      2.35s WALL (    3146 calls)

     Called by *egterg:
     cdiaghg      :     39.45s CPU     39.60s WALL (   17532 calls)
                                       39.54s GPU  (   17532 calls)
     cegterg:over :     73.20s CPU     73.23s WALL (   14386 calls)
     cegterg:upda :     16.94s CPU     16.96s WALL (   14386 calls)
     cegterg:last :     14.38s CPU     14.38s WALL (    7034 calls)
     h_psi        :    190.32s CPU    190.87s WALL (   17653 calls)
                                      190.72s GPU  (   17653 calls)
     g_psi        :      0.05s CPU      1.54s WALL (   14386 calls)
                                        1.48s GPU  (   14386 calls)

     Called by h_psi:
     h_psi:calbec :      0.49s CPU     35.13s WALL (   17653 calls)
                                       35.06s GPU  (   17653 calls)
     vloc_psi     :    126.10s CPU    126.59s WALL (   17653 calls)
                                      126.54s GPU  (   17653 calls)
     add_vuspsi   :      3.36s CPU     28.19s WALL (   17653 calls)
                                       28.11s GPU  (   17653 calls)

     General routines
     calbec       :      0.45s CPU      0.48s WALL (   17653 calls)
     fft          :      0.53s CPU      0.68s WALL (     321 calls)
                                        0.15s GPU  (     294 calls)
     ffts         :      0.52s CPU      0.53s WALL (      53 calls)
                                        0.01s GPU  (      26 calls)
     fftw         :      0.54s CPU    129.57s WALL (   55114 calls)
                                      129.36s GPU  (   55114 calls)
     interpolate  :      1.10s CPU      1.11s WALL (      27 calls)
 
     Parallel routines
 
     PWSCF        :   6m35.04s CPU   6m36.14s WALL

 
   This run was terminated on:  12:27:25  28Apr2026            

=------------------------------------------------------------------------------=
   JOB DONE.
=------------------------------------------------------------------------------=
