
     Program PWSCF v.7.4.1 starts on 13Mar2026 at  1:44:31 

     This program is part of the open-source Quantum ESPRESSO suite
     for quantum simulation of materials; please cite
         "P. Giannozzi et al., J. Phys.:Condens. Matter 21 395502 (2009);
         "P. Giannozzi et al., J. Phys.:Condens. Matter 29 465901 (2017);
         "P. Giannozzi et al., J. Chem. Phys. 152 154105 (2020);
          URL http://www.quantum-espresso.org", 
     in publications or presentations arising from this work. More details at
     http://www.quantum-espresso.org/quote

     Parallel version (MPI), running on     1 processors

     MPI processes distributed on     1 nodes
     6237 MiB available memory on the printing compute node when the environment starts
 
     Reading input from scf.in

     Current dimensions of program PWSCF are:
     Max number of different atomic species (ntypx) = 10
     Max number of k-points (npk) =  40000
     Max angular momentum in pseudopotentials (lmaxx) =  4
     Message from routine setup:
     no reason to have ecutrho>4*ecutwfc
 
     Subspace diagonalization in iterative solution of the eigenvalue problem:
     a serial algorithm will be used

 
     G-vector sticks info
     --------------------
     sticks:   dense  smooth     PW     G-vecs:    dense   smooth      PW
     Sum         757     595    187               127257    90781   14575
 
     Using Slab Decomposition
 


     bravais-lattice index     =            4
     lattice parameter (alat)  =       5.2669  a.u.
     unit-cell volume          =     942.7434 (a.u.)^3
     number of atoms/cell      =            7
     number of atomic types    =            3
     number of electrons       =        42.00
     number of Kohn-Sham states=           21
     kinetic-energy cutoff     =      80.0000  Ry
     charge density cutoff     =     400.0000  Ry
     scf convergence threshold =      1.0E-10
     mixing beta               =       0.5000
     number of iterations used =            8  plain     mixing
     Exchange-correlation= PBE
                           (   1   4   3   4   0   0   0)

     GPU acceleration is ACTIVE.  1 visible GPUs per MPI rank
     GPU-aware MPI enabled


     GPU used by master process:

        Device Number: 0
        Device name: NVIDIA RTX A2000 12GB
        Compute capability : 86
        Ratio of single to double precision performance  : 64
        Memory Clock Rate (KHz): 6001000
        Memory Bus Width (bits): 192
        Peak Memory Bandwidth (GB/s): 288.05

     celldm(1)=   5.266893  celldm(2)=   0.000000  celldm(3)=   7.450738
     celldm(4)=   0.000000  celldm(5)=   0.000000  celldm(6)=   0.000000

     crystal axes: (cart. coord. in units of alat)
               a(1) = (   1.000000   0.000000   0.000000 )  
               a(2) = (  -0.500000   0.866025   0.000000 )  
               a(3) = (   0.000000   0.000000   7.450738 )  

     reciprocal axes: (cart. coord. in units 2 pi/alat)
               b(1) = (  1.000000  0.577350 -0.000000 )  
               b(2) = (  0.000000  1.154701  0.000000 )  
               b(3) = (  0.000000 -0.000000  0.134215 )  


     PseudoPot. # 1 for Cr read from file:
     /home/rao/Desktop/pseudo/ONCVPSP/sg15/Cr_ONCV_PBE_sr.upf
     MD5 check sum: 8c25700f94aee329d8014e8d8708abb4
     Pseudo is Norm-conserving, Zval = 14.0
     Generated using ONCVPSP code by D. R. Hamann
     Using radial grid of 1490 points,  6 beta functions with: 
                l(1) =   0
                l(2) =   0
                l(3) =   1
                l(4) =   1
                l(5) =   2
                l(6) =   2

     PseudoPot. # 2 for Si read from file:
     /home/rao/Desktop/pseudo/ONCVPSP/sg15/Si_ONCV_PBE_sr.upf
     MD5 check sum: 8553c464762ac42b85b1eed164b4d029
     Pseudo is Norm-conserving, Zval =  4.0
     Generated using ONCVPSP code by D. R. Hamann
     Using radial grid of 1510 points,  4 beta functions with: 
                l(1) =   0
                l(2) =   0
                l(3) =   1
                l(4) =   1

     PseudoPot. # 3 for N  read from file:
     /home/rao/Desktop/pseudo/ONCVPSP/sg15/N_ONCV_PBE_sr.upf
     MD5 check sum: 584dff68b02d160f04ff099e3496afa1
     Pseudo is Norm-conserving, Zval =  5.0
     Generated using ONCVPSP code by D. R. Hamann
     Using radial grid of 1058 points,  4 beta functions with: 
                l(1) =   0
                l(2) =   0
                l(3) =   1
                l(4) =   1

     atomic species   valence    mass     pseudopotential
     Cr               14.00    51.99600     Cr( 1.00)
     Si                4.00    28.08600     Si( 1.00)
     N                 5.00    14.00700     N ( 1.00)

     No symmetry found


                                    s                        frac. trans.

      isym =  1     identity                                     

 cryst.   s( 1) = (     1          0          0      )
                  (     0          1          0      )
                  (     0          0          1      )

 cart.    s( 1) = (  1.0000000  0.0000000  0.0000000 )
                  (  0.0000000  1.0000000  0.0000000 )
                  (  0.0000000  0.0000000  1.0000000 )


     point group C_1 (1)    
     there are  1 classes
     the character table:

       E    
A      1.00

     the symmetry operations in each class and the name of the first element:

     E        1
          identity                                               

   Cartesian axes

     site n.     atom                  positions (alat units)
         1        Cr     tau(   1) = (   0.7857107   0.1237095   3.1876165  )
         2        N      tau(   2) = (   0.2856915   0.4123970   2.7734614  )
         3        N      tau(   3) = (   0.2856784   0.4124021   3.6067772  )
         4        N      tau(   4) = (   0.7857285   0.1236934   4.4422590  )
         5        N      tau(   5) = (  -0.2143006   0.7010706   1.9453468  )
         6        Si     tau(   6) = (   0.2857128   0.4123877   2.1473459  )
         7        Si     tau(   7) = (   0.2857457   0.4123587   4.2372170  )

   Crystallographic axes

     site n.     atom                  positions (cryst. coord.)
         1        Cr     tau(   1) = (  0.8571344  0.1428475  0.4278256  )
         2        N      tau(   2) = (  0.5237890  0.4761951  0.3722398  )
         3        N      tau(   3) = (  0.5237789  0.4762009  0.4840832  )
         4        N      tau(   4) = (  0.8571429  0.1428289  0.5962173  )
         5        N      tau(   5) = (  0.1904627  0.8095266  0.2610945  )
         6        Si     tau(   6) = (  0.5238049  0.4761843  0.2882058  )
         7        Si     tau(   7) = (  0.5238211  0.4761508  0.5686976  )

     number of k points=    61
                       cart. coord. in units 2pi/alat
        k(    1) = (   0.0000000   0.0000000   0.0000000), wk =   0.0165289
        k(    2) = (   0.0000000   0.1049728   0.0000000), wk =   0.0330579
        k(    3) = (   0.0000000   0.2099456   0.0000000), wk =   0.0330579
        k(    4) = (   0.0000000   0.3149183   0.0000000), wk =   0.0330579
        k(    5) = (   0.0000000   0.4198911   0.0000000), wk =   0.0330579
        k(    6) = (   0.0000000   0.5248639   0.0000000), wk =   0.0330579
        k(    7) = (   0.0909091   0.1574592   0.0000000), wk =   0.0330579
        k(    8) = (   0.0909091   0.2624319   0.0000000), wk =   0.0330579
        k(    9) = (   0.0909091   0.3674047   0.0000000), wk =   0.0330579
        k(   10) = (   0.0909091   0.4723775   0.0000000), wk =   0.0330579
        k(   11) = (   0.0909091   0.5773503   0.0000000), wk =   0.0330579
        k(   12) = (   0.1818182   0.3149183   0.0000000), wk =   0.0330579
        k(   13) = (   0.1818182   0.4198911   0.0000000), wk =   0.0330579
        k(   14) = (   0.1818182   0.5248639   0.0000000), wk =   0.0330579
        k(   15) = (   0.2727273   0.4723775   0.0000000), wk =   0.0330579
        k(   16) = (   0.2727273   0.5773503   0.0000000), wk =   0.0330579
        k(   17) = (  -0.0909091   0.0524864   0.0000000), wk =   0.0330579
        k(   18) = (   0.0909091   0.0524864   0.0000000), wk =   0.0330579
        k(   19) = (  -0.1818182   0.1049728   0.0000000), wk =   0.0330579
        k(   20) = (   0.1818182   0.1049728   0.0000000), wk =   0.0330579
        k(   21) = (  -0.2727273   0.1574592   0.0000000), wk =   0.0330579
        k(   22) = (   0.2727273   0.1574592   0.0000000), wk =   0.0330579
        k(   23) = (  -0.3636364   0.2099456   0.0000000), wk =   0.0330579
        k(   24) = (   0.3636364   0.2099456   0.0000000), wk =   0.0330579
        k(   25) = (  -0.4545455   0.2624319   0.0000000), wk =   0.0330579
        k(   26) = (   0.4545455   0.2624319   0.0000000), wk =   0.0330579
        k(   27) = (  -0.0909091   0.1574592   0.0000000), wk =   0.0330579
        k(   28) = (   0.1818182  -0.0000000   0.0000000), wk =   0.0330579
        k(   29) = (  -0.0909091   0.2624319   0.0000000), wk =   0.0330579
        k(   30) = (  -0.1818182   0.2099456   0.0000000), wk =   0.0330579
        k(   31) = (   0.2727273   0.0524864   0.0000000), wk =   0.0330579
        k(   32) = (  -0.1818182  -0.2099456   0.0000000), wk =   0.0330579
        k(   33) = (   0.2727273  -0.0524864   0.0000000), wk =   0.0330579
        k(   34) = (  -0.0909091   0.3674047   0.0000000), wk =   0.0330579
        k(   35) = (  -0.2727273   0.2624319   0.0000000), wk =   0.0330579
        k(   36) = (   0.3636364   0.1049728   0.0000000), wk =   0.0330579
        k(   37) = (  -0.2727273  -0.2624319   0.0000000), wk =   0.0330579
        k(   38) = (   0.3636364  -0.1049728   0.0000000), wk =   0.0330579
        k(   39) = (  -0.0909091   0.4723775   0.0000000), wk =   0.0330579
        k(   40) = (  -0.3636364   0.3149183   0.0000000), wk =   0.0330579
        k(   41) = (   0.4545455   0.1574592   0.0000000), wk =   0.0330579
        k(   42) = (  -0.3636364  -0.3149183   0.0000000), wk =   0.0330579
        k(   43) = (   0.4545455  -0.1574592   0.0000000), wk =   0.0330579
        k(   44) = (  -0.4545455   0.3674047   0.0000000), wk =   0.0330579
        k(   45) = (   0.5454545   0.2099456   0.0000000), wk =   0.0330579
        k(   46) = (  -0.1818182   0.3149183   0.0000000), wk =   0.0330579
        k(   47) = (   0.3636364  -0.0000000   0.0000000), wk =   0.0330579
        k(   48) = (  -0.1818182   0.4198911   0.0000000), wk =   0.0330579
        k(   49) = (  -0.2727273   0.3674047   0.0000000), wk =   0.0330579
        k(   50) = (   0.4545455   0.0524864   0.0000000), wk =   0.0330579
        k(   51) = (  -0.2727273  -0.3674047   0.0000000), wk =   0.0330579
        k(   52) = (   0.4545455  -0.0524864   0.0000000), wk =   0.0330579
        k(   53) = (  -0.1818182   0.5248639   0.0000000), wk =   0.0330579
        k(   54) = (  -0.3636364   0.4198911   0.0000000), wk =   0.0330579
        k(   55) = (   0.5454545   0.1049728   0.0000000), wk =   0.0330579
        k(   56) = (  -0.3636364  -0.4198911   0.0000000), wk =   0.0330579
        k(   57) = (   0.5454545  -0.1049728   0.0000000), wk =   0.0330579
        k(   58) = (  -0.2727273   0.4723775   0.0000000), wk =   0.0330579
        k(   59) = (   0.5454545  -0.0000000   0.0000000), wk =   0.0330579
        k(   60) = (  -0.3636364   0.5248639   0.0000000), wk =   0.0330579
        k(   61) = (   0.6363636   0.0524864   0.0000000), wk =   0.0330579

                       cryst. coord.
        k(    1) = (   0.0000000   0.0000000   0.0000000), wk =   0.0165289
        k(    2) = (   0.0000000   0.0909091   0.0000000), wk =   0.0330579
        k(    3) = (   0.0000000   0.1818182   0.0000000), wk =   0.0330579
        k(    4) = (   0.0000000   0.2727273   0.0000000), wk =   0.0330579
        k(    5) = (   0.0000000   0.3636364   0.0000000), wk =   0.0330579
        k(    6) = (   0.0000000   0.4545455   0.0000000), wk =   0.0330579
        k(    7) = (   0.0909091   0.0909091   0.0000000), wk =   0.0330579
        k(    8) = (   0.0909091   0.1818182   0.0000000), wk =   0.0330579
        k(    9) = (   0.0909091   0.2727273   0.0000000), wk =   0.0330579
        k(   10) = (   0.0909091   0.3636364   0.0000000), wk =   0.0330579
        k(   11) = (   0.0909091   0.4545455   0.0000000), wk =   0.0330579
        k(   12) = (   0.1818182   0.1818182   0.0000000), wk =   0.0330579
        k(   13) = (   0.1818182   0.2727273   0.0000000), wk =   0.0330579
        k(   14) = (   0.1818182   0.3636364   0.0000000), wk =   0.0330579
        k(   15) = (   0.2727273   0.2727273   0.0000000), wk =   0.0330579
        k(   16) = (   0.2727273   0.3636364   0.0000000), wk =   0.0330579
        k(   17) = (  -0.0909091   0.0909091   0.0000000), wk =   0.0330579
        k(   18) = (   0.0909091  -0.0000000   0.0000000), wk =   0.0330579
        k(   19) = (  -0.1818182   0.1818182   0.0000000), wk =   0.0330579
        k(   20) = (   0.1818182  -0.0000000   0.0000000), wk =   0.0330579
        k(   21) = (  -0.2727273   0.2727273   0.0000000), wk =   0.0330579
        k(   22) = (   0.2727273  -0.0000000   0.0000000), wk =   0.0330579
        k(   23) = (  -0.3636364   0.3636364   0.0000000), wk =   0.0330579
        k(   24) = (   0.3636364  -0.0000000   0.0000000), wk =   0.0330579
        k(   25) = (  -0.4545455   0.4545455   0.0000000), wk =   0.0330579
        k(   26) = (   0.4545455   0.0000000   0.0000000), wk =   0.0330579
        k(   27) = (  -0.0909091   0.1818182   0.0000000), wk =   0.0330579
        k(   28) = (   0.1818182  -0.0909091   0.0000000), wk =   0.0330579
        k(   29) = (  -0.0909091   0.2727273   0.0000000), wk =   0.0330579
        k(   30) = (  -0.1818182   0.2727273   0.0000000), wk =   0.0330579
        k(   31) = (   0.2727273  -0.0909091   0.0000000), wk =   0.0330579
        k(   32) = (  -0.1818182  -0.0909091   0.0000000), wk =   0.0330579
        k(   33) = (   0.2727273  -0.1818182   0.0000000), wk =   0.0330579
        k(   34) = (  -0.0909091   0.3636364   0.0000000), wk =   0.0330579
        k(   35) = (  -0.2727273   0.3636364   0.0000000), wk =   0.0330579
        k(   36) = (   0.3636364  -0.0909091   0.0000000), wk =   0.0330579
        k(   37) = (  -0.2727273  -0.0909091   0.0000000), wk =   0.0330579
        k(   38) = (   0.3636364  -0.2727273   0.0000000), wk =   0.0330579
        k(   39) = (  -0.0909091   0.4545455   0.0000000), wk =   0.0330579
        k(   40) = (  -0.3636364   0.4545455   0.0000000), wk =   0.0330579
        k(   41) = (   0.4545455  -0.0909091   0.0000000), wk =   0.0330579
        k(   42) = (  -0.3636364  -0.0909091   0.0000000), wk =   0.0330579
        k(   43) = (   0.4545455  -0.3636364   0.0000000), wk =   0.0330579
        k(   44) = (  -0.4545455   0.5454545   0.0000000), wk =   0.0330579
        k(   45) = (   0.5454545  -0.0909091   0.0000000), wk =   0.0330579
        k(   46) = (  -0.1818182   0.3636364   0.0000000), wk =   0.0330579
        k(   47) = (   0.3636364  -0.1818182   0.0000000), wk =   0.0330579
        k(   48) = (  -0.1818182   0.4545455   0.0000000), wk =   0.0330579
        k(   49) = (  -0.2727273   0.4545455   0.0000000), wk =   0.0330579
        k(   50) = (   0.4545455  -0.1818182   0.0000000), wk =   0.0330579
        k(   51) = (  -0.2727273  -0.1818182   0.0000000), wk =   0.0330579
        k(   52) = (   0.4545455  -0.2727273   0.0000000), wk =   0.0330579
        k(   53) = (  -0.1818182   0.5454545   0.0000000), wk =   0.0330579
        k(   54) = (  -0.3636364   0.5454545   0.0000000), wk =   0.0330579
        k(   55) = (   0.5454545  -0.1818182   0.0000000), wk =   0.0330579
        k(   56) = (  -0.3636364  -0.1818182   0.0000000), wk =   0.0330579
        k(   57) = (   0.5454545  -0.3636364   0.0000000), wk =   0.0330579
        k(   58) = (  -0.2727273   0.5454545   0.0000000), wk =   0.0330579
        k(   59) = (   0.5454545  -0.2727273   0.0000000), wk =   0.0330579
        k(   60) = (  -0.3636364   0.6363636   0.0000000), wk =   0.0330579
        k(   61) = (   0.6363636  -0.2727273   0.0000000), wk =   0.0330579

     Dense  grid:   127257 G-vectors     FFT dimensions: (  36,  36, 250)

     Smooth grid:    90781 G-vectors     FFT dimensions: (  30,  30, 225)

     Dynamical RAM for                 wfc:       3.65 MB

     Dynamical RAM for     wfc (w. buffer):     226.30 MB

     Dynamical RAM for           str. fact:       5.83 MB

     Dynamical RAM for           local pot:       0.00 MB

     Dynamical RAM for          nlocal pot:      11.47 MB

     Dynamical RAM for                qrad:       4.82 MB

     Dynamical RAM for          rho,v,vnew:      13.24 MB

     Dynamical RAM for               rhoin:       4.41 MB

     Dynamical RAM for            rho*nmix:      31.07 MB

     Dynamical RAM for           G-vectors:       7.97 MB

     Dynamical RAM for          h,s,v(r/c):       0.08 MB

     Dynamical RAM for          <psi|beta>:       0.02 MB

     Dynamical RAM for                 psi:       7.30 MB

     Dynamical RAM for                hpsi:       7.30 MB

     Dynamical RAM for      wfcinit/wfcrot:       7.31 MB

     Estimated static dynamical RAM per process >     294.17 MB

     Estimated max dynamical RAM per process >     339.94 MB
 ----2D----2D----2D----2D----2D----2D----2D----2D----2D----2D----2D----2D
  The code is running with the 2D cutoff
  Please refer to:
  Sohier, T., Calandra, M., & Mauri, F. (2017), 
  Density functional perturbation theory for gated two-dimensional heterostructures:
  Theoretical developments and application to flexural phonons in graphene.
  Physical Review B, 96(7), 75448. https://doi.org/10.1103/PhysRevB.96.075448
 ----2D----2D----2D----2D----2D----2D----2D----2D----2D----2D----2D----2D

     Initial potential from superposition of free atoms

     starting charge      41.9980, renormalised to      42.0000

     negative rho (up, down):  8.919E-07 0.000E+00
     Starting wfcs are   34 randomized atomic wfcs

     total cpu time spent up to now is        3.8 secs

     Self-consistent Calculation
[tb_dev] Currently allocated     1.51E+00 Mbytes, locked:    0 /   5
[tb_pin] Currently allocated     0.00E+00 Mbytes, locked:    0 /   0

     iteration #  1     ecut=    80.00 Ry     beta= 0.50
     Davidson diagonalization with overlap

---- Real-time Memory Report at c_bands before calling an iterative solver
           901 MiB given to the printing process from OS
             0 MiB allocation reported by mallinfo(arena+hblkhd)
          5766 MiB available memory on the node where the printing process lives
     GPU memory used/free/total (MiB): 2030 / 9883 / 11914
------------------
     ethr =  1.00E-02,  avg # of iterations =  2.0

     total cpu time spent up to now is        8.4 secs

     total energy              =    -262.51733468 Ry
     estimated scf accuracy    <       2.22430423 Ry
[tb_dev] Currently allocated     2.67E-05 Mbytes, locked:    0 /   1
[tb_pin] Currently allocated     0.00E+00 Mbytes, locked:    0 /   0

     iteration #  2     ecut=    80.00 Ry     beta= 0.50
     Davidson diagonalization with overlap

---- Real-time Memory Report at c_bands before calling an iterative solver
           913 MiB given to the printing process from OS
             0 MiB allocation reported by mallinfo(arena+hblkhd)
          5751 MiB available memory on the node where the printing process lives
     GPU memory used/free/total (MiB): 2036 / 9877 / 11914
------------------
     ethr =  5.30E-03,  avg # of iterations =  6.2

     total cpu time spent up to now is       16.0 secs

     total energy              =    -262.75929090 Ry
     estimated scf accuracy    <       2.79145458 Ry
[tb_dev] Currently allocated     2.67E-05 Mbytes, locked:    0 /   1
[tb_pin] Currently allocated     0.00E+00 Mbytes, locked:    0 /   0

     iteration #  3     ecut=    80.00 Ry     beta= 0.50
     Davidson diagonalization with overlap

---- Real-time Memory Report at c_bands before calling an iterative solver
           931 MiB given to the printing process from OS
             0 MiB allocation reported by mallinfo(arena+hblkhd)
          5729 MiB available memory on the node where the printing process lives
     GPU memory used/free/total (MiB): 2036 / 9877 / 11914
------------------
     ethr =  5.30E-03,  avg # of iterations =  4.7

     total cpu time spent up to now is       21.9 secs

     total energy              =    -263.28953975 Ry
     estimated scf accuracy    <       0.32061797 Ry
[tb_dev] Currently allocated     2.67E-05 Mbytes, locked:    0 /   1
[tb_pin] Currently allocated     0.00E+00 Mbytes, locked:    0 /   0

     iteration #  4     ecut=    80.00 Ry     beta= 0.50
     Davidson diagonalization with overlap

---- Real-time Memory Report at c_bands before calling an iterative solver
           936 MiB given to the printing process from OS
             0 MiB allocation reported by mallinfo(arena+hblkhd)
          5722 MiB available memory on the node where the printing process lives
     GPU memory used/free/total (MiB): 2036 / 9877 / 11914
------------------
     ethr =  7.63E-04,  avg # of iterations =  2.9

     total cpu time spent up to now is       26.6 secs

     total energy              =    -263.30898233 Ry
     estimated scf accuracy    <       0.05614691 Ry
[tb_dev] Currently allocated     2.67E-05 Mbytes, locked:    0 /   1
[tb_pin] Currently allocated     0.00E+00 Mbytes, locked:    0 /   0

     iteration #  5     ecut=    80.00 Ry     beta= 0.50
     Davidson diagonalization with overlap

---- Real-time Memory Report at c_bands before calling an iterative solver
           942 MiB given to the printing process from OS
             0 MiB allocation reported by mallinfo(arena+hblkhd)
          5717 MiB available memory on the node where the printing process lives
     GPU memory used/free/total (MiB): 2036 / 9877 / 11914
------------------
     ethr =  1.34E-04,  avg # of iterations =  6.6

     total cpu time spent up to now is       34.1 secs

     total energy              =    -263.33709410 Ry
     estimated scf accuracy    <       0.08616044 Ry
[tb_dev] Currently allocated     2.67E-05 Mbytes, locked:    0 /   1
[tb_pin] Currently allocated     0.00E+00 Mbytes, locked:    0 /   0

     iteration #  6     ecut=    80.00 Ry     beta= 0.50
     Davidson diagonalization with overlap

---- Real-time Memory Report at c_bands before calling an iterative solver
           948 MiB given to the printing process from OS
             0 MiB allocation reported by mallinfo(arena+hblkhd)
          6521 MiB available memory on the node where the printing process lives
     GPU memory used/free/total (MiB): 2038 / 9875 / 11914
------------------
     ethr =  1.34E-04,  avg # of iterations =  3.3

     total cpu time spent up to now is       39.2 secs

     total energy              =    -263.33314882 Ry
     estimated scf accuracy    <       0.03930287 Ry
[tb_dev] Currently allocated     2.67E-05 Mbytes, locked:    0 /   1
[tb_pin] Currently allocated     0.00E+00 Mbytes, locked:    0 /   0

     iteration #  7     ecut=    80.00 Ry     beta= 0.50
     Davidson diagonalization with overlap

---- Real-time Memory Report at c_bands before calling an iterative solver
           953 MiB given to the printing process from OS
             0 MiB allocation reported by mallinfo(arena+hblkhd)
          6519 MiB available memory on the node where the printing process lives
     GPU memory used/free/total (MiB): 2038 / 9875 / 11914
------------------
     ethr =  9.36E-05,  avg # of iterations =  5.1

     total cpu time spent up to now is       45.8 secs

     total energy              =    -263.33775613 Ry
     estimated scf accuracy    <       0.00225077 Ry
[tb_dev] Currently allocated     2.67E-05 Mbytes, locked:    0 /   1
[tb_pin] Currently allocated     0.00E+00 Mbytes, locked:    0 /   0

     iteration #  8     ecut=    80.00 Ry     beta= 0.50
     Davidson diagonalization with overlap

---- Real-time Memory Report at c_bands before calling an iterative solver
           957 MiB given to the printing process from OS
             0 MiB allocation reported by mallinfo(arena+hblkhd)
          6515 MiB available memory on the node where the printing process lives
     GPU memory used/free/total (MiB): 2038 / 9875 / 11914
------------------
     ethr =  5.36E-06,  avg # of iterations =  7.3

     total cpu time spent up to now is       54.0 secs

     total energy              =    -263.33888606 Ry
     estimated scf accuracy    <       0.00621797 Ry
[tb_dev] Currently allocated     2.67E-05 Mbytes, locked:    0 /   1
[tb_pin] Currently allocated     0.00E+00 Mbytes, locked:    0 /   0

     iteration #  9     ecut=    80.00 Ry     beta= 0.50
     Davidson diagonalization with overlap

---- Real-time Memory Report at c_bands before calling an iterative solver
           961 MiB given to the printing process from OS
             0 MiB allocation reported by mallinfo(arena+hblkhd)
          6513 MiB available memory on the node where the printing process lives
     GPU memory used/free/total (MiB): 2038 / 9875 / 11914
------------------
     ethr =  5.36E-06,  avg # of iterations =  3.4

     total cpu time spent up to now is       59.0 secs

     total energy              =    -263.33875963 Ry
     estimated scf accuracy    <       0.00150915 Ry
[tb_dev] Currently allocated     2.67E-05 Mbytes, locked:    0 /   1
[tb_pin] Currently allocated     0.00E+00 Mbytes, locked:    0 /   0

     iteration # 10     ecut=    80.00 Ry     beta= 0.50
     Davidson diagonalization with overlap

---- Real-time Memory Report at c_bands before calling an iterative solver
           964 MiB given to the printing process from OS
             0 MiB allocation reported by mallinfo(arena+hblkhd)
          6513 MiB available memory on the node where the printing process lives
     GPU memory used/free/total (MiB): 2038 / 9875 / 11914
------------------
     ethr =  3.59E-06,  avg # of iterations =  5.6

     total cpu time spent up to now is       65.7 secs

     total energy              =    -263.33926630 Ry
     estimated scf accuracy    <       0.00047467 Ry
[tb_dev] Currently allocated     2.67E-05 Mbytes, locked:    0 /   1
[tb_pin] Currently allocated     0.00E+00 Mbytes, locked:    0 /   0

     iteration # 11     ecut=    80.00 Ry     beta= 0.50
     Davidson diagonalization with overlap

---- Real-time Memory Report at c_bands before calling an iterative solver
           970 MiB given to the printing process from OS
             0 MiB allocation reported by mallinfo(arena+hblkhd)
          6361 MiB available memory on the node where the printing process lives
     GPU memory used/free/total (MiB): 2038 / 9875 / 11914
------------------
     ethr =  1.13E-06,  avg # of iterations =  1.3

     total cpu time spent up to now is       69.4 secs

     total energy              =    -263.33918389 Ry
     estimated scf accuracy    <       0.00033853 Ry
[tb_dev] Currently allocated     2.67E-05 Mbytes, locked:    0 /   1
[tb_pin] Currently allocated     0.00E+00 Mbytes, locked:    0 /   0

     iteration # 12     ecut=    80.00 Ry     beta= 0.50
     Davidson diagonalization with overlap

---- Real-time Memory Report at c_bands before calling an iterative solver
           970 MiB given to the printing process from OS
             0 MiB allocation reported by mallinfo(arena+hblkhd)
          6306 MiB available memory on the node where the printing process lives
     GPU memory used/free/total (MiB): 2038 / 9875 / 11914
------------------
     ethr =  8.06E-07,  avg # of iterations =  4.8

     total cpu time spent up to now is       75.5 secs

     total energy              =    -263.33925005 Ry
     estimated scf accuracy    <       0.00000381 Ry
[tb_dev] Currently allocated     2.67E-05 Mbytes, locked:    0 /   1
[tb_pin] Currently allocated     0.00E+00 Mbytes, locked:    0 /   0

     iteration # 13     ecut=    80.00 Ry     beta= 0.50
     Davidson diagonalization with overlap

---- Real-time Memory Report at c_bands before calling an iterative solver
           971 MiB given to the printing process from OS
             0 MiB allocation reported by mallinfo(arena+hblkhd)
          5688 MiB available memory on the node where the printing process lives
     GPU memory used/free/total (MiB): 2038 / 9875 / 11914
------------------
     ethr =  9.06E-09,  avg # of iterations =  7.7

     total cpu time spent up to now is       84.6 secs

     total energy              =    -263.33925438 Ry
     estimated scf accuracy    <       0.00002692 Ry
[tb_dev] Currently allocated     2.67E-05 Mbytes, locked:    0 /   1
[tb_pin] Currently allocated     0.00E+00 Mbytes, locked:    0 /   0

     iteration # 14     ecut=    80.00 Ry     beta= 0.50
     Davidson diagonalization with overlap

---- Real-time Memory Report at c_bands before calling an iterative solver
           971 MiB given to the printing process from OS
             0 MiB allocation reported by mallinfo(arena+hblkhd)
          5688 MiB available memory on the node where the printing process lives
     GPU memory used/free/total (MiB): 2038 / 9875 / 11914
------------------
     ethr =  9.06E-09,  avg # of iterations =  6.1

     total cpu time spent up to now is       91.6 secs

     total energy              =    -263.33925583 Ry
     estimated scf accuracy    <       0.00000294 Ry
[tb_dev] Currently allocated     2.67E-05 Mbytes, locked:    0 /   1
[tb_pin] Currently allocated     0.00E+00 Mbytes, locked:    0 /   0

     iteration # 15     ecut=    80.00 Ry     beta= 0.50
     Davidson diagonalization with overlap

---- Real-time Memory Report at c_bands before calling an iterative solver
           971 MiB given to the printing process from OS
             0 MiB allocation reported by mallinfo(arena+hblkhd)
          5694 MiB available memory on the node where the printing process lives
     GPU memory used/free/total (MiB): 2038 / 9875 / 11914
------------------
     ethr =  7.01E-09,  avg # of iterations =  2.6

     total cpu time spent up to now is       96.5 secs

     total energy              =    -263.33925551 Ry
     estimated scf accuracy    <       0.00000142 Ry
[tb_dev] Currently allocated     2.67E-05 Mbytes, locked:    0 /   1
[tb_pin] Currently allocated     0.00E+00 Mbytes, locked:    0 /   0

     iteration # 16     ecut=    80.00 Ry     beta= 0.50
     Davidson diagonalization with overlap

---- Real-time Memory Report at c_bands before calling an iterative solver
           971 MiB given to the printing process from OS
             0 MiB allocation reported by mallinfo(arena+hblkhd)
          5688 MiB available memory on the node where the printing process lives
     GPU memory used/free/total (MiB): 2038 / 9875 / 11914
------------------
     ethr =  3.37E-09,  avg # of iterations =  6.9

     total cpu time spent up to now is      104.6 secs

     total energy              =    -263.33925619 Ry
     estimated scf accuracy    <       0.00000135 Ry
[tb_dev] Currently allocated     2.67E-05 Mbytes, locked:    0 /   1
[tb_pin] Currently allocated     0.00E+00 Mbytes, locked:    0 /   0

     iteration # 17     ecut=    80.00 Ry     beta= 0.50
     Davidson diagonalization with overlap

---- Real-time Memory Report at c_bands before calling an iterative solver
           971 MiB given to the printing process from OS
             0 MiB allocation reported by mallinfo(arena+hblkhd)
          5685 MiB available memory on the node where the printing process lives
     GPU memory used/free/total (MiB): 2038 / 9875 / 11914
------------------
     ethr =  3.21E-09,  avg # of iterations =  1.0

     total cpu time spent up to now is      108.0 secs

     total energy              =    -263.33925586 Ry
     estimated scf accuracy    <       0.00000099 Ry
[tb_dev] Currently allocated     2.67E-05 Mbytes, locked:    0 /   1
[tb_pin] Currently allocated     0.00E+00 Mbytes, locked:    0 /   0

     iteration # 18     ecut=    80.00 Ry     beta= 0.50
     Davidson diagonalization with overlap

---- Real-time Memory Report at c_bands before calling an iterative solver
           972 MiB given to the printing process from OS
             0 MiB allocation reported by mallinfo(arena+hblkhd)
          5688 MiB available memory on the node where the printing process lives
     GPU memory used/free/total (MiB): 2038 / 9875 / 11914
------------------
     ethr =  2.35E-09,  avg # of iterations =  5.3

     total cpu time spent up to now is      114.5 secs

     total energy              =    -263.33925613 Ry
     estimated scf accuracy    <       0.00000034 Ry
[tb_dev] Currently allocated     2.67E-05 Mbytes, locked:    0 /   1
[tb_pin] Currently allocated     0.00E+00 Mbytes, locked:    0 /   0

     iteration # 19     ecut=    80.00 Ry     beta= 0.50
     Davidson diagonalization with overlap

---- Real-time Memory Report at c_bands before calling an iterative solver
           972 MiB given to the printing process from OS
             0 MiB allocation reported by mallinfo(arena+hblkhd)
          5687 MiB available memory on the node where the printing process lives
     GPU memory used/free/total (MiB): 2038 / 9875 / 11914
------------------
     ethr =  8.00E-10,  avg # of iterations =  1.1

     total cpu time spent up to now is      118.1 secs

     total energy              =    -263.33925609 Ry
     estimated scf accuracy    <       0.00000027 Ry
[tb_dev] Currently allocated     2.67E-05 Mbytes, locked:    0 /   1
[tb_pin] Currently allocated     0.00E+00 Mbytes, locked:    0 /   0

     iteration # 20     ecut=    80.00 Ry     beta= 0.50
     Davidson diagonalization with overlap

---- Real-time Memory Report at c_bands before calling an iterative solver
           972 MiB given to the printing process from OS
             0 MiB allocation reported by mallinfo(arena+hblkhd)
          5688 MiB available memory on the node where the printing process lives
     GPU memory used/free/total (MiB): 2038 / 9875 / 11914
------------------
     ethr =  6.54E-10,  avg # of iterations =  4.1

     total cpu time spent up to now is      123.6 secs

     total energy              =    -263.33925611 Ry
     estimated scf accuracy    <       0.00000001 Ry
[tb_dev] Currently allocated     2.67E-05 Mbytes, locked:    0 /   1
[tb_pin] Currently allocated     0.00E+00 Mbytes, locked:    0 /   0

     iteration # 21     ecut=    80.00 Ry     beta= 0.50
     Davidson diagonalization with overlap

---- Real-time Memory Report at c_bands before calling an iterative solver
           972 MiB given to the printing process from OS
             0 MiB allocation reported by mallinfo(arena+hblkhd)
          5686 MiB available memory on the node where the printing process lives
     GPU memory used/free/total (MiB): 2038 / 9875 / 11914
------------------
     ethr =  2.80E-11,  avg # of iterations =  7.9

     total cpu time spent up to now is      132.1 secs

     total energy              =    -263.33925612 Ry
     estimated scf accuracy    <       0.00000002 Ry
[tb_dev] Currently allocated     2.67E-05 Mbytes, locked:    0 /   1
[tb_pin] Currently allocated     0.00E+00 Mbytes, locked:    0 /   0

     iteration # 22     ecut=    80.00 Ry     beta= 0.50
     Davidson diagonalization with overlap

---- Real-time Memory Report at c_bands before calling an iterative solver
           972 MiB given to the printing process from OS
             0 MiB allocation reported by mallinfo(arena+hblkhd)
          5684 MiB available memory on the node where the printing process lives
     GPU memory used/free/total (MiB): 2038 / 9875 / 11914
------------------
     ethr =  2.80E-11,  avg # of iterations =  2.2

     total cpu time spent up to now is      136.2 secs

     total energy              =    -263.33925612 Ry
     estimated scf accuracy    <       0.00000001 Ry
[tb_dev] Currently allocated     2.67E-05 Mbytes, locked:    0 /   1
[tb_pin] Currently allocated     0.00E+00 Mbytes, locked:    0 /   0

     iteration # 23     ecut=    80.00 Ry     beta= 0.50
     Davidson diagonalization with overlap

---- Real-time Memory Report at c_bands before calling an iterative solver
           972 MiB given to the printing process from OS
             0 MiB allocation reported by mallinfo(arena+hblkhd)
          5686 MiB available memory on the node where the printing process lives
     GPU memory used/free/total (MiB): 2038 / 9875 / 11914
------------------
     ethr =  2.80E-11,  avg # of iterations =  5.3

     total cpu time spent up to now is      142.7 secs

     total energy              =    -263.33925612 Ry
     estimated scf accuracy    <          6.9E-10 Ry
[tb_dev] Currently allocated     2.67E-05 Mbytes, locked:    0 /   1
[tb_pin] Currently allocated     0.00E+00 Mbytes, locked:    0 /   0

     iteration # 24     ecut=    80.00 Ry     beta= 0.50
     Davidson diagonalization with overlap

---- Real-time Memory Report at c_bands before calling an iterative solver
           973 MiB given to the printing process from OS
             0 MiB allocation reported by mallinfo(arena+hblkhd)
          5684 MiB available memory on the node where the printing process lives
     GPU memory used/free/total (MiB): 2038 / 9875 / 11914
------------------
     ethr =  1.64E-12,  avg # of iterations =  7.6

     total cpu time spent up to now is      151.3 secs

     total energy              =    -263.33925612 Ry
     estimated scf accuracy    <          4.3E-09 Ry
[tb_dev] Currently allocated     2.67E-05 Mbytes, locked:    0 /   1
[tb_pin] Currently allocated     0.00E+00 Mbytes, locked:    0 /   0

     iteration # 25     ecut=    80.00 Ry     beta= 0.50
     Davidson diagonalization with overlap

---- Real-time Memory Report at c_bands before calling an iterative solver
           973 MiB given to the printing process from OS
             0 MiB allocation reported by mallinfo(arena+hblkhd)
          5685 MiB available memory on the node where the printing process lives
     GPU memory used/free/total (MiB): 2038 / 9875 / 11914
------------------
     ethr =  1.64E-12,  avg # of iterations =  4.4

     total cpu time spent up to now is      157.2 secs

     total energy              =    -263.33925612 Ry
     estimated scf accuracy    <          1.3E-09 Ry
[tb_dev] Currently allocated     2.67E-05 Mbytes, locked:    0 /   1
[tb_pin] Currently allocated     0.00E+00 Mbytes, locked:    0 /   0

     iteration # 26     ecut=    80.00 Ry     beta= 0.50
     Davidson diagonalization with overlap

---- Real-time Memory Report at c_bands before calling an iterative solver
           973 MiB given to the printing process from OS
             0 MiB allocation reported by mallinfo(arena+hblkhd)
          6880 MiB available memory on the node where the printing process lives
     GPU memory used/free/total (MiB): 2038 / 9875 / 11914
------------------
     ethr =  1.64E-12,  avg # of iterations =  6.1

     total cpu time spent up to now is      164.2 secs

     End of self-consistent calculation

          k = 0.0000 0.0000 0.0000 ( 11445 PWs)   bands (ev):

   -77.8552 -49.0487 -49.0403 -49.0403 -24.8888 -24.8156 -22.0538 -20.6580
   -14.2898 -11.6968  -9.7063  -9.2074  -9.2073  -9.1455  -9.1452  -8.8699
    -8.8696  -7.7374  -7.5717  -7.5710  -5.5010

     occupation numbers 
     1.0000   1.0000   1.0000   1.0000   1.0000   1.0000   1.0000   1.0000
     1.0000   1.0000   1.0000   1.0000   1.0000   1.0000   1.0000   1.0000
     1.0000   1.0000   1.0000   1.0000   1.0000

          k = 0.0000 0.1050 0.0000 ( 11439 PWs)   bands (ev):

   -77.8516 -49.0669 -49.0463 -49.0437 -24.7386 -24.6677 -21.9340 -20.5914
   -14.1640 -11.6387  -9.9789  -9.8274  -9.4163  -9.3316  -9.2948  -9.1465
    -8.7826  -7.9536  -7.7271  -7.4512  -5.6045

     occupation numbers 
     1.0000   1.0000   1.0000   1.0000   1.0000   1.0000   1.0000   1.0000
     1.0000   1.0000   1.0000   1.0000   1.0000   1.0000   1.0000   1.0000
     1.0000   1.0000   1.0000   1.0000   1.0000

          k = 0.0000 0.2099 0.0000 ( 11463 PWs)   bands (ev):

   -77.8419 -49.1380 -49.0623 -49.0305 -24.2999 -24.2358 -21.6028 -20.4095
   -13.8480 -11.5840 -11.2668 -11.2307  -9.7938  -9.6704  -9.6628  -9.2285
    -8.5095  -8.3638  -8.0975  -7.5799  -5.9724

     occupation numbers 
     1.0000   1.0000   1.0000   1.0000   1.0000   1.0000   1.0000   1.0000
     1.0000   1.0000   1.0000   1.0000   1.0000   1.0000   1.0000   1.0000
     1.0000   1.0000   1.0000   1.0000   1.0000

          k = 0.0000 0.3149 0.0000 ( 11427 PWs)   bands (ev):

   -77.8293 -49.2301 -49.0833 -49.0132 -23.6164 -23.5628 -21.1499 -20.1726
   -13.7505 -13.0582 -12.5690 -11.2846 -10.5217 -10.0913 -10.0738  -9.0391
    -8.8502  -8.5256  -8.1082  -7.7958  -6.3792

     occupation numbers 
     1.0000   1.0000   1.0000   1.0000   1.0000   1.0000   1.0000   1.0000
     1.0000   1.0000   1.0000   1.0000   1.0000   1.0000   1.0000   1.0000
     1.0000   1.0000   1.0000   1.0000   1.0000

          k = 0.0000 0.4199 0.0000 ( 11387 PWs)   bands (ev):

   -77.8177 -49.3139 -49.1025 -48.9972 -22.7949 -22.7551 -20.7405 -19.9937
   -14.8006 -14.5521 -12.6266 -11.4150 -11.0351 -10.4414 -10.4098  -9.4879
    -8.8609  -8.6051  -7.8829  -7.7259  -6.5127

     occupation numbers 
     1.0000   1.0000   1.0000   1.0000   1.0000   1.0000   1.0000   1.0000
     1.0000   1.0000   1.0000   1.0000   1.0000   1.0000   1.0000   1.0000
     1.0000   1.0000   1.0000   1.0000   1.0000

          k = 0.0000 0.5249 0.0000 ( 11357 PWs)   bands (ev):

   -77.8107 -49.3633 -49.1138 -48.9877 -22.1114 -22.0884 -20.5663 -19.9766
   -15.6861 -15.4685 -12.4547 -11.8029 -11.2123 -10.6343 -10.5957  -9.6719
    -9.0455  -8.3264  -7.8941  -7.4852  -6.4682

     occupation numbers 
     1.0000   1.0000   1.0000   1.0000   1.0000   1.0000   1.0000   1.0000
     1.0000   1.0000   1.0000   1.0000   1.0000   1.0000   1.0000   1.0000
     1.0000   1.0000   1.0000   1.0000   1.0000

          k = 0.0909 0.1575 0.0000 ( 11455 PWs)   bands (ev):

   -77.8450 -49.1142 -49.0589 -49.0347 -24.4440 -24.3777 -21.7082 -20.4668
   -13.9402 -11.5496 -10.8148 -10.7933  -9.8213  -9.6530  -9.4199  -9.2856
    -8.6277  -8.1608  -8.1214  -7.4339  -5.8500

     occupation numbers 
     1.0000   1.0000   1.0000   1.0000   1.0000   1.0000   1.0000   1.0000
     1.0000   1.0000   1.0000   1.0000   1.0000   1.0000   1.0000   1.0000
     1.0000   1.0000   1.0000   1.0000   1.0000

          k = 0.0909 0.2624 0.0000 ( 11440 PWs)   bands (ev):

   -77.8338 -49.1917 -49.0814 -49.0194 -23.8812 -23.8234 -21.3140 -20.2547
   -13.6621 -12.3212 -12.0734 -11.2990 -10.4928 -10.2239  -9.9292  -9.0445
    -8.8629  -8.3536  -8.2445  -7.6317  -6.2546

     occupation numbers 
     1.0000   1.0000   1.0000   1.0000   1.0000   1.0000   1.0000   1.0000
     1.0000   1.0000   1.0000   1.0000   1.0000   1.0000   1.0000   1.0000
     1.0000   1.0000   1.0000   1.0000   1.0000

          k = 0.0909 0.3674 0.0000 ( 11409 PWs)   bands (ev):

   -77.8217 -49.2751 -49.1061 -49.0027 -23.1198 -23.0739 -20.8757 -20.0390
   -14.1737 -13.8274 -12.6381 -11.2929 -10.9955 -10.7304 -10.4731  -9.5349
    -8.7795  -8.4476  -8.0675  -7.8226  -6.4965

     occupation numbers 
     1.0000   1.0000   1.0000   1.0000   1.0000   1.0000   1.0000   1.0000
     1.0000   1.0000   1.0000   1.0000   1.0000   1.0000   1.0000   1.0000
     1.0000   1.0000   1.0000   1.0000   1.0000

          k = 0.0909 0.4724 0.0000 ( 11375 PWs)   bands (ev):

   -77.8124 -49.3381 -49.1249 -48.9900 -22.3300 -22.2998 -20.5836 -19.9427
   -15.2442 -15.0210 -12.4700 -11.6817 -11.2137 -10.9630 -10.8982  -9.7967
    -8.9176  -8.3804  -7.9904  -7.7320  -6.4419

     occupation numbers 
     1.0000   1.0000   1.0000   1.0000   1.0000   1.0000   1.0000   1.0000
     1.0000   1.0000   1.0000   1.0000   1.0000   1.0000   1.0000   1.0000
     1.0000   1.0000   1.0000   1.0000   1.0000

          k = 0.0909 0.5774 0.0000 ( 11328 PWs)   bands (ev):

   -77.8089 -49.3615 -49.1319 -48.9852 -21.9320 -21.9130 -20.5275 -19.9640
   -15.7031 -15.4858 -12.3557 -11.8982 -11.3108 -11.1304 -10.9990  -9.7666
    -9.1119  -8.2299  -7.9483  -7.6930  -6.3609

     occupation numbers 
     1.0000   1.0000   1.0000   1.0000   1.0000   1.0000   1.0000   1.0000
     1.0000   1.0000   1.0000   1.0000   1.0000   1.0000   1.0000   1.0000
     1.0000   1.0000   1.0000   1.0000   1.0000

          k = 0.1818 0.3149 0.0000 ( 11401 PWs)   bands (ev):

   -77.8232 -49.2531 -49.1150 -49.0048 -23.2350 -23.1871 -20.9287 -20.0574
   -13.8496 -13.3536 -12.5108 -11.4253 -11.2913 -10.9990 -10.3520  -9.6570
    -8.7957  -8.3868  -8.0786  -7.8496  -6.4895

     occupation numbers 
     1.0000   1.0000   1.0000   1.0000   1.0000   1.0000   1.0000   1.0000
     1.0000   1.0000   1.0000   1.0000   1.0000   1.0000   1.0000   1.0000
     1.0000   1.0000   1.0000   1.0000   1.0000

          k = 0.1818 0.4199 0.0000 ( 11383 PWs)   bands (ev):

   -77.8134 -49.3048 -49.1501 -48.9914 -22.4727 -22.4381 -20.5958 -19.9134
   -14.6392 -14.3778 -12.4497 -12.1265 -11.9597 -10.9751 -10.7689 -10.1337
    -8.7231  -8.6018  -8.2038  -7.8060  -6.4379

     occupation numbers 
     1.0000   1.0000   1.0000   1.0000   1.0000   1.0000   1.0000   1.0000
     1.0000   1.0000   1.0000   1.0000   1.0000   1.0000   1.0000   1.0000
     1.0000   1.0000   1.0000   1.0000   1.0000

          k = 0.1818 0.5249 0.0000 ( 11337 PWs)   bands (ev):

   -77.8076 -49.3340 -49.1723 -48.9834 -21.8584 -21.8382 -20.4637 -19.8988
   -15.2916 -15.0705 -12.6493 -12.4639 -11.8436 -11.2929 -11.1424  -9.9547
    -9.1156  -8.7323  -8.1606  -7.6336  -6.2402

     occupation numbers 
     1.0000   1.0000   1.0000   1.0000   1.0000   1.0000   1.0000   1.0000
     1.0000   1.0000   1.0000   1.0000   1.0000   1.0000   1.0000   1.0000
     1.0000   1.0000   1.0000   1.0000   1.0000

          k = 0.2727 0.4724 0.0000 ( 11346 PWs)   bands (ev):

   -77.8071 -49.3104 -49.2009 -48.9827 -21.8472 -21.8256 -20.4309 -19.8604
   -14.8797 -14.6315 -13.2523 -13.1159 -11.9166 -11.1840 -10.8727 -10.1297
    -9.4217  -8.8717  -8.1834  -7.6122  -6.1958

     occupation numbers 
     1.0000   1.0000   1.0000   1.0000   1.0000   1.0000   1.0000   1.0000
     1.0000   1.0000   1.0000   1.0000   1.0000   1.0000   1.0000   1.0000
     1.0000   1.0000   1.0000   1.0000   1.0000

          k = 0.2727 0.5774 0.0000 ( 11342 PWs)   bands (ev):

   -77.8047 -49.3039 -49.2283 -48.9794 -21.5612 -21.5422 -20.4019 -19.8660
   -14.9107 -14.6616 -13.7091 -13.6079 -11.5886 -11.3669 -10.9817  -9.9874
    -9.7036  -9.2042  -8.1058  -7.5099  -6.0349

     occupation numbers 
     1.0000   1.0000   1.0000   1.0000   1.0000   1.0000   1.0000   1.0000
     1.0000   1.0000   1.0000   1.0000   1.0000   1.0000   1.0000   1.0000
     1.0000   1.0000   1.0000   1.0000   1.0000

          k =-0.0909 0.0525 0.0000 ( 11439 PWs)   bands (ev):

   -77.8516 -49.0670 -49.0463 -49.0437 -24.7386 -24.6677 -21.9340 -20.5914
   -14.1640 -11.6387  -9.9789  -9.8275  -9.4163  -9.3315  -9.2947  -9.1467
    -8.7824  -7.9532  -7.7276  -7.4512  -5.6045

     occupation numbers 
     1.0000   1.0000   1.0000   1.0000   1.0000   1.0000   1.0000   1.0000
     1.0000   1.0000   1.0000   1.0000   1.0000   1.0000   1.0000   1.0000
     1.0000   1.0000   1.0000   1.0000   1.0000

          k = 0.0909 0.0525 0.0000 ( 11439 PWs)   bands (ev):

   -77.8516 -49.0669 -49.0463 -49.0437 -24.7386 -24.6677 -21.9340 -20.5914
   -14.1640 -11.6387  -9.9789  -9.8274  -9.4163  -9.3316  -9.2948  -9.1465
    -8.7826  -7.9536  -7.7271  -7.4512  -5.6045

     occupation numbers 
     1.0000   1.0000   1.0000   1.0000   1.0000   1.0000   1.0000   1.0000
     1.0000   1.0000   1.0000   1.0000   1.0000   1.0000   1.0000   1.0000
     1.0000   1.0000   1.0000   1.0000   1.0000

          k =-0.1818 0.1050 0.0000 ( 11463 PWs)   bands (ev):

   -77.8419 -49.1380 -49.0623 -49.0305 -24.2999 -24.2358 -21.6028 -20.4095
   -13.8480 -11.5839 -11.2670 -11.2306  -9.7940  -9.6704  -9.6625  -9.2285
    -8.5093  -8.3634  -8.0978  -7.5801  -5.9723

     occupation numbers 
     1.0000   1.0000   1.0000   1.0000   1.0000   1.0000   1.0000   1.0000
     1.0000   1.0000   1.0000   1.0000   1.0000   1.0000   1.0000   1.0000
     1.0000   1.0000   1.0000   1.0000   1.0000

          k = 0.1818 0.1050 0.0000 ( 11463 PWs)   bands (ev):

   -77.8419 -49.1380 -49.0623 -49.0305 -24.2999 -24.2358 -21.6028 -20.4095
   -13.8480 -11.5840 -11.2668 -11.2307  -9.7938  -9.6704  -9.6628  -9.2285
    -8.5095  -8.3638  -8.0974  -7.5799  -5.9724

     occupation numbers 
     1.0000   1.0000   1.0000   1.0000   1.0000   1.0000   1.0000   1.0000
     1.0000   1.0000   1.0000   1.0000   1.0000   1.0000   1.0000   1.0000
     1.0000   1.0000   1.0000   1.0000   1.0000

          k =-0.2727 0.1575 0.0000 ( 11427 PWs)   bands (ev):

   -77.8293 -49.2301 -49.0833 -49.0132 -23.6164 -23.5628 -21.1499 -20.1726
   -13.7505 -13.0583 -12.5691 -11.2844 -10.5219 -10.0912 -10.0736  -9.0391
    -8.8500  -8.5259  -8.1081  -7.7959  -6.3790

     occupation numbers 
     1.0000   1.0000   1.0000   1.0000   1.0000   1.0000   1.0000   1.0000
     1.0000   1.0000   1.0000   1.0000   1.0000   1.0000   1.0000   1.0000
     1.0000   1.0000   1.0000   1.0000   1.0000

          k = 0.2727 0.1575 0.0000 ( 11427 PWs)   bands (ev):

   -77.8293 -49.2301 -49.0833 -49.0132 -23.6164 -23.5628 -21.1499 -20.1726
   -13.7505 -13.0582 -12.5690 -11.2846 -10.5217 -10.0913 -10.0738  -9.0391
    -8.8502  -8.5256  -8.1082  -7.7958  -6.3792

     occupation numbers 
     1.0000   1.0000   1.0000   1.0000   1.0000   1.0000   1.0000   1.0000
     1.0000   1.0000   1.0000   1.0000   1.0000   1.0000   1.0000   1.0000
     1.0000   1.0000   1.0000   1.0000   1.0000

          k =-0.3636 0.2099 0.0000 ( 11387 PWs)   bands (ev):

   -77.8177 -49.3139 -49.1025 -48.9972 -22.7950 -22.7552 -20.7405 -19.9937
   -14.8006 -14.5522 -12.6267 -11.4149 -11.0351 -10.4414 -10.4096  -9.4881
    -8.8611  -8.6050  -7.8830  -7.7258  -6.5125

     occupation numbers 
     1.0000   1.0000   1.0000   1.0000   1.0000   1.0000   1.0000   1.0000
     1.0000   1.0000   1.0000   1.0000   1.0000   1.0000   1.0000   1.0000
     1.0000   1.0000   1.0000   1.0000   1.0000

          k = 0.3636 0.2099 0.0000 ( 11387 PWs)   bands (ev):

   -77.8177 -49.3139 -49.1025 -48.9972 -22.7949 -22.7552 -20.7405 -19.9937
   -14.8006 -14.5521 -12.6266 -11.4150 -11.0351 -10.4414 -10.4098  -9.4880
    -8.8609  -8.6051  -7.8829  -7.7259  -6.5127

     occupation numbers 
     1.0000   1.0000   1.0000   1.0000   1.0000   1.0000   1.0000   1.0000
     1.0000   1.0000   1.0000   1.0000   1.0000   1.0000   1.0000   1.0000
     1.0000   1.0000   1.0000   1.0000   1.0000

          k =-0.4545 0.2624 0.0000 ( 11357 PWs)   bands (ev):

   -77.8107 -49.3633 -49.1138 -48.9877 -22.1114 -22.0884 -20.5663 -19.9765
   -15.6862 -15.4686 -12.4549 -11.8028 -11.2122 -10.6342 -10.5956  -9.6720
    -9.0457  -8.3262  -7.8942  -7.4853  -6.4680

     occupation numbers 
     1.0000   1.0000   1.0000   1.0000   1.0000   1.0000   1.0000   1.0000
     1.0000   1.0000   1.0000   1.0000   1.0000   1.0000   1.0000   1.0000
     1.0000   1.0000   1.0000   1.0000   1.0000

          k = 0.4545 0.2624 0.0000 ( 11357 PWs)   bands (ev):

   -77.8107 -49.3633 -49.1139 -48.9877 -22.1114 -22.0884 -20.5663 -19.9766
   -15.6861 -15.4685 -12.4547 -11.8029 -11.2123 -10.6343 -10.5957  -9.6720
    -9.0455  -8.3264  -7.8941  -7.4852  -6.4682

     occupation numbers 
     1.0000   1.0000   1.0000   1.0000   1.0000   1.0000   1.0000   1.0000
     1.0000   1.0000   1.0000   1.0000   1.0000   1.0000   1.0000   1.0000
     1.0000   1.0000   1.0000   1.0000   1.0000

          k =-0.0909 0.1575 0.0000 ( 11455 PWs)   bands (ev):

   -77.8450 -49.1142 -49.0589 -49.0347 -24.4440 -24.3777 -21.7082 -20.4668
   -13.9402 -11.5496 -10.8148 -10.7935  -9.8214  -9.6529  -9.4199  -9.2856
    -8.6275  -8.1610  -8.1211  -7.4342  -5.8499

     occupation numbers 
     1.0000   1.0000   1.0000   1.0000   1.0000   1.0000   1.0000   1.0000
     1.0000   1.0000   1.0000   1.0000   1.0000   1.0000   1.0000   1.0000
     1.0000   1.0000   1.0000   1.0000   1.0000

          k = 0.1818-0.0000 0.0000 ( 11455 PWs)   bands (ev):

   -77.8450 -49.1142 -49.0589 -49.0347 -24.4440 -24.3777 -21.7082 -20.4668
   -13.9402 -11.5496 -10.8148 -10.7935  -9.8214  -9.6529  -9.4199  -9.2856
    -8.6275  -8.1610  -8.1211  -7.4342  -5.8499

     occupation numbers 
     1.0000   1.0000   1.0000   1.0000   1.0000   1.0000   1.0000   1.0000
     1.0000   1.0000   1.0000   1.0000   1.0000   1.0000   1.0000   1.0000
     1.0000   1.0000   1.0000   1.0000   1.0000

          k =-0.0909 0.2624 0.0000 ( 11440 PWs)   bands (ev):

   -77.8338 -49.1917 -49.0814 -49.0194 -23.8812 -23.8234 -21.3140 -20.2547
   -13.6621 -12.3212 -12.0735 -11.2989 -10.4929 -10.2238  -9.9292  -9.0445
    -8.8630  -8.3535  -8.2441  -7.6321  -6.2545

     occupation numbers 
     1.0000   1.0000   1.0000   1.0000   1.0000   1.0000   1.0000   1.0000
     1.0000   1.0000   1.0000   1.0000   1.0000   1.0000   1.0000   1.0000
     1.0000   1.0000   1.0000   1.0000   1.0000

          k =-0.1818 0.2099 0.0000 ( 11440 PWs)   bands (ev):

   -77.8338 -49.1917 -49.0814 -49.0194 -23.8812 -23.8234 -21.3140 -20.2547
   -13.6622 -12.3212 -12.0735 -11.2989 -10.4929 -10.2237  -9.9292  -9.0445
    -8.8630  -8.3534  -8.2442  -7.6321  -6.2544

     occupation numbers 
     1.0000   1.0000   1.0000   1.0000   1.0000   1.0000   1.0000   1.0000
     1.0000   1.0000   1.0000   1.0000   1.0000   1.0000   1.0000   1.0000
     1.0000   1.0000   1.0000   1.0000   1.0000

          k = 0.2727 0.0525 0.0000 ( 11440 PWs)   bands (ev):

   -77.8338 -49.1917 -49.0814 -49.0194 -23.8812 -23.8234 -21.3140 -20.2547
   -13.6621 -12.3212 -12.0735 -11.2989 -10.4930 -10.2238  -9.9292  -9.0445
    -8.8630  -8.3535  -8.2441  -7.6321  -6.2545

     occupation numbers 
     1.0000   1.0000   1.0000   1.0000   1.0000   1.0000   1.0000   1.0000
     1.0000   1.0000   1.0000   1.0000   1.0000   1.0000   1.0000   1.0000
     1.0000   1.0000   1.0000   1.0000   1.0000

          k =-0.1818-0.2099 0.0000 ( 11440 PWs)   bands (ev):

   -77.8338 -49.1917 -49.0814 -49.0194 -23.8812 -23.8234 -21.3140 -20.2547
   -13.6621 -12.3212 -12.0734 -11.2990 -10.4928 -10.2239  -9.9292  -9.0445
    -8.8629  -8.3536  -8.2444  -7.6317  -6.2546

     occupation numbers 
     1.0000   1.0000   1.0000   1.0000   1.0000   1.0000   1.0000   1.0000
     1.0000   1.0000   1.0000   1.0000   1.0000   1.0000   1.0000   1.0000
     1.0000   1.0000   1.0000   1.0000   1.0000

          k = 0.2727-0.0525 0.0000 ( 11440 PWs)   bands (ev):

   -77.8338 -49.1917 -49.0814 -49.0194 -23.8812 -23.8234 -21.3140 -20.2547
   -13.6622 -12.3212 -12.0735 -11.2989 -10.4929 -10.2237  -9.9292  -9.0445
    -8.8630  -8.3534  -8.2442  -7.6321  -6.2544

     occupation numbers 
     1.0000   1.0000   1.0000   1.0000   1.0000   1.0000   1.0000   1.0000
     1.0000   1.0000   1.0000   1.0000   1.0000   1.0000   1.0000   1.0000
     1.0000   1.0000   1.0000   1.0000   1.0000

          k =-0.0909 0.3674 0.0000 ( 11409 PWs)   bands (ev):

   -77.8217 -49.2751 -49.1061 -49.0027 -23.1198 -23.0739 -20.8757 -20.0390
   -14.1737 -13.8274 -12.6381 -11.2929 -10.9956 -10.7304 -10.4730  -9.5348
    -8.7795  -8.4476  -8.0677  -7.8226  -6.4963

     occupation numbers 
     1.0000   1.0000   1.0000   1.0000   1.0000   1.0000   1.0000   1.0000
     1.0000   1.0000   1.0000   1.0000   1.0000   1.0000   1.0000   1.0000
     1.0000   1.0000   1.0000   1.0000   1.0000

          k =-0.2727 0.2624 0.0000 ( 11409 PWs)   bands (ev):

   -77.8217 -49.2751 -49.1061 -49.0027 -23.1198 -23.0739 -20.8757 -20.0390
   -14.1738 -13.8274 -12.6382 -11.2927 -10.9956 -10.7303 -10.4731  -9.5350
    -8.7795  -8.4476  -8.0676  -7.8226  -6.4962

     occupation numbers 
     1.0000   1.0000   1.0000   1.0000   1.0000   1.0000   1.0000   1.0000
     1.0000   1.0000   1.0000   1.0000   1.0000   1.0000   1.0000   1.0000
     1.0000   1.0000   1.0000   1.0000   1.0000

          k = 0.3636 0.1050 0.0000 ( 11409 PWs)   bands (ev):

   -77.8217 -49.2751 -49.1061 -49.0027 -23.1198 -23.0739 -20.8757 -20.0390
   -14.1737 -13.8274 -12.6381 -11.2929 -10.9956 -10.7304 -10.4730  -9.5348
    -8.7795  -8.4476  -8.0677  -7.8226  -6.4963

     occupation numbers 
     1.0000   1.0000   1.0000   1.0000   1.0000   1.0000   1.0000   1.0000
     1.0000   1.0000   1.0000   1.0000   1.0000   1.0000   1.0000   1.0000
     1.0000   1.0000   1.0000   1.0000   1.0000

          k =-0.2727-0.2624 0.0000 ( 11409 PWs)   bands (ev):

   -77.8217 -49.2751 -49.1061 -49.0027 -23.1198 -23.0739 -20.8757 -20.0390
   -14.1737 -13.8274 -12.6381 -11.2929 -10.9955 -10.7304 -10.4731  -9.5349
    -8.7795  -8.4476  -8.0675  -7.8226  -6.4965

     occupation numbers 
     1.0000   1.0000   1.0000   1.0000   1.0000   1.0000   1.0000   1.0000
     1.0000   1.0000   1.0000   1.0000   1.0000   1.0000   1.0000   1.0000
     1.0000   1.0000   1.0000   1.0000   1.0000

          k = 0.3636-0.1050 0.0000 ( 11409 PWs)   bands (ev):

   -77.8217 -49.2751 -49.1061 -49.0027 -23.1198 -23.0739 -20.8757 -20.0390
   -14.1738 -13.8274 -12.6382 -11.2927 -10.9956 -10.7303 -10.4731  -9.5350
    -8.7795  -8.4476  -8.0676  -7.8226  -6.4962

     occupation numbers 
     1.0000   1.0000   1.0000   1.0000   1.0000   1.0000   1.0000   1.0000
     1.0000   1.0000   1.0000   1.0000   1.0000   1.0000   1.0000   1.0000
     1.0000   1.0000   1.0000   1.0000   1.0000

          k =-0.0909 0.4724 0.0000 ( 11375 PWs)   bands (ev):

   -77.8124 -49.3381 -49.1249 -48.9900 -22.3300 -22.2998 -20.5836 -19.9427
   -15.2442 -15.0210 -12.4701 -11.6818 -11.2137 -10.9631 -10.8981  -9.7964
    -8.9179  -8.3805  -7.9906  -7.7318  -6.4418

     occupation numbers 
     1.0000   1.0000   1.0000   1.0000   1.0000   1.0000   1.0000   1.0000
     1.0000   1.0000   1.0000   1.0000   1.0000   1.0000   1.0000   1.0000
     1.0000   1.0000   1.0000   1.0000   1.0000

          k =-0.3636 0.3149 0.0000 ( 11375 PWs)   bands (ev):

   -77.8124 -49.3381 -49.1248 -48.9900 -22.3300 -22.2999 -20.5836 -19.9426
   -15.2442 -15.0211 -12.4702 -11.6817 -11.2137 -10.9630 -10.8979  -9.7967
    -8.9178  -8.3803  -7.9906  -7.7319  -6.4417

     occupation numbers 
     1.0000   1.0000   1.0000   1.0000   1.0000   1.0000   1.0000   1.0000
     1.0000   1.0000   1.0000   1.0000   1.0000   1.0000   1.0000   1.0000
     1.0000   1.0000   1.0000   1.0000   1.0000

          k = 0.4545 0.1575 0.0000 ( 11375 PWs)   bands (ev):

   -77.8124 -49.3381 -49.1249 -48.9900 -22.3300 -22.2998 -20.5836 -19.9427
   -15.2442 -15.0211 -12.4701 -11.6818 -11.2137 -10.9631 -10.8981  -9.7964
    -8.9179  -8.3805  -7.9906  -7.7318  -6.4418

     occupation numbers 
     1.0000   1.0000   1.0000   1.0000   1.0000   1.0000   1.0000   1.0000
     1.0000   1.0000   1.0000   1.0000   1.0000   1.0000   1.0000   1.0000
     1.0000   1.0000   1.0000   1.0000   1.0000

          k =-0.3636-0.3149 0.0000 ( 11375 PWs)   bands (ev):

   -77.8124 -49.3381 -49.1249 -48.9900 -22.3300 -22.2998 -20.5836 -19.9427
   -15.2442 -15.0210 -12.4700 -11.6817 -11.2137 -10.9630 -10.8982  -9.7967
    -8.9176  -8.3804  -7.9904  -7.7320  -6.4419

     occupation numbers 
     1.0000   1.0000   1.0000   1.0000   1.0000   1.0000   1.0000   1.0000
     1.0000   1.0000   1.0000   1.0000   1.0000   1.0000   1.0000   1.0000
     1.0000   1.0000   1.0000   1.0000   1.0000

          k = 0.4545-0.1575 0.0000 ( 11375 PWs)   bands (ev):

   -77.8124 -49.3381 -49.1248 -48.9900 -22.3300 -22.2999 -20.5836 -19.9426
   -15.2442 -15.0211 -12.4702 -11.6817 -11.2137 -10.9630 -10.8979  -9.7967
    -8.9178  -8.3803  -7.9906  -7.7319  -6.4417

     occupation numbers 
     1.0000   1.0000   1.0000   1.0000   1.0000   1.0000   1.0000   1.0000
     1.0000   1.0000   1.0000   1.0000   1.0000   1.0000   1.0000   1.0000
     1.0000   1.0000   1.0000   1.0000   1.0000

          k =-0.4545 0.3674 0.0000 ( 11328 PWs)   bands (ev):

   -77.8089 -49.3615 -49.1318 -48.9852 -21.9320 -21.9130 -20.5275 -19.9638
   -15.7032 -15.4859 -12.3559 -11.8980 -11.3108 -11.1305 -10.9987  -9.7667
    -9.1119  -8.2297  -7.9484  -7.6931  -6.3607

     occupation numbers 
     1.0000   1.0000   1.0000   1.0000   1.0000   1.0000   1.0000   1.0000
     1.0000   1.0000   1.0000   1.0000   1.0000   1.0000   1.0000   1.0000
     1.0000   1.0000   1.0000   1.0000   1.0000

          k = 0.5455 0.2099 0.0000 ( 11328 PWs)   bands (ev):

   -77.8089 -49.3615 -49.1319 -48.9852 -21.9320 -21.9130 -20.5275 -19.9639
   -15.7031 -15.4858 -12.3557 -11.8982 -11.3109 -11.1304 -10.9990  -9.7666
    -9.1119  -8.2299  -7.9483  -7.6930  -6.3609

     occupation numbers 
     1.0000   1.0000   1.0000   1.0000   1.0000   1.0000   1.0000   1.0000
     1.0000   1.0000   1.0000   1.0000   1.0000   1.0000   1.0000   1.0000
     1.0000   1.0000   1.0000   1.0000   1.0000

          k =-0.1818 0.3149 0.0000 ( 11401 PWs)   bands (ev):

   -77.8232 -49.2531 -49.1150 -49.0048 -23.2350 -23.1871 -20.9287 -20.0573
   -13.8496 -13.3537 -12.5109 -11.4253 -11.2912 -10.9989 -10.3521  -9.6571
    -8.7957  -8.3867  -8.0784  -7.8499  -6.4892

     occupation numbers 
     1.0000   1.0000   1.0000   1.0000   1.0000   1.0000   1.0000   1.0000
     1.0000   1.0000   1.0000   1.0000   1.0000   1.0000   1.0000   1.0000
     1.0000   1.0000   1.0000   1.0000   1.0000

          k = 0.3636-0.0000 0.0000 ( 11401 PWs)   bands (ev):

   -77.8232 -49.2531 -49.1150 -49.0048 -23.2350 -23.1871 -20.9287 -20.0573
   -13.8496 -13.3537 -12.5109 -11.4253 -11.2912 -10.9989 -10.3520  -9.6571
    -8.7957  -8.3867  -8.0784  -7.8499  -6.4892

     occupation numbers 
     1.0000   1.0000   1.0000   1.0000   1.0000   1.0000   1.0000   1.0000
     1.0000   1.0000   1.0000   1.0000   1.0000   1.0000   1.0000   1.0000
     1.0000   1.0000   1.0000   1.0000   1.0000

          k =-0.1818 0.4199 0.0000 ( 11383 PWs)   bands (ev):

   -77.8134 -49.3048 -49.1501 -48.9914 -22.4727 -22.4381 -20.5958 -19.9133
   -14.6393 -14.3778 -12.4497 -12.1265 -11.9597 -10.9752 -10.7690 -10.1334
    -8.7232  -8.6019  -8.2041  -7.8058  -6.4377

     occupation numbers 
     1.0000   1.0000   1.0000   1.0000   1.0000   1.0000   1.0000   1.0000
     1.0000   1.0000   1.0000   1.0000   1.0000   1.0000   1.0000   1.0000
     1.0000   1.0000   1.0000   1.0000   1.0000

          k =-0.2727 0.3674 0.0000 ( 11383 PWs)   bands (ev):

   -77.8134 -49.3048 -49.1501 -48.9914 -22.4727 -22.4381 -20.5958 -19.9133
   -14.6393 -14.3779 -12.4498 -12.1264 -11.9597 -10.9751 -10.7690 -10.1336
    -8.7231  -8.6018  -8.2040  -7.8059  -6.4377

     occupation numbers 
     1.0000   1.0000   1.0000   1.0000   1.0000   1.0000   1.0000   1.0000
     1.0000   1.0000   1.0000   1.0000   1.0000   1.0000   1.0000   1.0000
     1.0000   1.0000   1.0000   1.0000   1.0000

          k = 0.4545 0.0525 0.0000 ( 11383 PWs)   bands (ev):

   -77.8134 -49.3048 -49.1501 -48.9914 -22.4727 -22.4381 -20.5958 -19.9133
   -14.6393 -14.3778 -12.4497 -12.1265 -11.9597 -10.9752 -10.7690 -10.1334
    -8.7232  -8.6019  -8.2040  -7.8058  -6.4377

     occupation numbers 
     1.0000   1.0000   1.0000   1.0000   1.0000   1.0000   1.0000   1.0000
     1.0000   1.0000   1.0000   1.0000   1.0000   1.0000   1.0000   1.0000
     1.0000   1.0000   1.0000   1.0000   1.0000

          k =-0.2727-0.3674 0.0000 ( 11383 PWs)   bands (ev):

   -77.8134 -49.3048 -49.1501 -48.9914 -22.4727 -22.4381 -20.5958 -19.9134
   -14.6392 -14.3778 -12.4497 -12.1265 -11.9597 -10.9751 -10.7689 -10.1337
    -8.7231  -8.6018  -8.2038  -7.8060  -6.4379

     occupation numbers 
     1.0000   1.0000   1.0000   1.0000   1.0000   1.0000   1.0000   1.0000
     1.0000   1.0000   1.0000   1.0000   1.0000   1.0000   1.0000   1.0000
     1.0000   1.0000   1.0000   1.0000   1.0000

          k = 0.4545-0.0525 0.0000 ( 11383 PWs)   bands (ev):

   -77.8134 -49.3048 -49.1501 -48.9914 -22.4727 -22.4381 -20.5958 -19.9133
   -14.6393 -14.3779 -12.4498 -12.1264 -11.9597 -10.9751 -10.7690 -10.1336
    -8.7231  -8.6018  -8.2040  -7.8059  -6.4377

     occupation numbers 
     1.0000   1.0000   1.0000   1.0000   1.0000   1.0000   1.0000   1.0000
     1.0000   1.0000   1.0000   1.0000   1.0000   1.0000   1.0000   1.0000
     1.0000   1.0000   1.0000   1.0000   1.0000

          k =-0.1818 0.5249 0.0000 ( 11337 PWs)   bands (ev):

   -77.8076 -49.3340 -49.1723 -48.9834 -21.8584 -21.8382 -20.4637 -19.8988
   -15.2917 -15.0705 -12.6493 -12.4639 -11.8436 -11.2929 -11.1425  -9.9544
    -9.1158  -8.7323  -8.1607  -7.6335  -6.2402

     occupation numbers 
     1.0000   1.0000   1.0000   1.0000   1.0000   1.0000   1.0000   1.0000
     1.0000   1.0000   1.0000   1.0000   1.0000   1.0000   1.0000   1.0000
     1.0000   1.0000   1.0000   1.0000   1.0000

          k =-0.3636 0.4199 0.0000 ( 11337 PWs)   bands (ev):

   -77.8076 -49.3340 -49.1723 -48.9834 -21.8584 -21.8382 -20.4637 -19.8987
   -15.2917 -15.0705 -12.6493 -12.4637 -11.8437 -11.2929 -11.1424  -9.9547
    -9.1156  -8.7323  -8.1606  -7.6336  -6.2401

     occupation numbers 
     1.0000   1.0000   1.0000   1.0000   1.0000   1.0000   1.0000   1.0000
     1.0000   1.0000   1.0000   1.0000   1.0000   1.0000   1.0000   1.0000
     1.0000   1.0000   1.0000   1.0000   1.0000

          k = 0.5455 0.1050 0.0000 ( 11337 PWs)   bands (ev):

   -77.8076 -49.3340 -49.1723 -48.9834 -21.8584 -21.8382 -20.4637 -19.8987
   -15.2917 -15.0705 -12.6493 -12.4639 -11.8436 -11.2929 -11.1425  -9.9544
    -9.1158  -8.7323  -8.1606  -7.6335  -6.2402

     occupation numbers 
     1.0000   1.0000   1.0000   1.0000   1.0000   1.0000   1.0000   1.0000
     1.0000   1.0000   1.0000   1.0000   1.0000   1.0000   1.0000   1.0000
     1.0000   1.0000   1.0000   1.0000   1.0000

          k =-0.3636-0.4199 0.0000 ( 11337 PWs)   bands (ev):

   -77.8076 -49.3340 -49.1723 -48.9834 -21.8584 -21.8382 -20.4637 -19.8988
   -15.2916 -15.0705 -12.6493 -12.4639 -11.8436 -11.2929 -11.1424  -9.9547
    -9.1156  -8.7323  -8.1606  -7.6336  -6.2402

     occupation numbers 
     1.0000   1.0000   1.0000   1.0000   1.0000   1.0000   1.0000   1.0000
     1.0000   1.0000   1.0000   1.0000   1.0000   1.0000   1.0000   1.0000
     1.0000   1.0000   1.0000   1.0000   1.0000

          k = 0.5455-0.1050 0.0000 ( 11337 PWs)   bands (ev):

   -77.8076 -49.3340 -49.1723 -48.9834 -21.8584 -21.8382 -20.4637 -19.8987
   -15.2917 -15.0705 -12.6493 -12.4637 -11.8437 -11.2929 -11.1424  -9.9547
    -9.1156  -8.7323  -8.1606  -7.6336  -6.2401

     occupation numbers 
     1.0000   1.0000   1.0000   1.0000   1.0000   1.0000   1.0000   1.0000
     1.0000   1.0000   1.0000   1.0000   1.0000   1.0000   1.0000   1.0000
     1.0000   1.0000   1.0000   1.0000   1.0000

          k =-0.2727 0.4724 0.0000 ( 11346 PWs)   bands (ev):

   -77.8071 -49.3104 -49.2009 -48.9827 -21.8472 -21.8257 -20.4309 -19.8604
   -14.8798 -14.6316 -13.2523 -13.1159 -11.9167 -11.1841 -10.8727 -10.1294
    -9.4217  -8.8718  -8.1835  -7.6121  -6.1957

     occupation numbers 
     1.0000   1.0000   1.0000   1.0000   1.0000   1.0000   1.0000   1.0000
     1.0000   1.0000   1.0000   1.0000   1.0000   1.0000   1.0000   1.0000
     1.0000   1.0000   1.0000   1.0000   1.0000

          k = 0.5455-0.0000 0.0000 ( 11346 PWs)   bands (ev):

   -77.8071 -49.3104 -49.2009 -48.9827 -21.8472 -21.8257 -20.4309 -19.8603
   -14.8798 -14.6316 -13.2523 -13.1159 -11.9167 -11.1841 -10.8727 -10.1294
    -9.4217  -8.8718  -8.1835  -7.6121  -6.1957

     occupation numbers 
     1.0000   1.0000   1.0000   1.0000   1.0000   1.0000   1.0000   1.0000
     1.0000   1.0000   1.0000   1.0000   1.0000   1.0000   1.0000   1.0000
     1.0000   1.0000   1.0000   1.0000   1.0000

          k =-0.3636 0.5249 0.0000 ( 11342 PWs)   bands (ev):

   -77.8047 -49.3039 -49.2283 -48.9794 -21.5612 -21.5422 -20.4019 -19.8659
   -14.9108 -14.6617 -13.7091 -13.6079 -11.5886 -11.3670 -10.9817  -9.9874
    -9.7035  -9.2042  -8.1058  -7.5099  -6.0349

     occupation numbers 
     1.0000   1.0000   1.0000   1.0000   1.0000   1.0000   1.0000   1.0000
     1.0000   1.0000   1.0000   1.0000   1.0000   1.0000   1.0000   1.0000
     1.0000   1.0000   1.0000   1.0000   1.0000

          k = 0.6364 0.0525 0.0000 ( 11342 PWs)   bands (ev):

   -77.8047 -49.3039 -49.2283 -48.9794 -21.5612 -21.5422 -20.4019 -19.8660
   -14.9107 -14.6616 -13.7091 -13.6079 -11.5886 -11.3669 -10.9817  -9.9874
    -9.7036  -9.2042  -8.1058  -7.5099  -6.0349

     occupation numbers 
     1.0000   1.0000   1.0000   1.0000   1.0000   1.0000   1.0000   1.0000
     1.0000   1.0000   1.0000   1.0000   1.0000   1.0000   1.0000   1.0000
     1.0000   1.0000   1.0000   1.0000   1.0000

     highest occupied level (ev):    -5.5010

!    total energy              =    -263.33925612 Ry
     estimated scf accuracy    <          6.0E-11 Ry

     The total energy is the sum of the following terms:
     one-electron contribution =   -4658.48348507 Ry
     hartree contribution      =    2325.74554202 Ry
     xc contribution           =     -44.90388218 Ry
     ewald contribution        =    2114.30256911 Ry

     convergence has been achieved in  26 iterations

     Writing all to output data dir ./tmp/crsi2n4.save/ :
     XML data file, charge density, pseudopotentials, collected wavefunctions
 
     init_run     :      3.43s CPU      3.62s WALL (       1 calls)
     electrons    :    159.35s CPU    160.36s WALL (       1 calls)

     Called by init_run:
     wfcinit      :      2.37s CPU      2.50s WALL (       1 calls)
     wfcinit:atom :      0.05s CPU      0.05s WALL (      61 calls)
     wfcinit:wfcr :      2.18s CPU      2.24s WALL (      61 calls)
     potinit      :      0.64s CPU      0.68s WALL (       1 calls)
     hinit0       :      0.28s CPU      0.29s WALL (       1 calls)

     Called by electrons:
     c_bands      :    145.86s CPU    146.80s WALL (      26 calls)
     sum_band     :     12.08s CPU     12.12s WALL (      26 calls)
     v_of_rho     :      0.38s CPU      0.42s WALL (      27 calls)
     v_h          :      0.10s CPU      0.11s WALL (      27 calls)
     v_xc         :      0.28s CPU      0.32s WALL (      27 calls)
     mix_rho      :      0.58s CPU      0.60s WALL (      26 calls)

     Called by c_bands:
     init_us_2    :      2.20s CPU      2.22s WALL (    3233 calls)
     cegterg      :    137.74s CPU    138.63s WALL (    1586 calls)

     Called by sum_band:
     sum_band:wei :      0.00s CPU      0.00s WALL (      26 calls)
     sum_band:loo :     11.98s CPU     12.02s WALL (      26 calls)
     sum_band:buf :      2.03s CPU      2.03s WALL (    1586 calls)
     sum_band:ini :      1.08s CPU      1.08s WALL (    1586 calls)

     Called by *egterg:
     cdiaghg      :     18.79s CPU     18.97s WALL (    9003 calls)
                                       18.92s GPU  (    9003 calls)
     cegterg:over :     27.54s CPU     27.61s WALL (    7417 calls)
     cegterg:upda :      6.73s CPU      6.76s WALL (    7417 calls)
     cegterg:last :      5.61s CPU      5.63s WALL (    3810 calls)
     h_psi        :     75.55s CPU     76.37s WALL (    9064 calls)
                                       76.30s GPU  (    9064 calls)
     g_psi        :      0.06s CPU      0.64s WALL (    7417 calls)
                                        0.60s GPU  (    7417 calls)

     Called by h_psi:
     h_psi:calbec :      0.69s CPU     12.55s WALL (    9064 calls)
                                       12.49s GPU  (    9064 calls)
     vloc_psi     :     51.20s CPU     51.91s WALL (    9064 calls)
                                       51.86s GPU  (    9064 calls)
     add_vuspsi   :      2.57s CPU     11.14s WALL (    9064 calls)
                                       11.08s GPU  (    9064 calls)

     General routines
     calbec       :      0.65s CPU      0.70s WALL (    9064 calls)
     fft          :      0.49s CPU      0.61s WALL (     321 calls)
                                        0.12s GPU  (     294 calls)
     ffts         :      0.33s CPU      0.33s WALL (      53 calls)
                                        0.01s GPU  (      26 calls)
     fftw         :      0.82s CPU     50.35s WALL (   28102 calls)
                                       50.20s GPU  (   28102 calls)
     interpolate  :      0.88s CPU      0.88s WALL (      27 calls)
 
     Parallel routines
 
     PWSCF        :   2m43.12s CPU   2m44.49s WALL

 
   This run was terminated on:   1:47:15  13Mar2026            

=------------------------------------------------------------------------------=
   JOB DONE.
=------------------------------------------------------------------------------=
