
     Program PWSCF v.7.4.1 starts on 13Mar2026 at  4: 7:48 

     This program is part of the open-source Quantum ESPRESSO suite
     for quantum simulation of materials; please cite
         "P. Giannozzi et al., J. Phys.:Condens. Matter 21 395502 (2009);
         "P. Giannozzi et al., J. Phys.:Condens. Matter 29 465901 (2017);
         "P. Giannozzi et al., J. Chem. Phys. 152 154105 (2020);
          URL http://www.quantum-espresso.org", 
     in publications or presentations arising from this work. More details at
     http://www.quantum-espresso.org/quote

     Parallel version (MPI), running on     1 processors

     MPI processes distributed on     1 nodes
     10035 MiB available memory on the printing compute node when the environment starts
 
     Reading input from bands.in

     Current dimensions of program PWSCF are:
     Max number of different atomic species (ntypx) = 10
     Max number of k-points (npk) =  40000
     Max angular momentum in pseudopotentials (lmaxx) =  4

     Atomic positions and unit cell read from directory:
     ./tmp/crsi2n4.save/
 
     Message from routine setup:
     no reason to have ecutrho>4*ecutwfc
 
     Subspace diagonalization in iterative solution of the eigenvalue problem:
     a serial algorithm will be used

 
     G-vector sticks info
     --------------------
     sticks:   dense  smooth     PW     G-vecs:    dense   smooth      PW
     Sum         847     673    199               140931   100699   16111
 
     Using Slab Decomposition
 


     bravais-lattice index     =            4
     lattice parameter (alat)  =       5.5356  a.u.
     unit-cell volume          =    1041.3958 (a.u.)^3
     number of atoms/cell      =            7
     number of atomic types    =            3
     number of electrons       =        42.00
     number of Kohn-Sham states=           35
     kinetic-energy cutoff     =      80.0000  Ry
     charge density cutoff     =     400.0000  Ry
     Exchange-correlation= PBE
                           (   1   4   3   4   0   0   0)

     GPU acceleration is ACTIVE.  1 visible GPUs per MPI rank
     GPU-aware MPI enabled


     GPU used by master process:

        Device Number: 0
        Device name: NVIDIA RTX A2000 12GB
        Compute capability : 86
        Ratio of single to double precision performance  : 64
        Memory Clock Rate (KHz): 6001000
        Memory Bus Width (bits): 192
        Peak Memory Bandwidth (GB/s): 288.05

     celldm(1)=   5.535613  celldm(2)=   0.000000  celldm(3)=   7.089051
     celldm(4)=   0.000000  celldm(5)=   0.000000  celldm(6)=   0.000000

     crystal axes: (cart. coord. in units of alat)
               a(1) = (   1.000000   0.000000   0.000000 )  
               a(2) = (  -0.500000   0.866025   0.000000 )  
               a(3) = (   0.000000   0.000000   7.089051 )  

     reciprocal axes: (cart. coord. in units 2 pi/alat)
               b(1) = (  1.000000  0.577350 -0.000000 )  
               b(2) = (  0.000000  1.154701  0.000000 )  
               b(3) = (  0.000000 -0.000000  0.141063 )  


     PseudoPot. # 1 for Cr read from file:
     /home/rao/Desktop/pseudo/ONCVPSP/sg15/Cr_ONCV_PBE_sr.upf
     MD5 check sum: 8c25700f94aee329d8014e8d8708abb4
     Pseudo is Norm-conserving, Zval = 14.0
     Generated using ONCVPSP code by D. R. Hamann
     Using radial grid of 1490 points,  6 beta functions with: 
                l(1) =   0
                l(2) =   0
                l(3) =   1
                l(4) =   1
                l(5) =   2
                l(6) =   2

     PseudoPot. # 2 for Si read from file:
     /home/rao/Desktop/pseudo/ONCVPSP/sg15/Si_ONCV_PBE_sr.upf
     MD5 check sum: 8553c464762ac42b85b1eed164b4d029
     Pseudo is Norm-conserving, Zval =  4.0
     Generated using ONCVPSP code by D. R. Hamann
     Using radial grid of 1510 points,  4 beta functions with: 
                l(1) =   0
                l(2) =   0
                l(3) =   1
                l(4) =   1

     PseudoPot. # 3 for N  read from file:
     /home/rao/Desktop/pseudo/ONCVPSP/sg15/N_ONCV_PBE_sr.upf
     MD5 check sum: 584dff68b02d160f04ff099e3496afa1
     Pseudo is Norm-conserving, Zval =  5.0
     Generated using ONCVPSP code by D. R. Hamann
     Using radial grid of 1058 points,  4 beta functions with: 
                l(1) =   0
                l(2) =   0
                l(3) =   1
                l(4) =   1

     atomic species   valence    mass     pseudopotential
     Cr               14.00    51.99600     Cr( 1.00)
     Si                4.00    28.08600     Si( 1.00)
     N                 5.00    14.00700     N ( 1.00)

     No symmetry found


                                    s                        frac. trans.

      isym =  1     identity                                     

 cryst.   s( 1) = (     1          0          0      )
                  (     0          1          0      )
                  (     0          0          1      )

 cart.    s( 1) = (  1.0000000  0.0000000  0.0000000 )
                  (  0.0000000  1.0000000  0.0000000 )
                  (  0.0000000  0.0000000  1.0000000 )


     point group C_1 (1)    
     there are  1 classes
     the character table:

       E    
A      1.00

     the symmetry operations in each class and the name of the first element:

     E        1
          identity                                               

   Cartesian axes

     site n.     atom                  positions (alat units)
         1        Cr     tau(   1) = (   0.7855765   0.1237869   3.0320475  )
         2        N      tau(   2) = (   0.2854967   0.4125098   2.6451472  )
         3        N      tau(   3) = (   0.2855607   0.4124693   3.4249131  )
         4        N      tau(   4) = (   0.7857934   0.1236563   4.2020077  )
         5        N      tau(   5) = (  -0.2141175   0.7009648   1.8768633  )
         6        Si     tau(   6) = (   0.2858646   0.4123000   2.0473202  )
         7        Si     tau(   7) = (   0.2857925   0.4123319   4.0272574  )

   Crystallographic axes

     site n.     atom                  positions (cryst. coord.)
         1        Cr     tau(   1) = (  0.8570449  0.1429368  0.4277085  )
         2        N      tau(   2) = (  0.5236594  0.4763253  0.3731313  )
         3        N      tau(   3) = (  0.5237000  0.4762785  0.4831271  )
         4        N      tau(   4) = (  0.8571864  0.1427860  0.5927461  )
         5        N      tau(   5) = (  0.1905847  0.8094045  0.2647552  )
         6        Si     tau(   6) = (  0.5239062  0.4760830  0.2888003  )
         7        Si     tau(   7) = (  0.5238525  0.4761199  0.5680954  )

     number of k points=   261
                       cart. coord. in units 2pi/alat
        k(    1) = (   0.0000000   0.0000000   0.0000000), wk =   0.0076628
        k(    2) = (   0.0033333   0.0057735   0.0000000), wk =   0.0076628
        k(    3) = (   0.0066667   0.0115470   0.0000000), wk =   0.0076628
        k(    4) = (   0.0100000   0.0173205   0.0000000), wk =   0.0076628
        k(    5) = (   0.0133333   0.0230940   0.0000000), wk =   0.0076628
        k(    6) = (   0.0166667   0.0288675   0.0000000), wk =   0.0076628
        k(    7) = (   0.0200000   0.0346410   0.0000000), wk =   0.0076628
        k(    8) = (   0.0233333   0.0404145   0.0000000), wk =   0.0076628
        k(    9) = (   0.0266667   0.0461880   0.0000000), wk =   0.0076628
        k(   10) = (   0.0300000   0.0519615   0.0000000), wk =   0.0076628
        k(   11) = (   0.0333333   0.0577350   0.0000000), wk =   0.0076628
        k(   12) = (   0.0366667   0.0635085   0.0000000), wk =   0.0076628
        k(   13) = (   0.0400000   0.0692820   0.0000000), wk =   0.0076628
        k(   14) = (   0.0433333   0.0750555   0.0000000), wk =   0.0076628
        k(   15) = (   0.0466667   0.0808290   0.0000000), wk =   0.0076628
        k(   16) = (   0.0500000   0.0866025   0.0000000), wk =   0.0076628
        k(   17) = (   0.0533333   0.0923760   0.0000000), wk =   0.0076628
        k(   18) = (   0.0566667   0.0981495   0.0000000), wk =   0.0076628
        k(   19) = (   0.0600000   0.1039230   0.0000000), wk =   0.0076628
        k(   20) = (   0.0633333   0.1096966   0.0000000), wk =   0.0076628
        k(   21) = (   0.0666667   0.1154701   0.0000000), wk =   0.0076628
        k(   22) = (   0.0700000   0.1212436   0.0000000), wk =   0.0076628
        k(   23) = (   0.0733333   0.1270171   0.0000000), wk =   0.0076628
        k(   24) = (   0.0766667   0.1327906   0.0000000), wk =   0.0076628
        k(   25) = (   0.0800000   0.1385641   0.0000000), wk =   0.0076628
        k(   26) = (   0.0833333   0.1443376   0.0000000), wk =   0.0076628
        k(   27) = (   0.0866667   0.1501111   0.0000000), wk =   0.0076628
        k(   28) = (   0.0900000   0.1558846   0.0000000), wk =   0.0076628
        k(   29) = (   0.0933333   0.1616581   0.0000000), wk =   0.0076628
        k(   30) = (   0.0966667   0.1674316   0.0000000), wk =   0.0076628
        k(   31) = (   0.1000000   0.1732051   0.0000000), wk =   0.0076628
        k(   32) = (   0.1033333   0.1789786   0.0000000), wk =   0.0076628
        k(   33) = (   0.1066667   0.1847521   0.0000000), wk =   0.0076628
        k(   34) = (   0.1100000   0.1905256   0.0000000), wk =   0.0076628
        k(   35) = (   0.1133333   0.1962991   0.0000000), wk =   0.0076628
        k(   36) = (   0.1166667   0.2020726   0.0000000), wk =   0.0076628
        k(   37) = (   0.1200000   0.2078461   0.0000000), wk =   0.0076628
        k(   38) = (   0.1233333   0.2136196   0.0000000), wk =   0.0076628
        k(   39) = (   0.1266667   0.2193931   0.0000000), wk =   0.0076628
        k(   40) = (   0.1300000   0.2251666   0.0000000), wk =   0.0076628
        k(   41) = (   0.1333333   0.2309401   0.0000000), wk =   0.0076628
        k(   42) = (   0.1366667   0.2367136   0.0000000), wk =   0.0076628
        k(   43) = (   0.1400000   0.2424871   0.0000000), wk =   0.0076628
        k(   44) = (   0.1433333   0.2482606   0.0000000), wk =   0.0076628
        k(   45) = (   0.1466667   0.2540341   0.0000000), wk =   0.0076628
        k(   46) = (   0.1500000   0.2598076   0.0000000), wk =   0.0076628
        k(   47) = (   0.1533333   0.2655811   0.0000000), wk =   0.0076628
        k(   48) = (   0.1566667   0.2713546   0.0000000), wk =   0.0076628
        k(   49) = (   0.1600000   0.2771281   0.0000000), wk =   0.0076628
        k(   50) = (   0.1633333   0.2829016   0.0000000), wk =   0.0076628
        k(   51) = (   0.1666667   0.2886751   0.0000000), wk =   0.0076628
        k(   52) = (   0.1700000   0.2944486   0.0000000), wk =   0.0076628
        k(   53) = (   0.1733333   0.3002221   0.0000000), wk =   0.0076628
        k(   54) = (   0.1766667   0.3059956   0.0000000), wk =   0.0076628
        k(   55) = (   0.1800000   0.3117691   0.0000000), wk =   0.0076628
        k(   56) = (   0.1833333   0.3175426   0.0000000), wk =   0.0076628
        k(   57) = (   0.1866667   0.3233162   0.0000000), wk =   0.0076628
        k(   58) = (   0.1900000   0.3290897   0.0000000), wk =   0.0076628
        k(   59) = (   0.1933333   0.3348632   0.0000000), wk =   0.0076628
        k(   60) = (   0.1966667   0.3406367   0.0000000), wk =   0.0076628
        k(   61) = (   0.2000000   0.3464102   0.0000000), wk =   0.0076628
        k(   62) = (   0.2033333   0.3521837   0.0000000), wk =   0.0076628
        k(   63) = (   0.2066667   0.3579572   0.0000000), wk =   0.0076628
        k(   64) = (   0.2100000   0.3637307   0.0000000), wk =   0.0076628
        k(   65) = (   0.2133333   0.3695042   0.0000000), wk =   0.0076628
        k(   66) = (   0.2166667   0.3752777   0.0000000), wk =   0.0076628
        k(   67) = (   0.2200000   0.3810512   0.0000000), wk =   0.0076628
        k(   68) = (   0.2233333   0.3868247   0.0000000), wk =   0.0076628
        k(   69) = (   0.2266667   0.3925982   0.0000000), wk =   0.0076628
        k(   70) = (   0.2300000   0.3983717   0.0000000), wk =   0.0076628
        k(   71) = (   0.2333333   0.4041452   0.0000000), wk =   0.0076628
        k(   72) = (   0.2366667   0.4099187   0.0000000), wk =   0.0076628
        k(   73) = (   0.2400000   0.4156922   0.0000000), wk =   0.0076628
        k(   74) = (   0.2433333   0.4214657   0.0000000), wk =   0.0076628
        k(   75) = (   0.2466667   0.4272392   0.0000000), wk =   0.0076628
        k(   76) = (   0.2500000   0.4330127   0.0000000), wk =   0.0076628
        k(   77) = (   0.2533333   0.4387862   0.0000000), wk =   0.0076628
        k(   78) = (   0.2566667   0.4445597   0.0000000), wk =   0.0076628
        k(   79) = (   0.2600000   0.4503332   0.0000000), wk =   0.0076628
        k(   80) = (   0.2633333   0.4561067   0.0000000), wk =   0.0076628
        k(   81) = (   0.2666667   0.4618802   0.0000000), wk =   0.0076628
        k(   82) = (   0.2700000   0.4676537   0.0000000), wk =   0.0076628
        k(   83) = (   0.2733333   0.4734272   0.0000000), wk =   0.0076628
        k(   84) = (   0.2766667   0.4792007   0.0000000), wk =   0.0076628
        k(   85) = (   0.2800000   0.4849742   0.0000000), wk =   0.0076628
        k(   86) = (   0.2833333   0.4907477   0.0000000), wk =   0.0076628
        k(   87) = (   0.2866667   0.4965212   0.0000000), wk =   0.0076628
        k(   88) = (   0.2900000   0.5022947   0.0000000), wk =   0.0076628
        k(   89) = (   0.2933333   0.5080682   0.0000000), wk =   0.0076628
        k(   90) = (   0.2966667   0.5138417   0.0000000), wk =   0.0076628
        k(   91) = (   0.3000000   0.5196152   0.0000000), wk =   0.0076628
        k(   92) = (   0.3033333   0.5253887   0.0000000), wk =   0.0076628
        k(   93) = (   0.3066667   0.5311622   0.0000000), wk =   0.0076628
        k(   94) = (   0.3100000   0.5369358   0.0000000), wk =   0.0076628
        k(   95) = (   0.3133333   0.5427093   0.0000000), wk =   0.0076628
        k(   96) = (   0.3166667   0.5484828   0.0000000), wk =   0.0076628
        k(   97) = (   0.3200000   0.5542563   0.0000000), wk =   0.0076628
        k(   98) = (   0.3233333   0.5600298   0.0000000), wk =   0.0076628
        k(   99) = (   0.3266667   0.5658033   0.0000000), wk =   0.0076628
        k(  100) = (   0.3300000   0.5715768   0.0000000), wk =   0.0076628
        k(  101) = (   0.3333333   0.5773503   0.0000000), wk =   0.0076628
        k(  102) = (   0.3361111   0.5725390   0.0000000), wk =   0.0076628
        k(  103) = (   0.3388889   0.5677278   0.0000000), wk =   0.0076628
        k(  104) = (   0.3416667   0.5629165   0.0000000), wk =   0.0076628
        k(  105) = (   0.3444444   0.5581053   0.0000000), wk =   0.0076628
        k(  106) = (   0.3472222   0.5532940   0.0000000), wk =   0.0076628
        k(  107) = (   0.3500000   0.5484828   0.0000000), wk =   0.0076628
        k(  108) = (   0.3527778   0.5436715   0.0000000), wk =   0.0076628
        k(  109) = (   0.3555556   0.5388603   0.0000000), wk =   0.0076628
        k(  110) = (   0.3583333   0.5340490   0.0000000), wk =   0.0076628
        k(  111) = (   0.3611111   0.5292377   0.0000000), wk =   0.0076628
        k(  112) = (   0.3638889   0.5244265   0.0000000), wk =   0.0076628
        k(  113) = (   0.3666667   0.5196152   0.0000000), wk =   0.0076628
        k(  114) = (   0.3694444   0.5148040   0.0000000), wk =   0.0076628
        k(  115) = (   0.3722222   0.5099927   0.0000000), wk =   0.0076628
        k(  116) = (   0.3750000   0.5051815   0.0000000), wk =   0.0076628
        k(  117) = (   0.3777778   0.5003702   0.0000000), wk =   0.0076628
        k(  118) = (   0.3805556   0.4955590   0.0000000), wk =   0.0076628
        k(  119) = (   0.3833333   0.4907477   0.0000000), wk =   0.0076628
        k(  120) = (   0.3861111   0.4859365   0.0000000), wk =   0.0076628
        k(  121) = (   0.3888889   0.4811252   0.0000000), wk =   0.0076628
        k(  122) = (   0.3916667   0.4763140   0.0000000), wk =   0.0076628
        k(  123) = (   0.3944444   0.4715027   0.0000000), wk =   0.0076628
        k(  124) = (   0.3972222   0.4666915   0.0000000), wk =   0.0076628
        k(  125) = (   0.4000000   0.4618802   0.0000000), wk =   0.0076628
        k(  126) = (   0.4027778   0.4570690   0.0000000), wk =   0.0076628
        k(  127) = (   0.4055556   0.4522577   0.0000000), wk =   0.0076628
        k(  128) = (   0.4083333   0.4474465   0.0000000), wk =   0.0076628
        k(  129) = (   0.4111111   0.4426352   0.0000000), wk =   0.0076628
        k(  130) = (   0.4138889   0.4378240   0.0000000), wk =   0.0076628
        k(  131) = (   0.4166667   0.4330127   0.0000000), wk =   0.0076628
        k(  132) = (   0.4194444   0.4282014   0.0000000), wk =   0.0076628
        k(  133) = (   0.4222222   0.4233902   0.0000000), wk =   0.0076628
        k(  134) = (   0.4250000   0.4185789   0.0000000), wk =   0.0076628
        k(  135) = (   0.4277778   0.4137677   0.0000000), wk =   0.0076628
        k(  136) = (   0.4305556   0.4089564   0.0000000), wk =   0.0076628
        k(  137) = (   0.4333333   0.4041452   0.0000000), wk =   0.0076628
        k(  138) = (   0.4361111   0.3993339   0.0000000), wk =   0.0076628
        k(  139) = (   0.4388889   0.3945227   0.0000000), wk =   0.0076628
        k(  140) = (   0.4416667   0.3897114   0.0000000), wk =   0.0076628
        k(  141) = (   0.4444444   0.3849002   0.0000000), wk =   0.0076628
        k(  142) = (   0.4472222   0.3800889   0.0000000), wk =   0.0076628
        k(  143) = (   0.4500000   0.3752777   0.0000000), wk =   0.0076628
        k(  144) = (   0.4527778   0.3704664   0.0000000), wk =   0.0076628
        k(  145) = (   0.4555556   0.3656552   0.0000000), wk =   0.0076628
        k(  146) = (   0.4583333   0.3608439   0.0000000), wk =   0.0076628
        k(  147) = (   0.4611111   0.3560327   0.0000000), wk =   0.0076628
        k(  148) = (   0.4638889   0.3512214   0.0000000), wk =   0.0076628
        k(  149) = (   0.4666667   0.3464102   0.0000000), wk =   0.0076628
        k(  150) = (   0.4694444   0.3415989   0.0000000), wk =   0.0076628
        k(  151) = (   0.4722222   0.3367877   0.0000000), wk =   0.0076628
        k(  152) = (   0.4750000   0.3319764   0.0000000), wk =   0.0076628
        k(  153) = (   0.4777778   0.3271652   0.0000000), wk =   0.0076628
        k(  154) = (   0.4805556   0.3223539   0.0000000), wk =   0.0076628
        k(  155) = (   0.4833333   0.3175426   0.0000000), wk =   0.0076628
        k(  156) = (   0.4861111   0.3127314   0.0000000), wk =   0.0076628
        k(  157) = (   0.4888889   0.3079201   0.0000000), wk =   0.0076628
        k(  158) = (   0.4916667   0.3031089   0.0000000), wk =   0.0076628
        k(  159) = (   0.4944444   0.2982976   0.0000000), wk =   0.0076628
        k(  160) = (   0.4972222   0.2934864   0.0000000), wk =   0.0076628
        k(  161) = (   0.5000000   0.2886751   0.0000000), wk =   0.0076628
        k(  162) = (   0.4950000   0.2857884   0.0000000), wk =   0.0076628
        k(  163) = (   0.4900000   0.2829016   0.0000000), wk =   0.0076628
        k(  164) = (   0.4850000   0.2800149   0.0000000), wk =   0.0076628
        k(  165) = (   0.4800000   0.2771281   0.0000000), wk =   0.0076628
        k(  166) = (   0.4750000   0.2742414   0.0000000), wk =   0.0076628
        k(  167) = (   0.4700000   0.2713546   0.0000000), wk =   0.0076628
        k(  168) = (   0.4650000   0.2684679   0.0000000), wk =   0.0076628
        k(  169) = (   0.4600000   0.2655811   0.0000000), wk =   0.0076628
        k(  170) = (   0.4550000   0.2626944   0.0000000), wk =   0.0076628
        k(  171) = (   0.4500000   0.2598076   0.0000000), wk =   0.0076628
        k(  172) = (   0.4450000   0.2569209   0.0000000), wk =   0.0076628
        k(  173) = (   0.4400000   0.2540341   0.0000000), wk =   0.0076628
        k(  174) = (   0.4350000   0.2511474   0.0000000), wk =   0.0076628
        k(  175) = (   0.4300000   0.2482606   0.0000000), wk =   0.0076628
        k(  176) = (   0.4250000   0.2453739   0.0000000), wk =   0.0076628
        k(  177) = (   0.4200000   0.2424871   0.0000000), wk =   0.0076628
        k(  178) = (   0.4150000   0.2396004   0.0000000), wk =   0.0076628
        k(  179) = (   0.4100000   0.2367136   0.0000000), wk =   0.0076628
        k(  180) = (   0.4050000   0.2338269   0.0000000), wk =   0.0076628
        k(  181) = (   0.4000000   0.2309401   0.0000000), wk =   0.0076628
        k(  182) = (   0.3950000   0.2280534   0.0000000), wk =   0.0076628
        k(  183) = (   0.3900000   0.2251666   0.0000000), wk =   0.0076628
        k(  184) = (   0.3850000   0.2222799   0.0000000), wk =   0.0076628
        k(  185) = (   0.3800000   0.2193931   0.0000000), wk =   0.0076628
        k(  186) = (   0.3750000   0.2165064   0.0000000), wk =   0.0076628
        k(  187) = (   0.3700000   0.2136196   0.0000000), wk =   0.0076628
        k(  188) = (   0.3650000   0.2107328   0.0000000), wk =   0.0076628
        k(  189) = (   0.3600000   0.2078461   0.0000000), wk =   0.0076628
        k(  190) = (   0.3550000   0.2049593   0.0000000), wk =   0.0076628
        k(  191) = (   0.3500000   0.2020726   0.0000000), wk =   0.0076628
        k(  192) = (   0.3450000   0.1991858   0.0000000), wk =   0.0076628
        k(  193) = (   0.3400000   0.1962991   0.0000000), wk =   0.0076628
        k(  194) = (   0.3350000   0.1934123   0.0000000), wk =   0.0076628
        k(  195) = (   0.3300000   0.1905256   0.0000000), wk =   0.0076628
        k(  196) = (   0.3250000   0.1876388   0.0000000), wk =   0.0076628
        k(  197) = (   0.3200000   0.1847521   0.0000000), wk =   0.0076628
        k(  198) = (   0.3150000   0.1818653   0.0000000), wk =   0.0076628
        k(  199) = (   0.3100000   0.1789786   0.0000000), wk =   0.0076628
        k(  200) = (   0.3050000   0.1760918   0.0000000), wk =   0.0076628
        k(  201) = (   0.3000000   0.1732051   0.0000000), wk =   0.0076628
        k(  202) = (   0.2950000   0.1703183   0.0000000), wk =   0.0076628
        k(  203) = (   0.2900000   0.1674316   0.0000000), wk =   0.0076628
        k(  204) = (   0.2850000   0.1645448   0.0000000), wk =   0.0076628
        k(  205) = (   0.2800000   0.1616581   0.0000000), wk =   0.0076628
        k(  206) = (   0.2750000   0.1587713   0.0000000), wk =   0.0076628
        k(  207) = (   0.2700000   0.1558846   0.0000000), wk =   0.0076628
        k(  208) = (   0.2650000   0.1529978   0.0000000), wk =   0.0076628
        k(  209) = (   0.2600000   0.1501111   0.0000000), wk =   0.0076628
        k(  210) = (   0.2550000   0.1472243   0.0000000), wk =   0.0076628
        k(  211) = (   0.2500000   0.1443376   0.0000000), wk =   0.0076628
        k(  212) = (   0.2450000   0.1414508   0.0000000), wk =   0.0076628
        k(  213) = (   0.2400000   0.1385641   0.0000000), wk =   0.0076628
        k(  214) = (   0.2350000   0.1356773   0.0000000), wk =   0.0076628
        k(  215) = (   0.2300000   0.1327906   0.0000000), wk =   0.0076628
        k(  216) = (   0.2250000   0.1299038   0.0000000), wk =   0.0076628
        k(  217) = (   0.2200000   0.1270171   0.0000000), wk =   0.0076628
        k(  218) = (   0.2150000   0.1241303   0.0000000), wk =   0.0076628
        k(  219) = (   0.2100000   0.1212436   0.0000000), wk =   0.0076628
        k(  220) = (   0.2050000   0.1183568   0.0000000), wk =   0.0076628
        k(  221) = (   0.2000000   0.1154701   0.0000000), wk =   0.0076628
        k(  222) = (   0.1950000   0.1125833   0.0000000), wk =   0.0076628
        k(  223) = (   0.1900000   0.1096966   0.0000000), wk =   0.0076628
        k(  224) = (   0.1850000   0.1068098   0.0000000), wk =   0.0076628
        k(  225) = (   0.1800000   0.1039230   0.0000000), wk =   0.0076628
        k(  226) = (   0.1750000   0.1010363   0.0000000), wk =   0.0076628
        k(  227) = (   0.1700000   0.0981495   0.0000000), wk =   0.0076628
        k(  228) = (   0.1650000   0.0952628   0.0000000), wk =   0.0076628
        k(  229) = (   0.1600000   0.0923760   0.0000000), wk =   0.0076628
        k(  230) = (   0.1550000   0.0894893   0.0000000), wk =   0.0076628
        k(  231) = (   0.1500000   0.0866025   0.0000000), wk =   0.0076628
        k(  232) = (   0.1450000   0.0837158   0.0000000), wk =   0.0076628
        k(  233) = (   0.1400000   0.0808290   0.0000000), wk =   0.0076628
        k(  234) = (   0.1350000   0.0779423   0.0000000), wk =   0.0076628
        k(  235) = (   0.1300000   0.0750555   0.0000000), wk =   0.0076628
        k(  236) = (   0.1250000   0.0721688   0.0000000), wk =   0.0076628
        k(  237) = (   0.1200000   0.0692820   0.0000000), wk =   0.0076628
        k(  238) = (   0.1150000   0.0663953   0.0000000), wk =   0.0076628
        k(  239) = (   0.1100000   0.0635085   0.0000000), wk =   0.0076628
        k(  240) = (   0.1050000   0.0606218   0.0000000), wk =   0.0076628
        k(  241) = (   0.1000000   0.0577350   0.0000000), wk =   0.0076628
        k(  242) = (   0.0950000   0.0548483   0.0000000), wk =   0.0076628
        k(  243) = (   0.0900000   0.0519615   0.0000000), wk =   0.0076628
        k(  244) = (   0.0850000   0.0490748   0.0000000), wk =   0.0076628
        k(  245) = (   0.0800000   0.0461880   0.0000000), wk =   0.0076628
        k(  246) = (   0.0750000   0.0433013   0.0000000), wk =   0.0076628
        k(  247) = (   0.0700000   0.0404145   0.0000000), wk =   0.0076628
        k(  248) = (   0.0650000   0.0375278   0.0000000), wk =   0.0076628
        k(  249) = (   0.0600000   0.0346410   0.0000000), wk =   0.0076628
        k(  250) = (   0.0550000   0.0317543   0.0000000), wk =   0.0076628
        k(  251) = (   0.0500000   0.0288675   0.0000000), wk =   0.0076628
        k(  252) = (   0.0450000   0.0259808   0.0000000), wk =   0.0076628
        k(  253) = (   0.0400000   0.0230940   0.0000000), wk =   0.0076628
        k(  254) = (   0.0350000   0.0202073   0.0000000), wk =   0.0076628
        k(  255) = (   0.0300000   0.0173205   0.0000000), wk =   0.0076628
        k(  256) = (   0.0250000   0.0144338   0.0000000), wk =   0.0076628
        k(  257) = (   0.0200000   0.0115470   0.0000000), wk =   0.0076628
        k(  258) = (   0.0150000   0.0086603   0.0000000), wk =   0.0076628
        k(  259) = (   0.0100000   0.0057735   0.0000000), wk =   0.0076628
        k(  260) = (   0.0050000   0.0028868   0.0000000), wk =   0.0076628
        k(  261) = (   0.0000000   0.0000000   0.0000000), wk =   0.0076628

                       cryst. coord.
        k(    1) = (   0.0000000   0.0000000   0.0000000), wk =   0.0076628
        k(    2) = (   0.0033333   0.0033333   0.0000000), wk =   0.0076628
        k(    3) = (   0.0066667   0.0066667   0.0000000), wk =   0.0076628
        k(    4) = (   0.0100000   0.0100000   0.0000000), wk =   0.0076628
        k(    5) = (   0.0133333   0.0133333   0.0000000), wk =   0.0076628
        k(    6) = (   0.0166667   0.0166667   0.0000000), wk =   0.0076628
        k(    7) = (   0.0200000   0.0200000   0.0000000), wk =   0.0076628
        k(    8) = (   0.0233333   0.0233333   0.0000000), wk =   0.0076628
        k(    9) = (   0.0266667   0.0266667   0.0000000), wk =   0.0076628
        k(   10) = (   0.0300000   0.0300000   0.0000000), wk =   0.0076628
        k(   11) = (   0.0333333   0.0333333   0.0000000), wk =   0.0076628
        k(   12) = (   0.0366667   0.0366667   0.0000000), wk =   0.0076628
        k(   13) = (   0.0400000   0.0400000   0.0000000), wk =   0.0076628
        k(   14) = (   0.0433333   0.0433333   0.0000000), wk =   0.0076628
        k(   15) = (   0.0466667   0.0466667   0.0000000), wk =   0.0076628
        k(   16) = (   0.0500000   0.0500000   0.0000000), wk =   0.0076628
        k(   17) = (   0.0533333   0.0533333   0.0000000), wk =   0.0076628
        k(   18) = (   0.0566667   0.0566667   0.0000000), wk =   0.0076628
        k(   19) = (   0.0600000   0.0600000   0.0000000), wk =   0.0076628
        k(   20) = (   0.0633333   0.0633333   0.0000000), wk =   0.0076628
        k(   21) = (   0.0666667   0.0666667   0.0000000), wk =   0.0076628
        k(   22) = (   0.0700000   0.0700000   0.0000000), wk =   0.0076628
        k(   23) = (   0.0733333   0.0733333   0.0000000), wk =   0.0076628
        k(   24) = (   0.0766667   0.0766667   0.0000000), wk =   0.0076628
        k(   25) = (   0.0800000   0.0800000   0.0000000), wk =   0.0076628
        k(   26) = (   0.0833333   0.0833333   0.0000000), wk =   0.0076628
        k(   27) = (   0.0866667   0.0866667   0.0000000), wk =   0.0076628
        k(   28) = (   0.0900000   0.0900000   0.0000000), wk =   0.0076628
        k(   29) = (   0.0933333   0.0933333   0.0000000), wk =   0.0076628
        k(   30) = (   0.0966667   0.0966667   0.0000000), wk =   0.0076628
        k(   31) = (   0.1000000   0.1000000   0.0000000), wk =   0.0076628
        k(   32) = (   0.1033333   0.1033333   0.0000000), wk =   0.0076628
        k(   33) = (   0.1066667   0.1066667   0.0000000), wk =   0.0076628
        k(   34) = (   0.1100000   0.1100000   0.0000000), wk =   0.0076628
        k(   35) = (   0.1133333   0.1133333   0.0000000), wk =   0.0076628
        k(   36) = (   0.1166667   0.1166667   0.0000000), wk =   0.0076628
        k(   37) = (   0.1200000   0.1200000   0.0000000), wk =   0.0076628
        k(   38) = (   0.1233333   0.1233333   0.0000000), wk =   0.0076628
        k(   39) = (   0.1266667   0.1266667   0.0000000), wk =   0.0076628
        k(   40) = (   0.1300000   0.1300000   0.0000000), wk =   0.0076628
        k(   41) = (   0.1333333   0.1333333   0.0000000), wk =   0.0076628
        k(   42) = (   0.1366667   0.1366667   0.0000000), wk =   0.0076628
        k(   43) = (   0.1400000   0.1400000   0.0000000), wk =   0.0076628
        k(   44) = (   0.1433333   0.1433333   0.0000000), wk =   0.0076628
        k(   45) = (   0.1466667   0.1466667   0.0000000), wk =   0.0076628
        k(   46) = (   0.1500000   0.1500000   0.0000000), wk =   0.0076628
        k(   47) = (   0.1533333   0.1533333   0.0000000), wk =   0.0076628
        k(   48) = (   0.1566667   0.1566667   0.0000000), wk =   0.0076628
        k(   49) = (   0.1600000   0.1600000   0.0000000), wk =   0.0076628
        k(   50) = (   0.1633333   0.1633333   0.0000000), wk =   0.0076628
        k(   51) = (   0.1666667   0.1666667   0.0000000), wk =   0.0076628
        k(   52) = (   0.1700000   0.1700000   0.0000000), wk =   0.0076628
        k(   53) = (   0.1733333   0.1733333   0.0000000), wk =   0.0076628
        k(   54) = (   0.1766667   0.1766667   0.0000000), wk =   0.0076628
        k(   55) = (   0.1800000   0.1800000   0.0000000), wk =   0.0076628
        k(   56) = (   0.1833333   0.1833333   0.0000000), wk =   0.0076628
        k(   57) = (   0.1866667   0.1866667   0.0000000), wk =   0.0076628
        k(   58) = (   0.1900000   0.1900000   0.0000000), wk =   0.0076628
        k(   59) = (   0.1933333   0.1933333   0.0000000), wk =   0.0076628
        k(   60) = (   0.1966667   0.1966667   0.0000000), wk =   0.0076628
        k(   61) = (   0.2000000   0.2000000   0.0000000), wk =   0.0076628
        k(   62) = (   0.2033333   0.2033333   0.0000000), wk =   0.0076628
        k(   63) = (   0.2066667   0.2066667   0.0000000), wk =   0.0076628
        k(   64) = (   0.2100000   0.2100000   0.0000000), wk =   0.0076628
        k(   65) = (   0.2133333   0.2133333   0.0000000), wk =   0.0076628
        k(   66) = (   0.2166667   0.2166667   0.0000000), wk =   0.0076628
        k(   67) = (   0.2200000   0.2200000   0.0000000), wk =   0.0076628
        k(   68) = (   0.2233333   0.2233333   0.0000000), wk =   0.0076628
        k(   69) = (   0.2266667   0.2266667   0.0000000), wk =   0.0076628
        k(   70) = (   0.2300000   0.2300000   0.0000000), wk =   0.0076628
        k(   71) = (   0.2333333   0.2333333   0.0000000), wk =   0.0076628
        k(   72) = (   0.2366667   0.2366667   0.0000000), wk =   0.0076628
        k(   73) = (   0.2400000   0.2400000   0.0000000), wk =   0.0076628
        k(   74) = (   0.2433333   0.2433333   0.0000000), wk =   0.0076628
        k(   75) = (   0.2466667   0.2466667   0.0000000), wk =   0.0076628
        k(   76) = (   0.2500000   0.2500000   0.0000000), wk =   0.0076628
        k(   77) = (   0.2533333   0.2533333   0.0000000), wk =   0.0076628
        k(   78) = (   0.2566667   0.2566667   0.0000000), wk =   0.0076628
        k(   79) = (   0.2600000   0.2600000   0.0000000), wk =   0.0076628
        k(   80) = (   0.2633333   0.2633333   0.0000000), wk =   0.0076628
        k(   81) = (   0.2666667   0.2666667   0.0000000), wk =   0.0076628
        k(   82) = (   0.2700000   0.2700000   0.0000000), wk =   0.0076628
        k(   83) = (   0.2733333   0.2733333   0.0000000), wk =   0.0076628
        k(   84) = (   0.2766667   0.2766667   0.0000000), wk =   0.0076628
        k(   85) = (   0.2800000   0.2800000   0.0000000), wk =   0.0076628
        k(   86) = (   0.2833333   0.2833333   0.0000000), wk =   0.0076628
        k(   87) = (   0.2866667   0.2866667   0.0000000), wk =   0.0076628
        k(   88) = (   0.2900000   0.2900000   0.0000000), wk =   0.0076628
        k(   89) = (   0.2933333   0.2933333   0.0000000), wk =   0.0076628
        k(   90) = (   0.2966667   0.2966667   0.0000000), wk =   0.0076628
        k(   91) = (   0.3000000   0.3000000   0.0000000), wk =   0.0076628
        k(   92) = (   0.3033333   0.3033333   0.0000000), wk =   0.0076628
        k(   93) = (   0.3066667   0.3066667   0.0000000), wk =   0.0076628
        k(   94) = (   0.3100000   0.3100000   0.0000000), wk =   0.0076628
        k(   95) = (   0.3133333   0.3133333   0.0000000), wk =   0.0076628
        k(   96) = (   0.3166667   0.3166667   0.0000000), wk =   0.0076628
        k(   97) = (   0.3200000   0.3200000   0.0000000), wk =   0.0076628
        k(   98) = (   0.3233333   0.3233333   0.0000000), wk =   0.0076628
        k(   99) = (   0.3266667   0.3266667   0.0000000), wk =   0.0076628
        k(  100) = (   0.3300000   0.3300000   0.0000000), wk =   0.0076628
        k(  101) = (   0.3333333   0.3333333   0.0000000), wk =   0.0076628
        k(  102) = (   0.3361111   0.3277778   0.0000000), wk =   0.0076628
        k(  103) = (   0.3388889   0.3222222   0.0000000), wk =   0.0076628
        k(  104) = (   0.3416667   0.3166667   0.0000000), wk =   0.0076628
        k(  105) = (   0.3444444   0.3111111   0.0000000), wk =   0.0076628
        k(  106) = (   0.3472222   0.3055556   0.0000000), wk =   0.0076628
        k(  107) = (   0.3500000   0.3000000   0.0000000), wk =   0.0076628
        k(  108) = (   0.3527778   0.2944444   0.0000000), wk =   0.0076628
        k(  109) = (   0.3555556   0.2888889   0.0000000), wk =   0.0076628
        k(  110) = (   0.3583333   0.2833333   0.0000000), wk =   0.0076628
        k(  111) = (   0.3611111   0.2777778   0.0000000), wk =   0.0076628
        k(  112) = (   0.3638889   0.2722222   0.0000000), wk =   0.0076628
        k(  113) = (   0.3666667   0.2666667   0.0000000), wk =   0.0076628
        k(  114) = (   0.3694444   0.2611111   0.0000000), wk =   0.0076628
        k(  115) = (   0.3722222   0.2555556   0.0000000), wk =   0.0076628
        k(  116) = (   0.3750000   0.2500000   0.0000000), wk =   0.0076628
        k(  117) = (   0.3777778   0.2444444   0.0000000), wk =   0.0076628
        k(  118) = (   0.3805556   0.2388889   0.0000000), wk =   0.0076628
        k(  119) = (   0.3833333   0.2333333   0.0000000), wk =   0.0076628
        k(  120) = (   0.3861111   0.2277778   0.0000000), wk =   0.0076628
        k(  121) = (   0.3888889   0.2222222   0.0000000), wk =   0.0076628
        k(  122) = (   0.3916667   0.2166667   0.0000000), wk =   0.0076628
        k(  123) = (   0.3944444   0.2111111   0.0000000), wk =   0.0076628
        k(  124) = (   0.3972222   0.2055556   0.0000000), wk =   0.0076628
        k(  125) = (   0.4000000   0.2000000   0.0000000), wk =   0.0076628
        k(  126) = (   0.4027778   0.1944444   0.0000000), wk =   0.0076628
        k(  127) = (   0.4055556   0.1888889   0.0000000), wk =   0.0076628
        k(  128) = (   0.4083333   0.1833333   0.0000000), wk =   0.0076628
        k(  129) = (   0.4111111   0.1777778   0.0000000), wk =   0.0076628
        k(  130) = (   0.4138889   0.1722222   0.0000000), wk =   0.0076628
        k(  131) = (   0.4166667   0.1666667   0.0000000), wk =   0.0076628
        k(  132) = (   0.4194444   0.1611111   0.0000000), wk =   0.0076628
        k(  133) = (   0.4222222   0.1555556   0.0000000), wk =   0.0076628
        k(  134) = (   0.4250000   0.1500000   0.0000000), wk =   0.0076628
        k(  135) = (   0.4277778   0.1444444   0.0000000), wk =   0.0076628
        k(  136) = (   0.4305556   0.1388889   0.0000000), wk =   0.0076628
        k(  137) = (   0.4333333   0.1333333   0.0000000), wk =   0.0076628
        k(  138) = (   0.4361111   0.1277778   0.0000000), wk =   0.0076628
        k(  139) = (   0.4388889   0.1222222   0.0000000), wk =   0.0076628
        k(  140) = (   0.4416667   0.1166667   0.0000000), wk =   0.0076628
        k(  141) = (   0.4444444   0.1111111   0.0000000), wk =   0.0076628
        k(  142) = (   0.4472222   0.1055556   0.0000000), wk =   0.0076628
        k(  143) = (   0.4500000   0.1000000   0.0000000), wk =   0.0076628
        k(  144) = (   0.4527778   0.0944444   0.0000000), wk =   0.0076628
        k(  145) = (   0.4555556   0.0888889   0.0000000), wk =   0.0076628
        k(  146) = (   0.4583333   0.0833333   0.0000000), wk =   0.0076628
        k(  147) = (   0.4611111   0.0777778   0.0000000), wk =   0.0076628
        k(  148) = (   0.4638889   0.0722222   0.0000000), wk =   0.0076628
        k(  149) = (   0.4666667   0.0666667   0.0000000), wk =   0.0076628
        k(  150) = (   0.4694444   0.0611111   0.0000000), wk =   0.0076628
        k(  151) = (   0.4722222   0.0555556   0.0000000), wk =   0.0076628
        k(  152) = (   0.4750000   0.0500000   0.0000000), wk =   0.0076628
        k(  153) = (   0.4777778   0.0444444   0.0000000), wk =   0.0076628
        k(  154) = (   0.4805556   0.0388889   0.0000000), wk =   0.0076628
        k(  155) = (   0.4833333   0.0333333   0.0000000), wk =   0.0076628
        k(  156) = (   0.4861111   0.0277778   0.0000000), wk =   0.0076628
        k(  157) = (   0.4888889   0.0222222   0.0000000), wk =   0.0076628
        k(  158) = (   0.4916667   0.0166667   0.0000000), wk =   0.0076628
        k(  159) = (   0.4944444   0.0111111   0.0000000), wk =   0.0076628
        k(  160) = (   0.4972222   0.0055556   0.0000000), wk =   0.0076628
        k(  161) = (   0.5000000   0.0000000   0.0000000), wk =   0.0076628
        k(  162) = (   0.4950000   0.0000000   0.0000000), wk =   0.0076628
        k(  163) = (   0.4900000   0.0000000   0.0000000), wk =   0.0076628
        k(  164) = (   0.4850000   0.0000000   0.0000000), wk =   0.0076628
        k(  165) = (   0.4800000   0.0000000   0.0000000), wk =   0.0076628
        k(  166) = (   0.4750000   0.0000000   0.0000000), wk =   0.0076628
        k(  167) = (   0.4700000   0.0000000   0.0000000), wk =   0.0076628
        k(  168) = (   0.4650000   0.0000000   0.0000000), wk =   0.0076628
        k(  169) = (   0.4600000   0.0000000   0.0000000), wk =   0.0076628
        k(  170) = (   0.4550000   0.0000000   0.0000000), wk =   0.0076628
        k(  171) = (   0.4500000   0.0000000   0.0000000), wk =   0.0076628
        k(  172) = (   0.4450000   0.0000000   0.0000000), wk =   0.0076628
        k(  173) = (   0.4400000   0.0000000   0.0000000), wk =   0.0076628
        k(  174) = (   0.4350000   0.0000000   0.0000000), wk =   0.0076628
        k(  175) = (   0.4300000   0.0000000   0.0000000), wk =   0.0076628
        k(  176) = (   0.4250000   0.0000000   0.0000000), wk =   0.0076628
        k(  177) = (   0.4200000   0.0000000   0.0000000), wk =   0.0076628
        k(  178) = (   0.4150000   0.0000000   0.0000000), wk =   0.0076628
        k(  179) = (   0.4100000   0.0000000   0.0000000), wk =   0.0076628
        k(  180) = (   0.4050000   0.0000000   0.0000000), wk =   0.0076628
        k(  181) = (   0.4000000   0.0000000   0.0000000), wk =   0.0076628
        k(  182) = (   0.3950000   0.0000000   0.0000000), wk =   0.0076628
        k(  183) = (   0.3900000   0.0000000   0.0000000), wk =   0.0076628
        k(  184) = (   0.3850000   0.0000000   0.0000000), wk =   0.0076628
        k(  185) = (   0.3800000   0.0000000   0.0000000), wk =   0.0076628
        k(  186) = (   0.3750000   0.0000000   0.0000000), wk =   0.0076628
        k(  187) = (   0.3700000   0.0000000   0.0000000), wk =   0.0076628
        k(  188) = (   0.3650000   0.0000000   0.0000000), wk =   0.0076628
        k(  189) = (   0.3600000   0.0000000   0.0000000), wk =   0.0076628
        k(  190) = (   0.3550000   0.0000000   0.0000000), wk =   0.0076628
        k(  191) = (   0.3500000   0.0000000   0.0000000), wk =   0.0076628
        k(  192) = (   0.3450000   0.0000000   0.0000000), wk =   0.0076628
        k(  193) = (   0.3400000   0.0000000   0.0000000), wk =   0.0076628
        k(  194) = (   0.3350000   0.0000000   0.0000000), wk =   0.0076628
        k(  195) = (   0.3300000   0.0000000   0.0000000), wk =   0.0076628
        k(  196) = (   0.3250000   0.0000000   0.0000000), wk =   0.0076628
        k(  197) = (   0.3200000   0.0000000   0.0000000), wk =   0.0076628
        k(  198) = (   0.3150000   0.0000000   0.0000000), wk =   0.0076628
        k(  199) = (   0.3100000   0.0000000   0.0000000), wk =   0.0076628
        k(  200) = (   0.3050000   0.0000000   0.0000000), wk =   0.0076628
        k(  201) = (   0.3000000   0.0000000   0.0000000), wk =   0.0076628
        k(  202) = (   0.2950000   0.0000000   0.0000000), wk =   0.0076628
        k(  203) = (   0.2900000   0.0000000   0.0000000), wk =   0.0076628
        k(  204) = (   0.2850000   0.0000000   0.0000000), wk =   0.0076628
        k(  205) = (   0.2800000   0.0000000   0.0000000), wk =   0.0076628
        k(  206) = (   0.2750000   0.0000000   0.0000000), wk =   0.0076628
        k(  207) = (   0.2700000   0.0000000   0.0000000), wk =   0.0076628
        k(  208) = (   0.2650000   0.0000000   0.0000000), wk =   0.0076628
        k(  209) = (   0.2600000   0.0000000   0.0000000), wk =   0.0076628
        k(  210) = (   0.2550000   0.0000000   0.0000000), wk =   0.0076628
        k(  211) = (   0.2500000   0.0000000   0.0000000), wk =   0.0076628
        k(  212) = (   0.2450000   0.0000000   0.0000000), wk =   0.0076628
        k(  213) = (   0.2400000   0.0000000   0.0000000), wk =   0.0076628
        k(  214) = (   0.2350000   0.0000000   0.0000000), wk =   0.0076628
        k(  215) = (   0.2300000   0.0000000   0.0000000), wk =   0.0076628
        k(  216) = (   0.2250000   0.0000000   0.0000000), wk =   0.0076628
        k(  217) = (   0.2200000   0.0000000   0.0000000), wk =   0.0076628
        k(  218) = (   0.2150000   0.0000000   0.0000000), wk =   0.0076628
        k(  219) = (   0.2100000   0.0000000   0.0000000), wk =   0.0076628
        k(  220) = (   0.2050000   0.0000000   0.0000000), wk =   0.0076628
        k(  221) = (   0.2000000   0.0000000   0.0000000), wk =   0.0076628
        k(  222) = (   0.1950000   0.0000000   0.0000000), wk =   0.0076628
        k(  223) = (   0.1900000   0.0000000   0.0000000), wk =   0.0076628
        k(  224) = (   0.1850000   0.0000000   0.0000000), wk =   0.0076628
        k(  225) = (   0.1800000   0.0000000   0.0000000), wk =   0.0076628
        k(  226) = (   0.1750000   0.0000000   0.0000000), wk =   0.0076628
        k(  227) = (   0.1700000   0.0000000   0.0000000), wk =   0.0076628
        k(  228) = (   0.1650000   0.0000000   0.0000000), wk =   0.0076628
        k(  229) = (   0.1600000   0.0000000   0.0000000), wk =   0.0076628
        k(  230) = (   0.1550000   0.0000000   0.0000000), wk =   0.0076628
        k(  231) = (   0.1500000   0.0000000   0.0000000), wk =   0.0076628
        k(  232) = (   0.1450000   0.0000000   0.0000000), wk =   0.0076628
        k(  233) = (   0.1400000   0.0000000   0.0000000), wk =   0.0076628
        k(  234) = (   0.1350000   0.0000000   0.0000000), wk =   0.0076628
        k(  235) = (   0.1300000   0.0000000   0.0000000), wk =   0.0076628
        k(  236) = (   0.1250000   0.0000000   0.0000000), wk =   0.0076628
        k(  237) = (   0.1200000   0.0000000   0.0000000), wk =   0.0076628
        k(  238) = (   0.1150000   0.0000000   0.0000000), wk =   0.0076628
        k(  239) = (   0.1100000   0.0000000   0.0000000), wk =   0.0076628
        k(  240) = (   0.1050000   0.0000000   0.0000000), wk =   0.0076628
        k(  241) = (   0.1000000   0.0000000   0.0000000), wk =   0.0076628
        k(  242) = (   0.0950000   0.0000000   0.0000000), wk =   0.0076628
        k(  243) = (   0.0900000   0.0000000   0.0000000), wk =   0.0076628
        k(  244) = (   0.0850000   0.0000000   0.0000000), wk =   0.0076628
        k(  245) = (   0.0800000   0.0000000   0.0000000), wk =   0.0076628
        k(  246) = (   0.0750000   0.0000000   0.0000000), wk =   0.0076628
        k(  247) = (   0.0700000   0.0000000   0.0000000), wk =   0.0076628
        k(  248) = (   0.0650000   0.0000000   0.0000000), wk =   0.0076628
        k(  249) = (   0.0600000   0.0000000   0.0000000), wk =   0.0076628
        k(  250) = (   0.0550000   0.0000000   0.0000000), wk =   0.0076628
        k(  251) = (   0.0500000   0.0000000   0.0000000), wk =   0.0076628
        k(  252) = (   0.0450000   0.0000000   0.0000000), wk =   0.0076628
        k(  253) = (   0.0400000   0.0000000   0.0000000), wk =   0.0076628
        k(  254) = (   0.0350000   0.0000000   0.0000000), wk =   0.0076628
        k(  255) = (   0.0300000   0.0000000   0.0000000), wk =   0.0076628
        k(  256) = (   0.0250000   0.0000000   0.0000000), wk =   0.0076628
        k(  257) = (   0.0200000   0.0000000   0.0000000), wk =   0.0076628
        k(  258) = (   0.0150000   0.0000000   0.0000000), wk =   0.0076628
        k(  259) = (   0.0100000   0.0000000   0.0000000), wk =   0.0076628
        k(  260) = (   0.0050000   0.0000000   0.0000000), wk =   0.0076628
        k(  261) = (   0.0000000   0.0000000   0.0000000), wk =   0.0076628

     Dense  grid:   140931 G-vectors     FFT dimensions: (  36,  36, 250)

     Smooth grid:   100699 G-vectors     FFT dimensions: (  32,  32, 225)

     Dynamical RAM for                 wfc:       6.72 MB

     Dynamical RAM for     wfc (w. buffer):       6.72 MB

     Dynamical RAM for           str. fact:       6.45 MB

     Dynamical RAM for           local pot:       0.00 MB

     Dynamical RAM for          nlocal pot:      12.67 MB

     Dynamical RAM for                qrad:       4.82 MB

     Dynamical RAM for          rho,v,vnew:      13.87 MB

     Dynamical RAM for           G-vectors:       8.83 MB

     Dynamical RAM for          h,s,v(r/c):       0.22 MB

     Dynamical RAM for          <psi|beta>:       0.04 MB

     Dynamical RAM for                 psi:      13.44 MB

     Dynamical RAM for                hpsi:      13.44 MB

     Dynamical RAM for      wfcinit/wfcrot:      13.47 MB

     Estimated static dynamical RAM per process >      74.32 MB

     Estimated max dynamical RAM per process >     101.46 MB
 ----2D----2D----2D----2D----2D----2D----2D----2D----2D----2D----2D----2D
  The code is running with the 2D cutoff
  Please refer to:
  Sohier, T., Calandra, M., & Mauri, F. (2017), 
  Density functional perturbation theory for gated two-dimensional heterostructures:
  Theoretical developments and application to flexural phonons in graphene.
  Physical Review B, 96(7), 75448. https://doi.org/10.1103/PhysRevB.96.075448
 ----2D----2D----2D----2D----2D----2D----2D----2D----2D----2D----2D----2D

     The potential is recalculated from file :
     ./tmp/crsi2n4.save/charge-density

     Starting wfcs are   34 randomized atomic wfcs +    1 random wfcs

     Band Structure Calculation
     Davidson diagonalization with overlap

     Computing kpt #:     1  of   261
     total cpu time spent up to now is        2.9 secs

     Computing kpt #:     2  of   261
     total cpu time spent up to now is        4.6 secs

     Computing kpt #:     3  of   261
     total cpu time spent up to now is        6.3 secs

     Computing kpt #:     4  of   261
     total cpu time spent up to now is        8.2 secs

     Computing kpt #:     5  of   261
     total cpu time spent up to now is       10.1 secs

     Computing kpt #:     6  of   261
     total cpu time spent up to now is       12.0 secs

     Computing kpt #:     7  of   261
     total cpu time spent up to now is       13.8 secs

     Computing kpt #:     8  of   261
     total cpu time spent up to now is       15.5 secs

     Computing kpt #:     9  of   261
     total cpu time spent up to now is       17.5 secs

     Computing kpt #:    10  of   261
     total cpu time spent up to now is       19.4 secs

     Computing kpt #:    11  of   261
     total cpu time spent up to now is       21.4 secs

     Computing kpt #:    12  of   261
     total cpu time spent up to now is       23.2 secs

     Computing kpt #:    13  of   261
     total cpu time spent up to now is       25.2 secs

     Computing kpt #:    14  of   261
     total cpu time spent up to now is       27.1 secs

     Computing kpt #:    15  of   261
     total cpu time spent up to now is       29.2 secs

     Computing kpt #:    16  of   261
     total cpu time spent up to now is       31.2 secs

     Computing kpt #:    17  of   261
     total cpu time spent up to now is       33.2 secs

     Computing kpt #:    18  of   261
     total cpu time spent up to now is       35.2 secs

     Computing kpt #:    19  of   261
     total cpu time spent up to now is       37.2 secs

     Computing kpt #:    20  of   261
     total cpu time spent up to now is       39.3 secs

     Computing kpt #:    21  of   261
     total cpu time spent up to now is       41.3 secs

     Computing kpt #:    22  of   261
     total cpu time spent up to now is       43.3 secs

     Computing kpt #:    23  of   261
     total cpu time spent up to now is       45.4 secs

     Computing kpt #:    24  of   261
     total cpu time spent up to now is       47.5 secs

     Computing kpt #:    25  of   261
     total cpu time spent up to now is       49.6 secs

     Computing kpt #:    26  of   261
     total cpu time spent up to now is       51.7 secs

     Computing kpt #:    27  of   261
     total cpu time spent up to now is       53.9 secs

     Computing kpt #:    28  of   261
     total cpu time spent up to now is       56.0 secs

     Computing kpt #:    29  of   261
     total cpu time spent up to now is       58.0 secs

     Computing kpt #:    30  of   261
     total cpu time spent up to now is       60.2 secs

     Computing kpt #:    31  of   261
     total cpu time spent up to now is       62.3 secs

     Computing kpt #:    32  of   261
     total cpu time spent up to now is       64.5 secs

     Computing kpt #:    33  of   261
     total cpu time spent up to now is       66.7 secs

     Computing kpt #:    34  of   261
     total cpu time spent up to now is       68.9 secs

     Computing kpt #:    35  of   261
     total cpu time spent up to now is       71.3 secs

     Computing kpt #:    36  of   261
     total cpu time spent up to now is       73.6 secs

     Computing kpt #:    37  of   261
     total cpu time spent up to now is       75.9 secs

     Computing kpt #:    38  of   261
     total cpu time spent up to now is       78.3 secs

     Computing kpt #:    39  of   261
     total cpu time spent up to now is       80.5 secs

     Computing kpt #:    40  of   261
     total cpu time spent up to now is       83.0 secs

     Computing kpt #:    41  of   261
     total cpu time spent up to now is       85.3 secs

     Computing kpt #:    42  of   261
     total cpu time spent up to now is       87.6 secs

     Computing kpt #:    43  of   261
     total cpu time spent up to now is       90.0 secs

     Computing kpt #:    44  of   261
     total cpu time spent up to now is       92.5 secs

     Computing kpt #:    45  of   261
     total cpu time spent up to now is       94.9 secs

     Computing kpt #:    46  of   261
     total cpu time spent up to now is       97.4 secs

     Computing kpt #:    47  of   261
     total cpu time spent up to now is       99.9 secs

     Computing kpt #:    48  of   261
     total cpu time spent up to now is      102.4 secs

     Computing kpt #:    49  of   261
     total cpu time spent up to now is      105.0 secs

     Computing kpt #:    50  of   261
     total cpu time spent up to now is      107.6 secs

     Computing kpt #:    51  of   261
     total cpu time spent up to now is      110.4 secs

     Computing kpt #:    52  of   261
     c_bands:  1 eigenvalues not converged
     total cpu time spent up to now is      113.5 secs

     Computing kpt #:    53  of   261
     total cpu time spent up to now is      116.0 secs

     Computing kpt #:    54  of   261
     total cpu time spent up to now is      118.5 secs

     Computing kpt #:    55  of   261
     total cpu time spent up to now is      120.9 secs

     Computing kpt #:    56  of   261
     total cpu time spent up to now is      123.2 secs

     Computing kpt #:    57  of   261
     total cpu time spent up to now is      125.6 secs

     Computing kpt #:    58  of   261
     total cpu time spent up to now is      127.8 secs

     Computing kpt #:    59  of   261
     total cpu time spent up to now is      129.9 secs

     Computing kpt #:    60  of   261
     total cpu time spent up to now is      131.9 secs

     Computing kpt #:    61  of   261
     total cpu time spent up to now is      133.9 secs

     Computing kpt #:    62  of   261
     total cpu time spent up to now is      135.8 secs

     Computing kpt #:    63  of   261
     total cpu time spent up to now is      137.9 secs

     Computing kpt #:    64  of   261
     total cpu time spent up to now is      139.9 secs

     Computing kpt #:    65  of   261
     total cpu time spent up to now is      142.1 secs

     Computing kpt #:    66  of   261
     total cpu time spent up to now is      144.1 secs

     Computing kpt #:    67  of   261
     total cpu time spent up to now is      146.2 secs

     Computing kpt #:    68  of   261
     total cpu time spent up to now is      148.4 secs

     Computing kpt #:    69  of   261
     total cpu time spent up to now is      150.5 secs

     Computing kpt #:    70  of   261
     total cpu time spent up to now is      152.8 secs

     Computing kpt #:    71  of   261
     total cpu time spent up to now is      156.0 secs

     Computing kpt #:    72  of   261
     c_bands:  1 eigenvalues not converged
     total cpu time spent up to now is      159.1 secs

     Computing kpt #:    73  of   261
     c_bands:  1 eigenvalues not converged
     total cpu time spent up to now is      162.3 secs

     Computing kpt #:    74  of   261
     c_bands:  1 eigenvalues not converged
     total cpu time spent up to now is      165.5 secs

     Computing kpt #:    75  of   261
     total cpu time spent up to now is      168.2 secs

     Computing kpt #:    76  of   261
     total cpu time spent up to now is      170.6 secs

     Computing kpt #:    77  of   261
     total cpu time spent up to now is      173.0 secs

     Computing kpt #:    78  of   261
     total cpu time spent up to now is      175.1 secs

     Computing kpt #:    79  of   261
     total cpu time spent up to now is      177.2 secs

     Computing kpt #:    80  of   261
     total cpu time spent up to now is      179.2 secs

     Computing kpt #:    81  of   261
     total cpu time spent up to now is      181.0 secs

     Computing kpt #:    82  of   261
     total cpu time spent up to now is      182.8 secs

     Computing kpt #:    83  of   261
     total cpu time spent up to now is      184.8 secs

     Computing kpt #:    84  of   261
     total cpu time spent up to now is      186.8 secs

     Computing kpt #:    85  of   261
     total cpu time spent up to now is      188.8 secs

     Computing kpt #:    86  of   261
     total cpu time spent up to now is      190.8 secs

     Computing kpt #:    87  of   261
     total cpu time spent up to now is      192.8 secs

     Computing kpt #:    88  of   261
     total cpu time spent up to now is      194.9 secs

     Computing kpt #:    89  of   261
     total cpu time spent up to now is      196.7 secs

     Computing kpt #:    90  of   261
     total cpu time spent up to now is      198.6 secs

     Computing kpt #:    91  of   261
     total cpu time spent up to now is      200.3 secs

     Computing kpt #:    92  of   261
     total cpu time spent up to now is      202.1 secs

     Computing kpt #:    93  of   261
     total cpu time spent up to now is      203.8 secs

     Computing kpt #:    94  of   261
     total cpu time spent up to now is      205.6 secs

     Computing kpt #:    95  of   261
     total cpu time spent up to now is      207.3 secs

     Computing kpt #:    96  of   261
     total cpu time spent up to now is      209.1 secs

     Computing kpt #:    97  of   261
     total cpu time spent up to now is      210.7 secs

     Computing kpt #:    98  of   261
     total cpu time spent up to now is      212.4 secs

     Computing kpt #:    99  of   261
     total cpu time spent up to now is      214.0 secs

     Computing kpt #:   100  of   261
     total cpu time spent up to now is      215.6 secs

     Computing kpt #:   101  of   261
     total cpu time spent up to now is      217.3 secs

     Computing kpt #:   102  of   261
     total cpu time spent up to now is      219.0 secs

     Computing kpt #:   103  of   261
     total cpu time spent up to now is      220.7 secs

     Computing kpt #:   104  of   261
     total cpu time spent up to now is      222.4 secs

     Computing kpt #:   105  of   261
     total cpu time spent up to now is      224.1 secs

     Computing kpt #:   106  of   261
     total cpu time spent up to now is      225.9 secs

     Computing kpt #:   107  of   261
     total cpu time spent up to now is      227.7 secs

     Computing kpt #:   108  of   261
     total cpu time spent up to now is      229.4 secs

     Computing kpt #:   109  of   261
     total cpu time spent up to now is      231.2 secs

     Computing kpt #:   110  of   261
     total cpu time spent up to now is      232.8 secs

     Computing kpt #:   111  of   261
     total cpu time spent up to now is      234.6 secs

     Computing kpt #:   112  of   261
     total cpu time spent up to now is      236.4 secs

     Computing kpt #:   113  of   261
     total cpu time spent up to now is      238.1 secs

     Computing kpt #:   114  of   261
     total cpu time spent up to now is      239.8 secs

     Computing kpt #:   115  of   261
     total cpu time spent up to now is      241.5 secs

     Computing kpt #:   116  of   261
     total cpu time spent up to now is      243.5 secs

     Computing kpt #:   117  of   261
     total cpu time spent up to now is      245.6 secs

     Computing kpt #:   118  of   261
     total cpu time spent up to now is      247.6 secs

     Computing kpt #:   119  of   261
     total cpu time spent up to now is      249.6 secs

     Computing kpt #:   120  of   261
     total cpu time spent up to now is      251.7 secs

     Computing kpt #:   121  of   261
     total cpu time spent up to now is      253.8 secs

     Computing kpt #:   122  of   261
     total cpu time spent up to now is      255.8 secs

     Computing kpt #:   123  of   261
     total cpu time spent up to now is      257.9 secs

     Computing kpt #:   124  of   261
     total cpu time spent up to now is      260.0 secs

     Computing kpt #:   125  of   261
     total cpu time spent up to now is      262.1 secs

     Computing kpt #:   126  of   261
     total cpu time spent up to now is      264.1 secs

     Computing kpt #:   127  of   261
     total cpu time spent up to now is      266.2 secs

     Computing kpt #:   128  of   261
     total cpu time spent up to now is      268.2 secs

     Computing kpt #:   129  of   261
     total cpu time spent up to now is      270.2 secs

     Computing kpt #:   130  of   261
     total cpu time spent up to now is      272.2 secs

     Computing kpt #:   131  of   261
     total cpu time spent up to now is      274.1 secs

     Computing kpt #:   132  of   261
     total cpu time spent up to now is      276.2 secs

     Computing kpt #:   133  of   261
     total cpu time spent up to now is      278.2 secs

     Computing kpt #:   134  of   261
     total cpu time spent up to now is      280.1 secs

     Computing kpt #:   135  of   261
     total cpu time spent up to now is      281.8 secs

     Computing kpt #:   136  of   261
     total cpu time spent up to now is      283.6 secs

     Computing kpt #:   137  of   261
     total cpu time spent up to now is      285.4 secs

     Computing kpt #:   138  of   261
     total cpu time spent up to now is      287.3 secs

     Computing kpt #:   139  of   261
     total cpu time spent up to now is      289.1 secs

     Computing kpt #:   140  of   261
     total cpu time spent up to now is      290.9 secs

     Computing kpt #:   141  of   261
     total cpu time spent up to now is      292.7 secs

     Computing kpt #:   142  of   261
     total cpu time spent up to now is      294.5 secs

     Computing kpt #:   143  of   261
     total cpu time spent up to now is      296.4 secs

     Computing kpt #:   144  of   261
     total cpu time spent up to now is      298.4 secs

     Computing kpt #:   145  of   261
     total cpu time spent up to now is      300.4 secs

     Computing kpt #:   146  of   261
     total cpu time spent up to now is      302.5 secs

     Computing kpt #:   147  of   261
     total cpu time spent up to now is      304.5 secs

     Computing kpt #:   148  of   261
     total cpu time spent up to now is      306.5 secs

     Computing kpt #:   149  of   261
     total cpu time spent up to now is      308.5 secs

     Computing kpt #:   150  of   261
     total cpu time spent up to now is      310.6 secs

     Computing kpt #:   151  of   261
     total cpu time spent up to now is      312.7 secs

     Computing kpt #:   152  of   261
     total cpu time spent up to now is      314.7 secs

     Computing kpt #:   153  of   261
     total cpu time spent up to now is      316.8 secs

     Computing kpt #:   154  of   261
     total cpu time spent up to now is      318.7 secs

     Computing kpt #:   155  of   261
     total cpu time spent up to now is      320.8 secs

     Computing kpt #:   156  of   261
     total cpu time spent up to now is      322.9 secs

     Computing kpt #:   157  of   261
     total cpu time spent up to now is      324.9 secs

     Computing kpt #:   158  of   261
     total cpu time spent up to now is      326.8 secs

     Computing kpt #:   159  of   261
     total cpu time spent up to now is      328.7 secs

     Computing kpt #:   160  of   261
     total cpu time spent up to now is      330.5 secs

     Computing kpt #:   161  of   261
     total cpu time spent up to now is      332.2 secs

     Computing kpt #:   162  of   261
     total cpu time spent up to now is      334.1 secs

     Computing kpt #:   163  of   261
     total cpu time spent up to now is      336.0 secs

     Computing kpt #:   164  of   261
     total cpu time spent up to now is      337.8 secs

     Computing kpt #:   165  of   261
     total cpu time spent up to now is      339.7 secs

     Computing kpt #:   166  of   261
     total cpu time spent up to now is      341.6 secs

     Computing kpt #:   167  of   261
     total cpu time spent up to now is      343.3 secs

     Computing kpt #:   168  of   261
     total cpu time spent up to now is      345.2 secs

     Computing kpt #:   169  of   261
     total cpu time spent up to now is      347.1 secs

     Computing kpt #:   170  of   261
     total cpu time spent up to now is      349.0 secs

     Computing kpt #:   171  of   261
     total cpu time spent up to now is      350.9 secs

     Computing kpt #:   172  of   261
     total cpu time spent up to now is      352.7 secs

     Computing kpt #:   173  of   261
     total cpu time spent up to now is      354.7 secs

     Computing kpt #:   174  of   261
     total cpu time spent up to now is      356.5 secs

     Computing kpt #:   175  of   261
     total cpu time spent up to now is      358.5 secs

     Computing kpt #:   176  of   261
     total cpu time spent up to now is      360.6 secs

     Computing kpt #:   177  of   261
     total cpu time spent up to now is      362.6 secs

     Computing kpt #:   178  of   261
     total cpu time spent up to now is      364.6 secs

     Computing kpt #:   179  of   261
     total cpu time spent up to now is      366.9 secs

     Computing kpt #:   180  of   261
     total cpu time spent up to now is      368.8 secs

     Computing kpt #:   181  of   261
     total cpu time spent up to now is      370.9 secs

     Computing kpt #:   182  of   261
     c_bands:  1 eigenvalues not converged
     total cpu time spent up to now is      374.0 secs

     Computing kpt #:   183  of   261
     c_bands:  1 eigenvalues not converged
     total cpu time spent up to now is      377.0 secs

     Computing kpt #:   184  of   261
     c_bands:  1 eigenvalues not converged
     total cpu time spent up to now is      380.0 secs

     Computing kpt #:   185  of   261
     total cpu time spent up to now is      382.4 secs

     Computing kpt #:   186  of   261
     total cpu time spent up to now is      385.4 secs

     Computing kpt #:   187  of   261
     c_bands:  1 eigenvalues not converged
     total cpu time spent up to now is      388.4 secs

     Computing kpt #:   188  of   261
     c_bands:  1 eigenvalues not converged
     total cpu time spent up to now is      391.3 secs

     Computing kpt #:   189  of   261
     total cpu time spent up to now is      394.3 secs

     Computing kpt #:   190  of   261
     total cpu time spent up to now is      396.8 secs

     Computing kpt #:   191  of   261
     total cpu time spent up to now is      399.1 secs

     Computing kpt #:   192  of   261
     total cpu time spent up to now is      401.3 secs

     Computing kpt #:   193  of   261
     total cpu time spent up to now is      403.5 secs

     Computing kpt #:   194  of   261
     total cpu time spent up to now is      406.3 secs

     Computing kpt #:   195  of   261
     total cpu time spent up to now is      409.0 secs

     Computing kpt #:   196  of   261
     total cpu time spent up to now is      411.7 secs

     Computing kpt #:   197  of   261
     total cpu time spent up to now is      413.9 secs

     Computing kpt #:   198  of   261
     total cpu time spent up to now is      416.2 secs

     Computing kpt #:   199  of   261
     total cpu time spent up to now is      418.5 secs

     Computing kpt #:   200  of   261
     total cpu time spent up to now is      420.8 secs

     Computing kpt #:   201  of   261
     total cpu time spent up to now is      423.0 secs

     Computing kpt #:   202  of   261
     total cpu time spent up to now is      425.3 secs

     Computing kpt #:   203  of   261
     total cpu time spent up to now is      427.6 secs

     Computing kpt #:   204  of   261
     total cpu time spent up to now is      430.0 secs

     Computing kpt #:   205  of   261
     total cpu time spent up to now is      432.4 secs

     Computing kpt #:   206  of   261
     total cpu time spent up to now is      434.6 secs

     Computing kpt #:   207  of   261
     total cpu time spent up to now is      436.6 secs

     Computing kpt #:   208  of   261
     total cpu time spent up to now is      438.6 secs

     Computing kpt #:   209  of   261
     total cpu time spent up to now is      440.7 secs

     Computing kpt #:   210  of   261
     total cpu time spent up to now is      442.8 secs

     Computing kpt #:   211  of   261
     total cpu time spent up to now is      444.9 secs

     Computing kpt #:   212  of   261
     total cpu time spent up to now is      447.1 secs

     Computing kpt #:   213  of   261
     total cpu time spent up to now is      449.2 secs

     Computing kpt #:   214  of   261
     total cpu time spent up to now is      451.4 secs

     Computing kpt #:   215  of   261
     total cpu time spent up to now is      453.5 secs

     Computing kpt #:   216  of   261
     total cpu time spent up to now is      455.4 secs

     Computing kpt #:   217  of   261
     total cpu time spent up to now is      457.6 secs

     Computing kpt #:   218  of   261
     total cpu time spent up to now is      459.8 secs

     Computing kpt #:   219  of   261
     total cpu time spent up to now is      461.9 secs

     Computing kpt #:   220  of   261
     total cpu time spent up to now is      464.1 secs

     Computing kpt #:   221  of   261
     total cpu time spent up to now is      466.3 secs

     Computing kpt #:   222  of   261
     total cpu time spent up to now is      468.5 secs

     Computing kpt #:   223  of   261
     total cpu time spent up to now is      470.7 secs

     Computing kpt #:   224  of   261
     total cpu time spent up to now is      472.6 secs

     Computing kpt #:   225  of   261
     total cpu time spent up to now is      474.4 secs

     Computing kpt #:   226  of   261
     total cpu time spent up to now is      476.6 secs

     Computing kpt #:   227  of   261
     total cpu time spent up to now is      478.5 secs

     Computing kpt #:   228  of   261
     total cpu time spent up to now is      480.3 secs

     Computing kpt #:   229  of   261
     total cpu time spent up to now is      482.5 secs

     Computing kpt #:   230  of   261
     total cpu time spent up to now is      484.6 secs

     Computing kpt #:   231  of   261
     total cpu time spent up to now is      486.8 secs

     Computing kpt #:   232  of   261
     total cpu time spent up to now is      488.6 secs

     Computing kpt #:   233  of   261
     total cpu time spent up to now is      490.7 secs

     Computing kpt #:   234  of   261
     total cpu time spent up to now is      492.9 secs

     Computing kpt #:   235  of   261
     total cpu time spent up to now is      494.7 secs

     Computing kpt #:   236  of   261
     total cpu time spent up to now is      496.8 secs

     Computing kpt #:   237  of   261
     total cpu time spent up to now is      498.9 secs

     Computing kpt #:   238  of   261
     total cpu time spent up to now is      500.7 secs

     Computing kpt #:   239  of   261
     total cpu time spent up to now is      502.7 secs

     Computing kpt #:   240  of   261
     total cpu time spent up to now is      504.5 secs

     Computing kpt #:   241  of   261
     total cpu time spent up to now is      506.2 secs

     Computing kpt #:   242  of   261
     total cpu time spent up to now is      508.0 secs

     Computing kpt #:   243  of   261
     total cpu time spent up to now is      509.8 secs

     Computing kpt #:   244  of   261
     total cpu time spent up to now is      511.6 secs

     Computing kpt #:   245  of   261
     total cpu time spent up to now is      513.3 secs

     Computing kpt #:   246  of   261
     total cpu time spent up to now is      515.1 secs

     Computing kpt #:   247  of   261
     total cpu time spent up to now is      516.9 secs

     Computing kpt #:   248  of   261
     total cpu time spent up to now is      518.7 secs

     Computing kpt #:   249  of   261
     total cpu time spent up to now is      520.5 secs

     Computing kpt #:   250  of   261
     total cpu time spent up to now is      522.2 secs

     Computing kpt #:   251  of   261
     total cpu time spent up to now is      523.9 secs

     Computing kpt #:   252  of   261
     total cpu time spent up to now is      525.7 secs

     Computing kpt #:   253  of   261
     total cpu time spent up to now is      527.4 secs

     Computing kpt #:   254  of   261
     total cpu time spent up to now is      529.1 secs

     Computing kpt #:   255  of   261
     total cpu time spent up to now is      530.9 secs

     Computing kpt #:   256  of   261
     total cpu time spent up to now is      532.6 secs

     Computing kpt #:   257  of   261
     total cpu time spent up to now is      534.4 secs

     Computing kpt #:   258  of   261
     total cpu time spent up to now is      536.1 secs

     Computing kpt #:   259  of   261
     total cpu time spent up to now is      537.8 secs

     Computing kpt #:   260  of   261
     total cpu time spent up to now is      539.5 secs

     Computing kpt #:   261  of   261
     total cpu time spent up to now is      541.3 secs

     ethr =  2.38E-13,  avg # of iterations = 71.6

     total cpu time spent up to now is      541.3 secs

     End of band structure calculation

          k = 0.0000 0.0000 0.0000 ( 12573 PWs)   bands (ev):

   -77.7392 -48.9755 -48.9755 -48.8508 -23.8676 -23.7649 -21.2756 -19.8769
   -13.4748 -10.7655  -9.1941  -9.1938  -9.1275  -9.1268  -8.9128  -8.6790
    -8.6789  -7.3997  -7.3984  -7.1040  -5.1797  -3.3539  -3.3525  -3.1544
    -3.1540  -1.5012  -1.2069   1.3849   1.8009   1.8374   2.6178   2.6185
     2.7193   2.7202   3.2150

          k = 0.0033 0.0058 0.0000 ( 12577 PWs)   bands (ev):

   -77.7392 -48.9755 -48.9755 -48.8508 -23.8671 -23.7644 -21.2752 -19.8767
   -13.4744 -10.7653  -9.1975  -9.1946  -9.1298  -9.1281  -8.9110  -8.6800
    -8.6787  -7.4008  -7.3990  -7.1028  -5.1800  -3.3533  -3.3531  -3.1552
    -3.1544  -1.4989  -1.2050   1.3865   1.8016   1.8378   2.6141   2.6199
     2.7163   2.7207   3.2193

          k = 0.0067 0.0115 0.0000 ( 12581 PWs)   bands (ev):

   -77.7392 -48.9757 -48.9756 -48.8508 -23.8655 -23.7628 -21.2740 -19.8761
   -13.4732 -10.7648  -9.2083  -9.1962  -9.1388  -9.1298  -8.9059  -8.6832
    -8.6778  -7.4041  -7.4006  -7.0995  -5.1810  -3.3549  -3.3517  -3.1578
    -3.1554  -1.4921  -1.1991   1.3913   1.8037   1.8392   2.6031   2.6242
     2.7047   2.7250   3.2317

          k = 0.0100 0.0173 0.0000 ( 12579 PWs)   bands (ev):

   -77.7391 -48.9761 -48.9756 -48.8507 -23.8629 -23.7602 -21.2721 -19.8751
   -13.4712 -10.7639  -9.2256  -9.1989  -9.1534  -9.1327  -8.8980  -8.6886
    -8.6762  -7.4094  -7.4033  -7.0941  -5.1827  -3.3579  -3.3489  -3.1619
    -3.1572  -1.4807  -1.1893   1.3993   1.8072   1.8415   2.5850   2.6314
     2.6867   2.7322   3.2512

          k = 0.0133 0.0231 0.0000 ( 12569 PWs)   bands (ev):

   -77.7391 -48.9765 -48.9757 -48.8507 -23.8591 -23.7566 -21.2694 -19.8737
   -13.4684 -10.7627  -9.2486  -9.2031  -9.1730  -9.1369  -8.8883  -8.6959
    -8.6741  -7.4165  -7.4072  -7.0870  -5.1851  -3.3620  -3.3451  -3.1676
    -3.1596  -1.4650  -1.1758   1.4104   1.8121   1.8447   2.5605   2.6412
     2.6634   2.7422   3.2763

          k = 0.0167 0.0289 0.0000 ( 12563 PWs)   bands (ev):

   -77.7390 -48.9771 -48.9759 -48.8506 -23.8544 -23.7519 -21.2659 -19.8719
   -13.4649 -10.7611  -9.2768  -9.2115  -9.1949  -9.1423  -8.8773  -8.7052
    -8.6714  -7.4250  -7.4121  -7.0786  -5.1883  -3.3672  -3.3401  -3.1747
    -3.1628  -1.4451  -1.1585   1.4246   1.8183   1.8487   2.5302   2.6346
     2.6549   2.7551   3.3059

          k = 0.0200 0.0346 0.0000 ( 12559 PWs)   bands (ev):

   -77.7389 -48.9778 -48.9760 -48.8504 -23.8485 -23.7461 -21.2617 -19.8697
   -13.4606 -10.7592  -9.3096  -9.2349  -9.2079  -9.1491  -8.8657  -8.7162
    -8.6682  -7.4346  -7.4182  -7.0693  -5.1922  -3.3732  -3.3342  -3.1830
    -3.1666  -1.4212  -1.1378   1.4418   1.8257   1.8536   2.4950   2.6031
     2.6704   2.7710   3.3389

          k = 0.0233 0.0404 0.0000 ( 12555 PWs)   bands (ev):

   -77.7388 -48.9787 -48.9762 -48.8503 -23.8417 -23.7393 -21.2567 -19.8671
   -13.4555 -10.7570  -9.3465  -9.2693  -9.2158  -9.1571  -8.8540  -8.7288
    -8.6644  -7.4452  -7.4255  -7.0594  -5.1970  -3.3801  -3.3272  -3.1924
    -3.1711  -1.3935  -1.1137   1.4617   1.8342   1.8591   2.4558   2.5682
     2.6891   2.7897   3.3743

          k = 0.0267 0.0462 0.0000 ( 12551 PWs)   bands (ev):

   -77.7387 -48.9796 -48.9765 -48.8501 -23.8337 -23.7315 -21.2510 -19.8642
   -13.4496 -10.7544  -9.3872  -9.3092  -9.2239  -9.1666  -8.8425  -8.7425
    -8.6601  -7.4565  -7.4340  -7.0492  -5.2028  -3.3877  -3.3194  -3.2025
    -3.1762  -1.3624  -1.0864   1.4844   1.8437   1.8654   2.4134   2.5306
     2.7107   2.8113   3.4117

          k = 0.0300 0.0520 0.0000 ( 12535 PWs)   bands (ev):

   -77.7386 -48.9807 -48.9767 -48.8499 -23.8247 -23.7226 -21.2445 -19.8608
   -13.4430 -10.7516  -9.4314  -9.3538  -9.2329  -9.1774  -8.8320  -8.7566
    -8.6553  -7.4684  -7.4437  -7.0390  -5.2094  -3.3958  -3.3107  -3.2134
    -3.1818  -1.3279  -1.0561   1.5095   1.8539   1.8722   2.3687   2.4908
     2.7351   2.8360   3.4506

          k = 0.0333 0.0577 0.0000 ( 12523 PWs)   bands (ev):

   -77.7384 -48.9819 -48.9770 -48.8497 -23.8147 -23.7127 -21.2373 -19.8571
   -13.4357 -10.7484  -9.4790  -9.4025  -9.2430  -9.1896  -8.8243  -8.7693
    -8.6499  -7.4806  -7.4546  -7.0290  -5.2171  -3.4043  -3.3014  -3.2246
    -3.1880  -1.2905  -1.0230   1.5368   1.8643   1.8796   2.3223   2.4493
     2.7625   2.8636   3.4906

          k = 0.0367 0.0635 0.0000 ( 12523 PWs)   bands (ev):

   -77.7383 -48.9833 -48.9773 -48.8495 -23.8036 -23.7018 -21.2294 -19.8530
   -13.4277 -10.7451  -9.5297  -9.4550  -9.2543  -9.2033  -8.8239  -8.7761
    -8.6439  -7.4932  -7.4668  -7.0195  -5.2258  -3.4131  -3.2917  -3.2361
    -3.1943  -1.2503  -0.9874   1.5659   1.8745   1.8875   2.2750   2.4070
     2.7927   2.8942   3.5315

          k = 0.0400 0.0693 0.0000 ( 12523 PWs)   bands (ev):

   -77.7381 -48.9847 -48.9777 -48.8492 -23.7915 -23.6898 -21.2207 -19.8486
   -13.4190 -10.7415  -9.5835  -9.5111  -9.2669  -9.2184  -8.8341  -8.7733
    -8.6374  -7.5061  -7.4802  -7.0106  -5.2357  -3.4220  -3.2824  -3.2473
    -3.2005  -1.2077  -0.9494   1.5964   1.8836   1.8959   2.2279   2.3646
     2.8257   2.9277   3.5732

          k = 0.0433 0.0751 0.0000 ( 12531 PWs)   bands (ev):

   -77.7379 -48.9863 -48.9780 -48.8489 -23.7784 -23.6768 -21.2113 -19.8437
   -13.4096 -10.7377  -9.6402  -9.5703  -9.2810  -9.2350  -8.8511  -8.7647
    -8.6303  -7.5192  -7.4948  -7.0025  -5.2466  -3.4309  -3.2757  -3.2569
    -3.2055  -1.1629  -0.9093   1.6272   1.8912   1.9038   2.1823   2.3235
     2.8615   2.9643   3.6155

          k = 0.0467 0.0808 0.0000 ( 12535 PWs)   bands (ev):

   -77.7377 -48.9879 -48.9784 -48.8486 -23.7642 -23.6628 -21.2013 -19.8386
   -13.3996 -10.7338  -9.6995  -9.6325  -9.2965  -9.2530  -8.8711  -8.7539
    -8.6226  -7.5327  -7.5105  -6.9952  -5.2587  -3.4397  -3.2777  -3.2607
    -3.2075  -1.1161  -0.8674   1.6572   1.8976   1.9087   2.1408   2.2849
     2.9000   3.0040   3.6584

          k = 0.0500 0.0866 0.0000 ( 12525 PWs)   bands (ev):

   -77.7375 -48.9897 -48.9789 -48.8483 -23.7490 -23.6478 -21.1905 -19.8330
   -13.3890 -10.7298  -9.7615  -9.6972  -9.3137  -9.2724  -8.8929  -8.7421
    -8.6143  -7.5469  -7.5269  -6.9888  -5.2720  -3.4483  -3.2869  -3.2621
    -3.2041  -1.0676  -0.8238   1.6837   1.9037   1.9069   2.1074   2.2506
     2.9412   3.0466   3.7017

          k = 0.0533 0.0924 0.0000 ( 12529 PWs)   bands (ev):

   -77.7373 -48.9916 -48.9793 -48.8480 -23.7327 -23.6318 -21.1790 -19.8272
   -13.3778 -10.7258  -9.8258  -9.7642  -9.3328  -9.2930  -8.9157  -8.7299
    -8.6054  -7.5625  -7.5433  -6.9834  -5.2864  -3.4565  -3.2975  -3.2675
    -3.1951  -1.0177  -0.7787   1.7030   1.8921   1.9129   2.0869   2.2224
     2.9849   3.0922   3.7455

          k = 0.0567 0.0981 0.0000 ( 12529 PWs)   bands (ev):

   -77.7370 -48.9936 -48.9798 -48.8476 -23.7155 -23.6147 -21.1669 -19.8210
   -13.3660 -10.7219  -9.8924  -9.8331  -9.3539  -9.3146  -8.9393  -8.7173
    -8.5958  -7.5802  -7.5588  -6.9791  -5.3020  -3.4643  -3.3081  -3.2764
    -3.1821  -0.9665  -0.7324   1.7098   1.8641   1.9277   2.0812   2.2017
     3.0310   3.1407   3.7896

          k = 0.0600 0.1039 0.0000 ( 12530 PWs)   bands (ev):

   -77.7368 -48.9957 -48.9804 -48.8473 -23.6972 -23.5967 -21.1541 -19.8145
   -13.3538 -10.7183  -9.9610  -9.9037  -9.3772  -9.3373  -8.9635  -8.7045
    -8.5857  -7.6006  -7.5731  -6.9758  -5.3187  -3.4716  -3.3185  -3.2875
    -3.1666  -0.9142  -0.6851   1.7009   1.8254   1.9515   2.0871   2.1893
     3.0793   3.1922   3.8341

          k = 0.0633 0.1097 0.0000 ( 12542 PWs)   bands (ev):

   -77.7365 -48.9979 -48.9809 -48.8469 -23.6780 -23.5777 -21.1407 -19.8077
   -13.3411 -10.7151 -10.0315  -9.9754  -9.4027  -9.3608  -8.9882  -8.6915
    -8.5750  -7.6233  -7.5862  -6.9736  -5.3365  -3.4784  -3.3285  -3.3001
    -3.1496  -0.8611  -0.6369   1.6771   1.7804   1.9841   2.1001   2.1847
     3.1297   3.2465   3.8790

          k = 0.0667 0.1155 0.0000 ( 12548 PWs)   bands (ev):

   -77.7362 -49.0002 -48.9815 -48.8465 -23.6577 -23.5577 -21.1267 -19.8005
   -13.3280 -10.7126 -10.1035 -10.0480  -9.4306  -9.3852  -9.0133  -8.6784
    -8.5637  -7.6480  -7.5987  -6.9724  -5.3553  -3.4845  -3.3381  -3.3139
    -3.1313  -0.8074  -0.5880   1.6419   1.7317   2.0233   2.1174   2.1869
     3.1819   3.3036   3.9245

          k = 0.0700 0.1212 0.0000 ( 12540 PWs)   bands (ev):

   -77.7359 -49.0026 -48.9821 -48.8460 -23.6365 -23.5367 -21.1121 -19.7931
   -13.3145 -10.7114 -10.1767 -10.1210  -9.4608  -9.4104  -9.0387  -8.6650
    -8.5518  -7.6745  -7.6106  -6.9723  -5.3751  -3.4900  -3.3472  -3.3286
    -3.1121  -0.7532  -0.5387   1.5991   1.6807   2.0671   2.1372   2.1950
     3.2356   3.3633   3.9704

          k = 0.0733 0.1270 0.0000 ( 12540 PWs)   bands (ev):

   -77.7356 -49.0050 -48.9828 -48.8456 -23.6142 -23.5148 -21.0968 -19.7854
   -13.3006 -10.7121 -10.2507 -10.1937  -9.4931  -9.4367  -9.0645  -8.6516
    -8.5394  -7.7026  -7.6220  -6.9732  -5.3959  -3.4948  -3.3560  -3.3441
    -3.0920  -0.6987  -0.4891   1.5515   1.6283   2.1134   2.1586   2.2080
     3.2905   3.4256   4.0171

          k = 0.0767 0.1328 0.0000 ( 12538 PWs)   bands (ev):

   -77.7353 -49.0076 -48.9835 -48.8451 -23.5910 -23.4918 -21.0810 -19.7774
   -13.2866 -10.7159 -10.3250 -10.2650  -9.5274  -9.4640  -9.0906  -8.6379
    -8.5265  -7.7322  -7.6329  -6.9751  -5.4175  -3.4989  -3.3651  -3.3594
    -3.0713  -0.6440  -0.4392   1.5009   1.5749   2.1593   2.1825   2.2258
     3.3461   3.4902   4.0647

          k = 0.0800 0.1386 0.0000 ( 12526 PWs)   bands (ev):

   -77.7350 -49.0102 -48.9842 -48.8447 -23.5669 -23.4680 -21.0646 -19.7692
   -13.2723 -10.7248 -10.3990 -10.3333  -9.5636  -9.4924  -9.1169  -8.6241
    -8.5131  -7.7633  -7.6434  -6.9780  -5.4400  -3.5024  -3.3791  -3.3699
    -3.0499  -0.5894  -0.3893   1.4487   1.5210   2.1936   2.2174   2.2495
     3.4021   3.5570   4.1134

          k = 0.0833 0.1443 0.0000 ( 12512 PWs)   bands (ev):

   -77.7347 -49.0129 -48.9849 -48.8442 -23.5418 -23.4432 -21.0477 -19.7607
   -13.2580 -10.7418 -10.4725 -10.3955  -9.6016  -9.5220  -9.1435  -8.6102
    -8.4993  -7.7958  -7.6534  -6.9818  -5.4631  -3.5054  -3.3965  -3.3773
    -3.0279  -0.5349  -0.3395   1.3955   1.4670   2.2165   2.2559   2.2851
     3.4579   3.6257   4.1635

          k = 0.0867 0.1501 0.0000 ( 12516 PWs)   bands (ev):

   -77.7343 -49.0156 -48.9857 -48.8437 -23.5157 -23.4174 -21.0303 -19.7520
   -13.2436 -10.7707 -10.5456 -10.4473  -9.6412  -9.5528  -9.1704  -8.5962
    -8.4851  -7.8296  -7.6630  -6.9865  -5.4869  -3.5078  -3.4146  -3.3838
    -3.0055  -0.4808  -0.2900   1.3422   1.4132   2.2373   2.2867   2.3338
     3.5130   3.6961   4.2153

          k = 0.0900 0.1559 0.0000 ( 12524 PWs)   bands (ev):

   -77.7340 -49.0184 -48.9865 -48.8431 -23.4887 -23.3908 -21.0124 -19.7431
   -13.2293 -10.8140 -10.6191 -10.4851  -9.6823  -9.5849  -9.1975  -8.5820
    -8.4705  -7.8646  -7.6720  -6.9921  -5.5113  -3.5099  -3.4333  -3.3896
    -2.9826  -0.4270  -0.2407   1.2890   1.3599   2.2574   2.3158   2.3874
     3.5669   3.7679   4.2690

          k = 0.0933 0.1617 0.0000 ( 12534 PWs)   bands (ev):

   -77.7336 -49.0213 -48.9873 -48.8426 -23.4608 -23.3632 -20.9941 -19.7339
   -13.2151 -10.8711 -10.6932 -10.5090  -9.7249  -9.6183  -9.2249  -8.5678
    -8.4558  -7.9009  -7.6805  -6.9984  -5.5361  -3.5119  -3.4523  -3.3947
    -2.9593  -0.3739  -0.1919   1.2364   1.3073   2.2773   2.3455   2.4427
     3.6190   3.8405   4.3251

          k = 0.0967 0.1674 0.0000 ( 12534 PWs)   bands (ev):

   -77.7333 -49.0243 -48.9882 -48.8421 -23.4320 -23.3347 -20.9752 -19.7246
   -13.2012 -10.9386 -10.7677 -10.5220  -9.7688  -9.6530  -9.2525  -8.5534
    -8.4408  -7.9382  -7.6884  -7.0056  -5.5612  -3.5145  -3.4709  -3.3992
    -2.9358  -0.3215  -0.1436   1.1846   1.2556   2.2970   2.3759   2.4991
     3.6690   3.9138   4.3837

          k = 0.1000 0.1732 0.0000 ( 12534 PWs)   bands (ev):

   -77.7329 -49.0272 -48.9891 -48.8415 -23.4022 -23.3054 -20.9560 -19.7151
   -13.1877 -11.0130 -10.8425 -10.5279  -9.8139  -9.6889  -9.2805  -8.5390
    -8.4258  -7.9764  -7.6957  -7.0135  -5.5867  -3.5193  -3.4876  -3.4028
    -2.9120  -0.2700  -0.0959   1.1339   1.2051   2.3164   2.4071   2.5563
     3.7163   3.9870   4.4451

          k = 0.1033 0.1790 0.0000 ( 12542 PWs)   bands (ev):

   -77.7325 -49.0303 -48.9900 -48.8409 -23.3716 -23.2751 -20.9363 -19.7055
   -13.1748 -11.0919 -10.9169 -10.5291  -9.8602  -9.7261  -9.3086  -8.5245
    -8.4109  -8.0154  -7.7024  -7.0222  -5.6124  -3.5298  -3.4992  -3.4056
    -2.8880  -0.2196  -0.0489   1.0846   1.1558   2.3355   2.4389   2.6139
     3.7608   4.0597   4.5093

          k = 0.1067 0.1848 0.0000 ( 12542 PWs)   bands (ev):

   -77.7321 -49.0333 -48.9909 -48.8404 -23.3401 -23.2440 -20.9163 -19.6957
   -13.1625 -11.1735 -10.9908 -10.5275  -9.9076  -9.7644  -9.3370  -8.5100
    -8.3962  -8.0550  -7.7084  -7.0315  -5.6382  -3.5466  -3.5050  -3.4073
    -2.8638  -0.1703  -0.0028   1.0370   1.1081   2.3543   2.4712   2.6720
     3.8023   4.1314   4.5763

          k = 0.1100 0.1905 0.0000 ( 12540 PWs)   bands (ev):

   -77.7317 -49.0364 -48.9919 -48.8398 -23.3078 -23.2121 -20.8959 -19.6858
   -13.1511 -11.2568 -11.0637 -10.5240  -9.9559  -9.8040  -9.3657  -8.4956
    -8.3820  -8.0947  -7.7137  -7.0414  -5.6640  -3.5667  -3.5083  -3.4079
    -2.8396  -0.1226   0.0423   0.9913   1.0621   2.3725   2.5040   2.7305
     3.8408   4.2013   4.6457

          k = 0.1133 0.1963 0.0000 ( 12544 PWs)   bands (ev):

   -77.7313 -49.0396 -48.9929 -48.8392 -23.2746 -23.1793 -20.8753 -19.6758
   -13.1408 -11.3413 -11.1354 -10.5192 -10.0053  -9.8446  -9.3945  -8.4812
    -8.3690  -8.1341  -7.7183  -7.0520  -5.6898  -3.5881  -3.5112  -3.4073
    -2.8154  -0.0765   0.0863   0.9479   1.0180   2.3900   2.5371   2.7893
     3.8764   4.2689   4.7174

          k = 0.1167 0.2021 0.0000 ( 12544 PWs)   bands (ev):

   -77.7309 -49.0427 -48.9940 -48.8386 -23.2406 -23.1456 -20.8543 -19.6657
   -13.1317 -11.4264 -11.2054 -10.5137 -10.0554  -9.8863  -9.4236  -8.4671
    -8.3580  -8.1721  -7.7222  -7.0632  -5.7155  -3.6102  -3.5143  -3.4054
    -2.7912  -0.0325   0.1290   0.9072   0.9761   2.4069   2.5705   2.8483
     3.9093   4.3336   4.7907

          k = 0.1200 0.2078 0.0000 ( 12554 PWs)   bands (ev):

   -77.7305 -49.0459 -48.9951 -48.8380 -23.2058 -23.1112 -20.8330 -19.6555
   -13.1242 -11.5119 -11.2736 -10.5077 -10.1064  -9.9289  -9.4528  -8.4534
    -8.3512  -8.2063  -7.7253  -7.0750  -5.7410  -3.6327  -3.5181  -3.4023
    -2.7672   0.0091   0.1700   0.8695   0.9367   2.4230   2.6040   2.9075
     3.9399   4.3949   4.8652

          k = 0.1233 0.2136 0.0000 ( 12560 PWs)   bands (ev):

   -77.7301 -49.0491 -48.9962 -48.8374 -23.1702 -23.0760 -20.8116 -19.6453
   -13.1184 -11.5975 -11.3395 -10.5016 -10.1581  -9.9723  -9.4821  -8.4406
    -8.3526  -8.2321  -7.7276  -7.0873  -5.7663  -3.6555  -3.5225  -3.3979
    -2.7433   0.0479   0.2091   0.8354   0.9002   2.4383   2.6375   2.9670
     3.9685   4.4527   4.9402

          k = 0.1267 0.2194 0.0000 ( 12564 PWs)   bands (ev):

   -77.7297 -49.0523 -48.9973 -48.8367 -23.1338 -23.0401 -20.7899 -19.6350
   -13.1146 -11.6831 -11.4029 -10.4958 -10.2105 -10.0163  -9.5115  -8.4307
    -8.3655  -8.2445  -7.7291  -7.1001  -5.7912  -3.6785  -3.5276  -3.3923
    -2.7196   0.0831   0.2457   0.8055   0.8673   2.4526   2.6710   3.0266
     3.9954   4.5066   5.0150

          k = 0.1300 0.2252 0.0000 ( 12562 PWs)   bands (ev):

   -77.7293 -49.0555 -48.9985 -48.8361 -23.0966 -23.0033 -20.7680 -19.6248
   -13.1131 -11.7684 -11.4634 -10.4905 -10.2635 -10.0605  -9.5410  -8.4318
    -8.3806  -8.2445  -7.7298  -7.1135  -5.8157  -3.7016  -3.5334  -3.3857
    -2.6963   0.1143   0.2793   0.7804   0.8386   2.4660   2.7043   3.0864
     4.0212   4.5568   5.0889

          k = 0.1333 0.2309 0.0000 ( 12554 PWs)   bands (ev):

   -77.7288 -49.0587 -48.9996 -48.8355 -23.0587 -22.9659 -20.7460 -19.6145
   -13.1143 -11.8533 -11.5205 -10.4863 -10.3169 -10.1046  -9.5704  -8.4560
    -8.3804  -8.2378  -7.7297  -7.1272  -5.8397  -3.7247  -3.5399  -3.3781
    -2.6732   0.1405   0.3090   0.7608   0.8151   2.4785   2.7372   3.1464
     4.0461   4.6035   5.1609

          k = 0.1367 0.2367 0.0000 ( 12558 PWs)   bands (ev):

   -77.7284 -49.0619 -49.0009 -48.8348 -23.0201 -22.9277 -20.7240 -19.6043
   -13.1184 -11.9377 -11.5741 -10.4841 -10.3707 -10.1479  -9.5999  -8.4936
    -8.3707  -8.2281  -7.7287  -7.1415  -5.8632  -3.7478  -3.5471  -3.3697
    -2.6506   0.1611   0.3337   0.7473   0.7980   2.4900   2.7697   3.2066
     4.0706   4.6469   5.2304

          k = 0.1400 0.2425 0.0000 ( 12556 PWs)   bands (ev):

   -77.7280 -49.0650 -49.0021 -48.8342 -22.9808 -22.8888 -20.7018 -19.5942
   -13.1256 -12.0216 -11.6238 -10.4856 -10.4239 -10.1893  -9.6293  -8.5357
    -8.3587  -8.2172  -7.7268  -7.1561  -5.8861  -3.7708  -3.5548  -3.3605
    -2.6285   0.1756   0.3525   0.7404   0.7884   2.5006   2.8016   3.2670
     4.0951   4.6873   5.2965

          k = 0.1433 0.2483 0.0000 ( 12544 PWs)   bands (ev):

   -77.7275 -49.0682 -49.0034 -48.8336 -22.9408 -22.8493 -20.6796 -19.5841
   -13.1363 -12.1047 -11.6693 -10.4987 -10.4703 -10.2272  -9.6585  -8.5799
    -8.3460  -8.2060  -7.7240  -7.1712  -5.9084  -3.7936  -3.5631  -3.3507
    -2.6068   0.1839   0.3643   0.7404   0.7871   2.5104   2.8329   3.3275
     4.1200   4.7249   5.3581

          k = 0.1467 0.2540 0.0000 ( 12560 PWs)   bands (ev):

   -77.7271 -49.0713 -49.0047 -48.8329 -22.9002 -22.8091 -20.6574 -19.5741
   -13.1506 -12.1871 -11.7102 -10.5427 -10.4929 -10.2594  -9.6876  -8.6250
    -8.3333  -8.1950  -7.7204  -7.1865  -5.9299  -3.8163  -3.5719  -3.3403
    -2.5858   0.1863   0.3690   0.7473   0.7942   2.5194   2.8634   3.3881
     4.1456   4.7599   5.4144

          k = 0.1500 0.2598 0.0000 ( 12556 PWs)   bands (ev):

   -77.7267 -49.0745 -49.0061 -48.8323 -22.8589 -22.7683 -20.6353 -19.5643
   -13.1686 -12.2686 -11.7466 -10.5969 -10.5143 -10.2838  -9.7165  -8.6707
    -8.3207  -8.1844  -7.7159  -7.2022  -5.9507  -3.8387  -3.5812  -3.3294
    -2.5654   0.1834   0.3671   0.7607   0.8087   2.5277   2.8929   3.4487
     4.1723   4.7922   5.4641

          k = 0.1533 0.2656 0.0000 ( 12554 PWs)   bands (ev):

   -77.7262 -49.0775 -49.0074 -48.8316 -22.8171 -22.7270 -20.6132 -19.5546
   -13.1905 -12.3492 -11.7783 -10.6528 -10.5439 -10.2994  -9.7451  -8.7166
    -8.3083  -8.1746  -7.7106  -7.2182  -5.9707  -3.8608  -3.5909  -3.3181
    -2.5457   0.1764   0.3597   0.7799   0.8294   2.5354   2.9215   3.5094
     4.2002   4.8219   5.5063

          k = 0.1567 0.2714 0.0000 ( 12566 PWs)   bands (ev):

   -77.7258 -49.0806 -49.0088 -48.8310 -22.7746 -22.6850 -20.5912 -19.5451
   -13.2161 -12.4287 -11.8052 -10.7093 -10.5818 -10.3072  -9.7735  -8.7626
    -8.2965  -8.1655  -7.7044  -7.2343  -5.9898  -3.8827  -3.6010  -3.3063
    -2.5267   0.1662   0.3481   0.8037   0.8548   2.5428   2.9489   3.5700
     4.2299   4.8489   5.5395

          k = 0.1600 0.2771 0.0000 ( 12566 PWs)   bands (ev):

   -77.7254 -49.0836 -49.0102 -48.8304 -22.7316 -22.6425 -20.5694 -19.5357
   -13.2454 -12.5072 -11.8275 -10.7663 -10.6260 -10.3093  -9.8015  -8.8085
    -8.2851  -8.1573  -7.6975  -7.2506  -6.0080  -3.9041  -3.6115  -3.2943
    -2.5085   0.1538   0.3337   0.8312   0.8839   2.5497   2.9753   3.6303
     4.2613   4.8729   5.5623

          k = 0.1633 0.2829 0.0000 ( 12570 PWs)   bands (ev):

   -77.7250 -49.0866 -49.0117 -48.8297 -22.6881 -22.5995 -20.5477 -19.5266
   -13.2781 -12.5845 -11.8454 -10.8236 -10.6748 -10.3075  -9.8290  -8.8541
    -8.2743  -8.1500  -7.6899  -7.2669  -6.0253  -3.9252  -3.6223  -3.2819
    -2.4911   0.1400   0.3176   0.8613   0.9155   2.5566   3.0004   3.6902
     4.2948   4.8938   5.5734

          k = 0.1667 0.2887 0.0000 ( 12556 PWs)   bands (ev):

   -77.7245 -49.0895 -49.0132 -48.8291 -22.6441 -22.5560 -20.5263 -19.5177
   -13.3140 -12.6605 -11.8592 -10.8811 -10.7268 -10.3031  -9.8562  -8.8994
    -8.2643  -8.1437  -7.6816  -7.2832  -6.0415  -3.9460  -3.6333  -3.2693
    -2.4746   0.1255   0.3006   0.8935   0.9490   2.5634   3.0244   3.7493
     4.3304   4.9115   5.5716

          k = 0.1700 0.2944 0.0000 ( 12564 PWs)   bands (ev):

   -77.7241 -49.0923 -49.0147 -48.8285 -22.5997 -22.5120 -20.5051 -19.5090
   -13.3527 -12.7353 -11.8691 -10.9388 -10.7810 -10.2972  -9.8829  -8.9442
    -8.2552  -8.1383  -7.6729  -7.2993  -6.0567  -3.9664  -3.6445  -3.2565
    -2.4590   0.1108   0.2831   0.9270   0.9838   2.5703   3.0472   3.8074
     4.3684   4.9259   5.5566

          k = 0.1733 0.3002 0.0000 ( 12576 PWs)   bands (ev):

   -77.7237 -49.0951 -49.0162 -48.8278 -22.5548 -22.4677 -20.4842 -19.5007
   -13.3938 -12.8086 -11.8755 -10.9966 -10.8370 -10.2902  -9.9090  -8.9884
    -8.2472  -8.1337  -7.6638  -7.3151  -6.0708  -3.9864  -3.6558  -3.2436
    -2.4443   0.0963   0.2658   0.9614   1.0195   2.5775   3.0689   3.8641
     4.4087   4.9374   5.5299

          k = 0.1767 0.3060 0.0000 ( 12572 PWs)   bands (ev):

   -77.7233 -49.0978 -49.0178 -48.8272 -22.5096 -22.4229 -20.4637 -19.4926
   -13.4369 -12.8806 -11.8788 -11.0545 -10.8942 -10.2826  -9.9346  -9.0320
    -8.2406  -8.1298  -7.6546  -7.3304  -6.0838  -4.0060  -3.6671  -3.2305
    -2.4306   0.0822   0.2487   0.9965   1.0559   2.5851   3.0894   3.9187
     4.4514   4.9464   5.4940

          k = 0.1800 0.3118 0.0000 ( 12576 PWs)   bands (ev):

   -77.7228 -49.1005 -49.0194 -48.8266 -22.4640 -22.3778 -20.4436 -19.4849
   -13.4817 -12.9510 -11.8793 -11.1123 -10.9525 -10.2747  -9.9596  -9.0747
    -8.2356  -8.1265  -7.6454  -7.3449  -6.0956  -4.0253  -3.6785  -3.2173
    -2.4179   0.0687   0.2322   1.0319   1.0927   2.5932   3.1090   3.9704
     4.4965   4.9539   5.4513

          k = 0.1833 0.3175 0.0000 ( 12568 PWs)   bands (ev):

   -77.7224 -49.1031 -49.0210 -48.8260 -22.4180 -22.3324 -20.4238 -19.4775
   -13.5278 -13.0199 -11.8775 -11.1700 -11.0117 -10.2666  -9.9840  -9.1164
    -8.2326  -8.1234  -7.6366  -7.3585  -6.1062  -4.0444  -3.6897  -3.2040
    -2.4062   0.0562   0.2164   1.0673   1.1297   2.6021   3.1277   4.0186
     4.5440   4.9609   5.4038

          k = 0.1867 0.3233 0.0000 ( 12570 PWs)   bands (ev):

   -77.7220 -49.1056 -49.0226 -48.8254 -22.3719 -22.2868 -20.4045 -19.4705
   -13.5748 -13.0872 -11.8738 -11.2274 -11.0715 -10.2586 -10.0077  -9.1570
    -8.2319  -8.1203  -7.6285  -7.3706  -6.1156  -4.0632  -3.7007  -3.1907
    -2.3955   0.0446   0.2015   1.1027   1.1670   2.6117   3.1455   4.0622
     4.5937   4.9690   5.3532

          k = 0.1900 0.3291 0.0000 ( 12574 PWs)   bands (ev):

   -77.7216 -49.1081 -49.0243 -48.8248 -22.3254 -22.2409 -20.3857 -19.4639
   -13.6224 -13.1527 -11.8687 -11.2844 -11.1318 -10.2509 -10.0307  -9.1965
    -8.2337  -8.1172  -7.6215  -7.3809  -6.1237  -4.0819  -3.7113  -3.1773
    -2.3858   0.0340   0.1874   1.1377   1.2044   2.6223   3.1627   4.1001
     4.6455   4.9797   5.3007

          k = 0.1933 0.3349 0.0000 ( 12572 PWs)   bands (ev):

   -77.7212 -49.1104 -49.0259 -48.8242 -22.2788 -22.1948 -20.3674 -19.4576
   -13.6703 -13.2166 -11.8625 -11.3406 -11.1926 -10.2436 -10.0530  -9.2345
    -8.2383  -8.1139  -7.6162  -7.3888  -6.1306  -4.1005  -3.7216  -3.1640
    -2.3772   0.0245   0.1742   1.1722   1.2420   2.6339   3.1792   4.1314
     4.6990   4.9945   5.2476

          k = 0.1967 0.3406 0.0000 ( 12568 PWs)   bands (ev):

   -77.7209 -49.1127 -49.0276 -48.8236 -22.2320 -22.1486 -20.3497 -19.4518
   -13.7182 -13.2786 -11.8558 -11.3958 -11.2538 -10.2370 -10.0745  -9.2709
    -8.2457  -8.1103  -7.6128  -7.3940  -6.1362  -4.1190  -3.7313  -3.1507
    -2.3695   0.0161   0.1621   1.2060   1.2797   2.6466   3.1953   4.1554
     4.7534   5.0145   5.1955

          k = 0.2000 0.3464 0.0000 ( 12568 PWs)   bands (ev):

   -77.7205 -49.1149 -49.0294 -48.8231 -22.1852 -22.1022 -20.3326 -19.4464
   -13.7658 -13.3388 -11.8495 -11.4493 -11.3152 -10.2312 -10.0952  -9.3056
    -8.2559  -8.1068  -7.6119  -7.3960  -6.1405  -4.1377  -3.7403  -3.1374
    -2.3629   0.0089   0.1509   1.2390   1.3175   2.6605   3.2109   4.1718
     4.8068   5.0404   5.1468

          k = 0.2033 0.3522 0.0000 ( 12572 PWs)   bands (ev):

   -77.7201 -49.1170 -49.0311 -48.8225 -22.1382 -22.0559 -20.3161 -19.4415
   -13.8130 -13.3971 -11.8448 -11.5000 -11.3768 -10.2266 -10.1148  -9.3384
    -8.2687  -8.1033  -7.6133  -7.3948  -6.1436  -4.1565  -3.7486  -3.1242
    -2.3574   0.0028   0.1408   1.2711   1.3554   2.6757   3.2263   4.1808
     4.8543   5.0718   5.1074

          k = 0.2067 0.3580 0.0000 ( 12578 PWs)   bands (ev):

   -77.7197 -49.1190 -49.0329 -48.8220 -22.0913 -22.0095 -20.3002 -19.4371
   -13.8595 -13.4534 -11.8433 -11.5464 -11.4384 -10.2236 -10.1332  -9.3690
    -8.2841  -8.1003  -7.6170  -7.3904  -6.1454  -4.1755  -3.7561  -3.1111
    -2.3528  -0.0022   0.1318   1.3022   1.3934   2.6921   3.2415   4.1831
     4.8834   5.0858   5.1121

          k = 0.2100 0.3637 0.0000 ( 12570 PWs)   bands (ev):

   -77.7194 -49.1209 -49.0347 -48.8214 -22.0444 -21.9632 -20.2851 -19.4331
   -13.9051 -13.5076 -11.8478 -11.5860 -11.5000 -10.2227 -10.1500  -9.3972
    -8.3019  -8.0978  -7.6225  -7.3833  -6.1460  -4.1948  -3.7626  -3.0981
    -2.3492  -0.0061   0.1239   1.3322   1.4315   2.7099   3.2565   4.1797
     4.8791   5.1034   5.1539

          k = 0.2133 0.3695 0.0000 ( 12582 PWs)   bands (ev):

   -77.7190 -49.1227 -49.0365 -48.8209 -21.9977 -21.9170 -20.2706 -19.4295
   -13.9496 -13.5598 -11.8615 -11.6159 -11.5610 -10.2247 -10.1645  -9.4229
    -8.3220  -8.0961  -7.6292  -7.3738  -6.1453  -4.2145  -3.7682  -3.0851
    -2.3465  -0.0089   0.1170   1.3610   1.4695   2.7290   3.2715   4.1716
     4.8483   5.1475   5.2011

          k = 0.2167 0.3753 0.0000 ( 12574 PWs)   bands (ev):

   -77.7187 -49.1244 -49.0383 -48.8204 -21.9511 -21.8709 -20.2569 -19.4265
   -13.9930 -13.6099 -11.8867 -11.6398 -11.6157 -10.2304 -10.1764  -9.4458
    -8.3443  -8.0954  -7.6365  -7.3625  -6.1435  -4.2346  -3.7726  -3.0723
    -2.3448  -0.0107   0.1113   1.3886   1.5075   2.7494   3.2865   4.1601
     4.8063   5.1987   5.2550

          k = 0.2200 0.3811 0.0000 ( 12578 PWs)   bands (ev):

   -77.7183 -49.1260 -49.0402 -48.8199 -21.9047 -21.8251 -20.2440 -19.4240
   -14.0350 -13.6578 -11.9225 -11.6900 -11.6324 -10.2398 -10.1854  -9.4657
    -8.3687  -8.0960  -7.6440  -7.3498  -6.1406  -4.2551  -3.7759  -3.0596
    -2.3440  -0.0115   0.1066   1.4151   1.5452   2.7711   3.3015   4.1462
     4.7609   5.2428   5.3187

          k = 0.2233 0.3868 0.0000 ( 12582 PWs)   bands (ev):

   -77.7180 -49.1275 -49.0421 -48.8194 -21.8585 -21.7796 -20.2318 -19.4219
   -14.0755 -13.7034 -11.9661 -11.7505 -11.6301 -10.2521 -10.1928  -9.4826
    -8.3950  -8.0981  -7.6513  -7.3360  -6.1365  -4.2762  -3.7781  -3.0470
    -2.3441  -0.0114   0.1031   1.4403   1.5827   2.7941   3.3165   4.1307
     4.7150   5.2734   5.3913

          k = 0.2267 0.3926 0.0000 ( 12580 PWs)   bands (ev):

   -77.7177 -49.1288 -49.0439 -48.8189 -21.8128 -21.7344 -20.2205 -19.4203
   -14.1144 -13.7468 -12.0148 -11.8118 -11.6210 -10.2661 -10.1997  -9.4964
    -8.4231  -8.1017  -7.6578  -7.3214  -6.1314  -4.2977  -3.7792  -3.0346
    -2.3451  -0.0103   0.1007   1.4644   1.6198   2.8183   3.3316   4.1144
     4.6700   5.2897   5.4696

          k = 0.2300 0.3984 0.0000 ( 12582 PWs)   bands (ev):

   -77.7174 -49.1301 -49.0458 -48.8185 -21.7674 -21.6896 -20.2099 -19.4193
   -14.1516 -13.7879 -12.0665 -11.8731 -11.6077 -10.2809 -10.2070  -9.5069
    -8.4529  -8.1072  -7.6633  -7.3062  -6.1254  -4.3197  -3.7790  -3.0223
    -2.3468  -0.0085   0.0995   1.4872   1.6564   2.8437   3.3468   4.0981
     4.6266   5.2926   5.5516

          k = 0.2333 0.4041 0.0000 ( 12584 PWs)   bands (ev):

   -77.7171 -49.1313 -49.0478 -48.8180 -21.7225 -21.6453 -20.2002 -19.4186
   -14.1870 -13.8265 -12.1200 -11.9343 -11.5916 -10.2961 -10.2151  -9.5144
    -8.4842  -8.1145  -7.6677  -7.2907  -6.1184  -4.3422  -3.7778  -3.0101
    -2.3494  -0.0058   0.0993   1.5089   1.6923   2.8702   3.3620   4.0821
     4.5856   5.2851   5.6359

          k = 0.2367 0.4099 0.0000 ( 12586 PWs)   bands (ev):

   -77.7168 -49.1323 -49.0497 -48.8176 -21.6781 -21.6015 -20.1913 -19.4185
   -14.2205 -13.8628 -12.1746 -11.9953 -11.5736 -10.3115 -10.2240  -9.5188
    -8.5170  -8.1238  -7.6707  -7.2749  -6.1105  -4.3651  -3.7754  -2.9980
    -2.3527  -0.0023   0.1003   1.5294   1.7273   2.8977   3.3773   4.0669
     4.5471   5.2701   5.7212

          k = 0.2400 0.4157 0.0000 ( 12590 PWs)   bands (ev):

   -77.7165 -49.1333 -49.0516 -48.8172 -21.6343 -21.5584 -20.1833 -19.4188
   -14.2521 -13.8966 -12.2298 -12.0560 -11.5539 -10.3270 -10.2337  -9.5203
    -8.5511  -8.1351  -7.6724  -7.2590  -6.1019  -4.3884  -3.7720  -2.9861
    -2.3567   0.0019   0.1025   1.5488   1.7614   2.9262   3.3927   4.0529
     4.5115   5.2501   5.8013

          k = 0.2433 0.4215 0.0000 ( 12584 PWs)   bands (ev):

   -77.7162 -49.1341 -49.0536 -48.8168 -21.5913 -21.5159 -20.1760 -19.4195
   -14.2816 -13.9279 -12.2853 -12.1164 -11.5331 -10.3426 -10.2440  -9.5193
    -8.5863  -8.1483  -7.6727  -7.2431  -6.0925  -4.4120  -3.7676  -2.9742
    -2.3615   0.0067   0.1058   1.5671   1.7942   2.9556   3.4080   4.0405
     4.4790   5.2266   5.8588

          k = 0.2467 0.4272 0.0000 ( 12590 PWs)   bands (ev):

   -77.7160 -49.1348 -49.0556 -48.8164 -21.5489 -21.4741 -20.1696 -19.4207
   -14.3090 -13.9567 -12.3409 -12.1764 -11.5113 -10.3584 -10.2547  -9.5159
    -8.6224  -8.1633  -7.6718  -7.2273  -6.0825  -4.4360  -3.7623  -2.9625
    -2.3669   0.0122   0.1101   1.5842   1.8256   2.9859   3.4234   4.0299
     4.4499   5.2009   5.8938

          k = 0.2500 0.4330 0.0000 ( 12602 PWs)   bands (ev):

   -77.7157 -49.1354 -49.0575 -48.8160 -21.5075 -21.4332 -20.1641 -19.4222
   -14.3342 -13.9829 -12.3964 -12.2361 -11.4885 -10.3742 -10.2654  -9.5105
    -8.6593  -8.1800  -7.6696  -7.2117  -6.0719  -4.4601  -3.7560  -2.9510
    -2.3730   0.0183   0.1156   1.6002   1.8553   3.0168   3.4388   4.0213
     4.4243   5.1735   5.9120

          k = 0.2533 0.4388 0.0000 ( 12606 PWs)   bands (ev):

   -77.7155 -49.1359 -49.0595 -48.8157 -21.4669 -21.3932 -20.1593 -19.4240
   -14.3572 -14.0065 -12.4516 -12.2953 -11.4651 -10.3902 -10.2759  -9.5034
    -8.6968  -8.1984  -7.6663  -7.1962  -6.0608  -4.4843  -3.7490  -2.9395
    -2.3797   0.0250   0.1221   1.6152   1.8833   3.0485   3.4543   4.0149
     4.4023   5.1450   5.9157

          k = 0.2567 0.4446 0.0000 ( 12602 PWs)   bands (ev):

   -77.7152 -49.1363 -49.0615 -48.8153 -21.4273 -21.3542 -20.1553 -19.4262
   -14.3780 -14.0276 -12.5065 -12.3541 -11.4410 -10.4063 -10.2859  -9.4950
    -8.7346  -8.2181  -7.6622  -7.1811  -6.0493  -4.5086  -3.7413  -2.9281
    -2.3870   0.0323   0.1296   1.6290   1.9091   3.0807   3.4699   4.0108
     4.3839   5.1158   5.9078

          k = 0.2600 0.4503 0.0000 ( 12606 PWs)   bands (ev):

   -77.7150 -49.1365 -49.0635 -48.8150 -21.3888 -21.3162 -20.1521 -19.4287
   -14.3965 -14.0460 -12.5610 -12.4123 -11.4164 -10.4224 -10.2952  -9.4856
    -8.7724  -8.2391  -7.6573  -7.1663  -6.0374  -4.5329  -3.7329  -2.9167
    -2.3949   0.0402   0.1381   1.6418   1.9327   3.1135   3.4858   4.0093
     4.3692   5.0863   5.8913

          k = 0.2633 0.4561 0.0000 ( 12606 PWs)   bands (ev):

   -77.7148 -49.1367 -49.0655 -48.8147 -21.3515 -21.2793 -20.1496 -19.4314
   -14.4127 -14.0617 -12.6150 -12.4700 -11.3914 -10.4387 -10.3035  -9.4758
    -8.8098  -8.2613  -7.6518  -7.1519  -6.0252  -4.5571  -3.7240  -2.9055
    -2.4033   0.0487   0.1475   1.6536   1.9538   3.1468   3.5020   4.0104
     4.3580   5.0566   5.8682

          k = 0.2667 0.4619 0.0000 ( 12618 PWs)   bands (ev):

   -77.7146 -49.1367 -49.0675 -48.8144 -21.3154 -21.2436 -20.1478 -19.4343
   -14.4265 -14.0748 -12.6684 -12.5271 -11.3660 -10.4549 -10.3107  -9.4660
    -8.8465  -8.2845  -7.6458  -7.1380  -6.0129  -4.5811  -3.7145  -2.8943
    -2.4122   0.0578   0.1577   1.6643   1.9722   3.1805   3.5189   4.0140
     4.3503   5.0269   5.8401

          k = 0.2700 0.4677 0.0000 ( 12618 PWs)   bands (ev):

   -77.7144 -49.1366 -49.0695 -48.8141 -21.2806 -21.2091 -20.1466 -19.4374
   -14.4381 -14.0853 -12.7211 -12.5836 -11.3405 -10.4709 -10.3167  -9.4570
    -8.8818  -8.3085  -7.6395  -7.1245  -6.0004  -4.6047  -3.7047  -2.8832
    -2.4215   0.0674   0.1688   1.6740   1.9878   3.2146   3.5365   4.0202
     4.3459   4.9974   5.8078

          k = 0.2733 0.4734 0.0000 ( 12612 PWs)   bands (ev):

   -77.7143 -49.1365 -49.0715 -48.8138 -21.2472 -21.1760 -20.1460 -19.4406
   -14.4474 -14.0931 -12.7730 -12.6393 -11.3148 -10.4868 -10.3212  -9.4493
    -8.9152  -8.3333  -7.6330  -7.1115  -5.9878  -4.6280  -3.6946  -2.8721
    -2.4313   0.0776   0.1805   1.6827   2.0004   3.2490   3.5551   4.0289
     4.3446   4.9682   5.7719

          k = 0.2767 0.4792 0.0000 ( 12612 PWs)   bands (ev):

   -77.7141 -49.1362 -49.0735 -48.8136 -21.2153 -21.1443 -20.1460 -19.4439
   -14.4544 -14.0983 -12.8240 -12.6944 -11.2892 -10.5024 -10.3241  -9.4440
    -8.9456  -8.3587  -7.6265  -7.0991  -5.9753  -4.6509  -3.6843  -2.8611
    -2.4415   0.0883   0.1928   1.6903   2.0100   3.2837   3.5750   4.0399
     4.3463   4.9394   5.7328

          k = 0.2800 0.4850 0.0000 ( 12614 PWs)   bands (ev):

   -77.7139 -49.1358 -49.0754 -48.8134 -21.1850 -21.1141 -20.1464 -19.4472
   -14.4591 -14.1008 -12.8742 -12.7486 -11.2639 -10.5175 -10.3253  -9.4421
    -8.9722  -8.3846  -7.6199  -7.0873  -5.9629  -4.6731  -3.6738  -2.8500
    -2.4521   0.0996   0.2057   1.6970   2.0166   3.3185   3.5963   4.0530
     4.3506   4.9110   5.6907

          k = 0.2833 0.4907 0.0000 ( 12618 PWs)   bands (ev):

   -77.7138 -49.1354 -49.0774 -48.8131 -21.1564 -21.0855 -20.1473 -19.4505
   -14.4617 -14.1008 -12.9232 -12.8019 -11.2389 -10.5321 -10.3246  -9.4446
    -8.9939  -8.4109  -7.6135  -7.0762  -5.9507  -4.6946  -3.6634  -2.8391
    -2.4631   0.1114   0.2191   1.7026   2.0203   3.3534   3.6193   4.0680
     4.3574   4.8832   5.6460

          k = 0.2867 0.4965 0.0000 ( 12622 PWs)   bands (ev):

   -77.7136 -49.1348 -49.0794 -48.8129 -21.1294 -21.0584 -20.1485 -19.4537
   -14.4623 -14.0983 -12.9711 -12.8543 -11.2145 -10.5461 -10.3218  -9.4525
    -9.0097  -8.4376  -7.6073  -7.0656  -5.9388  -4.7154  -3.6530  -2.8281
    -2.4743   0.1236   0.2327   1.7073   2.0211   3.3883   3.6439   4.0847
     4.3665   4.8559   5.5987

          k = 0.2900 0.5023 0.0000 ( 12634 PWs)   bands (ev):

   -77.7135 -49.1341 -49.0813 -48.8128 -21.1043 -21.0330 -20.1501 -19.4568
   -14.4608 -14.0934 -13.0176 -12.9056 -11.1910 -10.5593 -10.3169  -9.4663
    -9.0192  -8.4645  -7.6013  -7.0558  -5.9272  -4.7353  -3.6427  -2.8172
    -2.4857   0.1364   0.2466   1.7110   2.0193   3.4230   3.6703   4.1027
     4.3777   4.8292   5.5490

          k = 0.2933 0.5081 0.0000 ( 12638 PWs)   bands (ev):

   -77.7134 -49.1334 -49.0832 -48.8126 -21.0809 -21.0094 -20.1518 -19.4598
   -14.4575 -14.0860 -13.0627 -12.9558 -11.1685 -10.5718 -10.3096  -9.4861
    -9.0222  -8.4916  -7.5957  -7.0466  -5.9160  -4.7542  -3.6327  -2.8063
    -2.4974   0.1495   0.2605   1.7137   2.0152   3.4576   3.6983   4.1218
     4.3907   4.8031   5.4970

          k = 0.2967 0.5138 0.0000 ( 12636 PWs)   bands (ev):

   -77.7133 -49.1326 -49.0851 -48.8124 -21.0595 -20.9876 -20.1537 -19.4626
   -14.4525 -14.0765 -13.1062 -13.0046 -11.1472 -10.5835 -10.2998  -9.5114
    -9.0194  -8.5189  -7.5905  -7.0381  -5.9054  -4.7720  -3.6231  -2.7954
    -2.5092   0.1629   0.2744   1.7155   2.0090   3.4918   3.7278   4.1416
     4.4054   4.7776   5.4428

          k = 0.3000 0.5196 0.0000 ( 12646 PWs)   bands (ev):

   -77.7132 -49.1318 -49.0869 -48.8123 -21.0400 -20.9676 -20.1557 -19.4651
   -14.4460 -14.0649 -13.1478 -13.0518 -11.1274 -10.5942 -10.2873  -9.5412
    -9.0115  -8.5461  -7.5857  -7.0304  -5.8954  -4.7886  -3.6139  -2.7847
    -2.5210   0.1766   0.2880   1.7165   2.0011   3.5256   3.7585   4.1618
     4.4214   4.7530   5.3867

          k = 0.3033 0.5254 0.0000 ( 12646 PWs)   bands (ev):

   -77.7131 -49.1308 -49.0887 -48.8122 -21.0224 -20.9495 -20.1576 -19.4675
   -14.4382 -14.0514 -13.1875 -13.0973 -11.1093 -10.6040 -10.2721  -9.5747
    -8.9994  -8.5733  -7.5814  -7.0234  -5.8860  -4.8039  -3.6052  -2.7740
    -2.5328   0.1904   0.3012   1.7166   1.9919   3.5587   3.7900   4.1823
     4.4384   4.7296   5.3288

          k = 0.3067 0.5312 0.0000 ( 12634 PWs)   bands (ev):

   -77.7130 -49.1299 -49.0904 -48.8121 -21.0068 -20.9333 -20.1595 -19.4696
   -14.4295 -14.0364 -13.2249 -13.1407 -11.0930 -10.6128 -10.2541  -9.6108
    -8.9841  -8.6005  -7.5775  -7.0172  -5.8774  -4.8179  -3.5971  -2.7635
    -2.5446   0.2041   0.3138   1.7160   1.9817   3.5910   3.8218   4.2029
     4.4555   4.7081   5.2694

          k = 0.3100 0.5369 0.0000 ( 12638 PWs)   bands (ev):

   -77.7130 -49.1289 -49.0920 -48.8120 -20.9932 -20.9191 -20.1613 -19.4714
   -14.4201 -14.0201 -13.2597 -13.1816 -11.0787 -10.6205 -10.2334  -9.6488
    -8.9662  -8.6274  -7.5741  -7.0117  -5.8697  -4.8303  -3.5898  -2.7532
    -2.5560   0.2177   0.3255   1.7147   1.9711   3.6223   3.8530   4.2234
     4.4713   4.6900   5.2088

          k = 0.3133 0.5427 0.0000 ( 12636 PWs)   bands (ev):

   -77.7129 -49.1280 -49.0936 -48.8119 -20.9815 -20.9068 -20.1629 -19.4730
   -14.4105 -14.0031 -13.2918 -13.2194 -11.0664 -10.6271 -10.2101  -9.6879
    -8.9464  -8.6542  -7.5712  -7.0070  -5.8629  -4.8413  -3.5832  -2.7432
    -2.5671   0.2309   0.3361   1.7129   1.9604   3.6524   3.8828   4.2440
     4.4835   4.6776   5.1473

          k = 0.3167 0.5485 0.0000 ( 12636 PWs)   bands (ev):

   -77.7129 -49.1270 -49.0950 -48.8118 -20.9718 -20.8966 -20.1643 -19.4742
   -14.4010 -13.9859 -13.3207 -13.2535 -11.0563 -10.6326 -10.1846  -9.7272
    -8.9252  -8.6807  -7.5689  -7.0030  -5.8570  -4.8506  -3.5775  -2.7337
    -2.5777   0.2435   0.3454   1.7107   1.9502   3.6809   3.9098   4.2649
     4.4889   4.6741   5.0858

          k = 0.3200 0.5543 0.0000 ( 12634 PWs)   bands (ev):

   -77.7128 -49.1262 -49.0962 -48.8117 -20.9640 -20.8883 -20.1655 -19.4752
   -14.3921 -13.9694 -13.3461 -13.2832 -11.0482 -10.6371 -10.1573  -9.7660
    -8.9030  -8.7068  -7.5670  -6.9998  -5.8522  -4.8582  -3.5727  -2.7250
    -2.5873   0.2550   0.3533   1.7082   1.9409   3.7073   3.9328   4.2868
     4.4854   4.6816   5.0249

          k = 0.3233 0.5600 0.0000 ( 12624 PWs)   bands (ev):

   -77.7128 -49.1254 -49.0973 -48.8117 -20.9580 -20.8819 -20.1664 -19.4760
   -14.3844 -13.9545 -13.3674 -13.3074 -11.0421 -10.6405 -10.1295  -9.8028
    -8.8799  -8.7325  -7.5655  -6.9973  -5.8484  -4.8642  -3.5689  -2.7173
    -2.5957   0.2650   0.3594   1.7058   1.9329   3.7311   3.9501   4.3103
     4.4734   4.6992   4.9663

          k = 0.3267 0.5658 0.0000 ( 12628 PWs)   bands (ev):

   -77.7128 -49.1248 -49.0981 -48.8117 -20.9538 -20.8774 -20.1670 -19.4765
   -14.3783 -13.9424 -13.3837 -13.3255 -11.0379 -10.6429 -10.1033  -9.8355
    -8.8564  -8.7578  -7.5646  -6.9956  -5.8457  -4.8684  -3.5662  -2.7112
    -2.6024   0.2731   0.3638   1.7036   1.9267   3.7509   3.9611   4.3363
     4.4547   4.7235   4.9123

          k = 0.3300 0.5716 0.0000 ( 12620 PWs)   bands (ev):

   -77.7128 -49.1244 -49.0986 -48.8117 -20.9514 -20.8748 -20.1673 -19.4768
   -14.3744 -13.9343 -13.3943 -13.3366 -11.0355 -10.6442 -10.0829  -9.8599
    -8.8328  -8.7824  -7.5640  -6.9945  -5.8441  -4.8709  -3.5645  -2.7072
    -2.6067   0.2786   0.3663   1.7021   1.9227   3.7650   3.9659   4.3654
     4.4302   4.7491   4.8682

          k = 0.3333 0.5774 0.0000 ( 12612 PWs)   bands (ev):

   -77.7128 -49.1243 -49.0988 -48.8117 -20.9506 -20.8739 -20.1675 -19.4769
   -14.3730 -13.9315 -13.3979 -13.3404 -11.0347 -10.6447 -10.0746  -9.8694
    -8.8121  -8.8034  -7.5639  -6.9942  -5.8435  -4.8718  -3.5640  -2.7059
    -2.6082   0.2807   0.3671   1.7015   1.9213   3.7704   3.9669   4.3970
     4.4003   4.7627   4.8482

          k = 0.3361 0.5725 0.0000 ( 12622 PWs)   bands (ev):

   -77.7128 -49.1244 -49.0987 -48.8117 -20.9511 -20.8745 -20.1674 -19.4768
   -14.3740 -13.9336 -13.3953 -13.3377 -11.0352 -10.6444 -10.0807  -9.8625
    -8.8283  -8.7870  -7.5640  -6.9944  -5.8439  -4.8712  -3.5644  -2.7068
    -2.6072   0.2791   0.3665   1.7020   1.9223   3.7659   3.9672   4.3668
     4.4288   4.7546   4.8610

          k = 0.3389 0.5677 0.0000 ( 12618 PWs)   bands (ev):

   -77.7128 -49.1247 -49.0983 -48.8117 -20.9527 -20.8762 -20.1672 -19.4767
   -14.3772 -13.9399 -13.3873 -13.3296 -11.0367 -10.6436 -10.0972  -9.8433
    -8.8473  -8.7674  -7.5643  -6.9951  -5.8450  -4.8695  -3.5655  -2.7094
    -2.6043   0.2743   0.3648   1.7037   1.9255   3.7512   3.9698   4.3292
     4.4603   4.7414   4.8890

          k = 0.3417 0.5629 0.0000 ( 12630 PWs)   bands (ev):

   -77.7128 -49.1251 -49.0977 -48.8117 -20.9553 -20.8789 -20.1669 -19.4764
   -14.3825 -13.9503 -13.3743 -13.3160 -11.0389 -10.6423 -10.1207  -9.8155
    -8.8660  -8.7479  -7.5649  -6.9962  -5.8467  -4.8667  -3.5675  -2.7135
    -2.5999   0.2659   0.3616   1.7068   1.9311   3.7262   3.9756   4.2854
     4.4933   4.7320   4.9228

          k = 0.3444 0.5581 0.0000 ( 12620 PWs)   bands (ev):

   -77.7128 -49.1258 -49.0969 -48.8117 -20.9588 -20.8827 -20.1665 -19.4761
   -14.3901 -13.9643 -13.3566 -13.2971 -11.0420 -10.6406 -10.1480  -9.7821
    -8.8841  -8.7285  -7.5656  -6.9977  -5.8491  -4.8629  -3.5703  -2.7185
    -2.5943   0.2539   0.3569   1.7115   1.9390   3.6920   3.9843   4.2360
     4.5270   4.7287   4.9597

          k = 0.3472 0.5533 0.0000 ( 12624 PWs)   bands (ev):

   -77.7128 -49.1266 -49.0958 -48.8117 -20.9632 -20.8873 -20.1661 -19.4758
   -14.3997 -13.9815 -13.3348 -13.2730 -11.0457 -10.6386 -10.1774  -9.7451
    -8.9016  -8.7094  -7.5666  -6.9996  -5.8521  -4.8581  -3.5738  -2.7241
    -2.5878   0.2383   0.3503   1.7181   1.9494   3.6503   3.9946   4.1823
     4.5609   4.7315   4.9984

          k = 0.3500 0.5485 0.0000 ( 12638 PWs)   bands (ev):

   -77.7129 -49.1275 -49.0947 -48.8118 -20.9684 -20.8929 -20.1656 -19.4754
   -14.4113 -14.0013 -13.3091 -13.2442 -11.0500 -10.6364 -10.2076  -9.7056
    -8.9185  -8.6906  -7.5676  -7.0019  -5.8557  -4.8524  -3.5781  -2.7301
    -2.5809   0.2189   0.3415   1.7269   1.9623   3.6027   4.0044   4.1268
     4.5942   4.7402   5.0385

          k = 0.3528 0.5437 0.0000 ( 12642 PWs)   bands (ev):

   -77.7129 -49.1285 -49.0933 -48.8118 -20.9744 -20.8992 -20.1651 -19.4751
   -14.4247 -14.0230 -13.2799 -13.2110 -11.0549 -10.6341 -10.2381  -9.6644
    -8.9346  -8.6722  -7.5689  -7.0046  -5.8598  -4.8459  -3.5832  -2.7364
    -2.5736   0.1961   0.3301   1.7379   1.9777   3.5505   4.0059   4.0774
     4.6260   4.7545   5.0797

          k = 0.3556 0.5389 0.0000 ( 12646 PWs)   bands (ev):

   -77.7129 -49.1295 -49.0919 -48.8119 -20.9811 -20.9062 -20.1647 -19.4747
   -14.4398 -14.0463 -13.2476 -13.1739 -11.0602 -10.6318 -10.2682  -9.6218
    -8.9498  -8.6542  -7.5702  -7.0075  -5.8644  -4.8385  -3.5889  -2.7426
    -2.5661   0.1698   0.3158   1.7514   1.9956   3.4947   3.9739   4.0599
     4.6552   4.7745   5.1217

          k = 0.3583 0.5340 0.0000 ( 12646 PWs)   bands (ev):

   -77.7130 -49.1307 -49.0904 -48.8119 -20.9885 -20.9139 -20.1643 -19.4744
   -14.4563 -14.0708 -13.2122 -13.1335 -11.0660 -10.6298 -10.2977  -9.5783
    -8.9642  -8.6366  -7.5716  -7.0108  -5.8694  -4.8303  -3.5954  -2.7489
    -2.5585   0.1402   0.2985   1.7676   2.0159   3.4362   3.9156   4.0674
     4.6814   4.7998   5.1644

          k = 0.3611 0.5292 0.0000 ( 12638 PWs)   bands (ev):

   -77.7130 -49.1318 -49.0888 -48.8120 -20.9965 -20.9223 -20.1639 -19.4741
   -14.4740 -14.0961 -13.1741 -13.0902 -11.0721 -10.6282 -10.3261  -9.5343
    -8.9775  -8.6194  -7.5731  -7.0144  -5.8747  -4.8215  -3.6026  -2.7549
    -2.5509   0.1074   0.2779   1.7864   2.0385   3.3757   3.8507   4.0805
     4.7046   4.8298   5.2076

          k = 0.3639 0.5244 0.0000 ( 12638 PWs)   bands (ev):

   -77.7131 -49.1330 -49.0871 -48.8121 -21.0050 -20.9311 -20.1637 -19.4739
   -14.4928 -14.1220 -13.1334 -13.0442 -11.0785 -10.6274 -10.3531  -9.4900
    -8.9896  -8.6028  -7.5747  -7.0183  -5.8804  -4.8121  -3.6104  -2.7608
    -2.5435   0.0715   0.2539   1.8080   2.0634   3.3136   3.7836   4.0951
     4.7255   4.8633   5.2511

          k = 0.3667 0.5196 0.0000 ( 12638 PWs)   bands (ev):

   -77.7131 -49.1343 -49.0853 -48.8122 -21.0140 -20.9405 -20.1635 -19.4737
   -14.5125 -14.1483 -13.0903 -12.9960 -11.0851 -10.6277 -10.3781  -9.4459
    -9.0002  -8.5865  -7.5763  -7.0224  -5.8863  -4.8021  -3.6188  -2.7664
    -2.5361   0.0327   0.2265   1.8323   2.0904   3.2505   3.7155   4.1103
     4.7448   4.8992   5.2949

          k = 0.3694 0.5148 0.0000 ( 12644 PWs)   bands (ev):

   -77.7132 -49.1355 -49.0835 -48.8122 -21.0235 -20.9503 -20.1635 -19.4736
   -14.5329 -14.1748 -13.0451 -12.9458 -11.0920 -10.6296 -10.4008  -9.4025
    -9.0091  -8.5708  -7.5779  -7.0268  -5.8925  -4.7917  -3.6278  -2.7716
    -2.5290  -0.0089   0.1956   1.8592   2.1194   3.1869   3.6470   4.1257
     4.7630   4.9366   5.3387

          k = 0.3722 0.5100 0.0000 ( 12640 PWs)   bands (ev):

   -77.7132 -49.1368 -49.0817 -48.8123 -21.0334 -20.9605 -20.1635 -19.4736
   -14.5539 -14.2014 -12.9979 -12.8938 -11.0991 -10.6336 -10.4205  -9.3604
    -9.0156  -8.5554  -7.5796  -7.0314  -5.8988  -4.7808  -3.6374  -2.7766
    -2.5222  -0.0533   0.1614   1.8887   2.1503   3.1229   3.5784   4.1412
     4.7804   4.9749   5.3826

          k = 0.3750 0.5052 0.0000 ( 12636 PWs)   bands (ev):

   -77.7133 -49.1380 -49.0798 -48.8124 -21.0436 -20.9710 -20.1638 -19.4737
   -14.5753 -14.2279 -12.9488 -12.8401 -11.1063 -10.6402 -10.4367  -9.3204
    -9.0192  -8.5404  -7.5813  -7.0362  -5.9053  -4.7695  -3.6475  -2.7812
    -2.5156  -0.1002   0.1238   1.9206   2.1829   3.0592   3.5102   4.1568
     4.7973   5.0135   5.4262

          k = 0.3778 0.5004 0.0000 ( 12628 PWs)   bands (ev):

   -77.7133 -49.1393 -49.0779 -48.8125 -21.0542 -20.9818 -20.1641 -19.4739
   -14.5970 -14.2543 -12.8982 -12.7851 -11.1136 -10.6497 -10.4492  -9.2836
    -9.0188  -8.5257  -7.5831  -7.0412  -5.9119  -4.7580  -3.6581  -2.7854
    -2.5093  -0.1496   0.0830   1.9547   2.2172   2.9959   3.4424   4.1723
     4.8138   5.0523   5.4696

          k = 0.3806 0.4956 0.0000 ( 12638 PWs)   bands (ev):

   -77.7134 -49.1406 -49.0760 -48.8126 -21.0649 -20.9928 -20.1646 -19.4742
   -14.6190 -14.2805 -12.8462 -12.7288 -11.1209 -10.6620 -10.4579  -9.2517
    -9.0130  -8.5112  -7.5848  -7.0464  -5.9185  -4.7461  -3.6691  -2.7892
    -2.5033  -0.2013   0.0392   1.9906   2.2529   2.9334   3.3754   4.1877
     4.8299   5.0910   5.5126

          k = 0.3833 0.4907 0.0000 ( 12638 PWs)   bands (ev):

   -77.7135 -49.1418 -49.0741 -48.8127 -21.0760 -21.0041 -20.1653 -19.4746
   -14.6410 -14.3064 -12.7929 -12.6715 -11.1283 -10.6768 -10.4632  -9.2259
    -9.0007  -8.4968  -7.5866  -7.0517  -5.9251  -4.7341  -3.6806  -2.7926
    -2.4978  -0.2552  -0.0075   2.0282   2.2901   2.8721   3.3094   4.2031
     4.8457   5.1295   5.5550

          k = 0.3861 0.4859 0.0000 ( 12638 PWs)   bands (ev):

   -77.7135 -49.1431 -49.0721 -48.8128 -21.0872 -21.0155 -20.1661 -19.4751
   -14.6631 -14.3320 -12.7386 -12.6131 -11.1356 -10.6935 -10.4657  -9.2071
    -8.9812  -8.4824  -7.5884  -7.0572  -5.9317  -4.7218  -3.6926  -2.7956
    -2.4926  -0.3112  -0.0569   2.0668   2.3284   2.8126   3.2444   4.2183
     4.8611   5.1675   5.5966

          k = 0.3889 0.4811 0.0000 ( 12650 PWs)   bands (ev):

   -77.7136 -49.1443 -49.0702 -48.8129 -21.0985 -21.0270 -20.1670 -19.4757
   -14.6852 -14.3573 -12.6833 -12.5540 -11.1427 -10.7114 -10.4660  -9.1948
    -8.9554  -8.4678  -7.5903  -7.0629  -5.9383  -4.7095  -3.7049  -2.7981
    -2.4878  -0.3691  -0.1088   2.1058   2.3679   2.7553   3.1808   4.2333
     4.8763   5.2050   5.6374

          k = 0.3917 0.4763 0.0000 ( 12642 PWs)   bands (ev):

   -77.7137 -49.1455 -49.0682 -48.8130 -21.1099 -21.0386 -20.1681 -19.4764
   -14.7071 -14.3821 -12.6274 -12.4942 -11.1497 -10.7301 -10.4646  -9.1873
    -8.9249  -8.4527  -7.5921  -7.0687  -5.9448  -4.6970  -3.7175  -2.8002
    -2.4835  -0.4288  -0.1630   2.1442   2.4084   2.7012   3.1185   4.2483
     4.8911   5.2418   5.6770

          k = 0.3944 0.4715 0.0000 ( 12644 PWs)   bands (ev):

   -77.7138 -49.1467 -49.0662 -48.8131 -21.1214 -21.0502 -20.1693 -19.4772
   -14.7288 -14.4065 -12.5710 -12.4338 -11.1565 -10.7490 -10.4620  -9.1831
    -8.8919  -8.4369  -7.5941  -7.0746  -5.9512  -4.6846  -3.7306  -2.8018
    -2.4796  -0.4903  -0.2192   2.1805   2.4498   2.6518   3.0578   4.2631
     4.9057   5.2780   5.7154

          k = 0.3972 0.4667 0.0000 ( 12648 PWs)   bands (ev):

   -77.7138 -49.1479 -49.0643 -48.8132 -21.1330 -21.0619 -20.1707 -19.4781
   -14.7504 -14.4305 -12.5142 -12.3730 -11.1628 -10.7677 -10.4586  -9.1809
    -8.8579  -8.4201  -7.5960  -7.0807  -5.9574  -4.6720  -3.7439  -2.8030
    -2.4761  -0.5533  -0.2772   2.2120   2.4917   2.6096   2.9988   4.2778
     4.9200   5.3134   5.7521

          k = 0.4000 0.4619 0.0000 ( 12636 PWs)   bands (ev):

   -77.7139 -49.1491 -49.0624 -48.8133 -21.1445 -21.0735 -20.1721 -19.4791
   -14.7717 -14.4540 -12.4574 -12.3120 -11.1687 -10.7861 -10.4545  -9.1797
    -8.8243  -8.4020  -7.5981  -7.0868  -5.9635  -4.6596  -3.7575  -2.8038
    -2.4731  -0.6177  -0.3368   2.2347   2.5334   2.5792   2.9419   4.2924
     4.9340   5.3480   5.7870

          k = 0.4028 0.4571 0.0000 ( 12630 PWs)   bands (ev):

   -77.7140 -49.1502 -49.0604 -48.8134 -21.1560 -21.0852 -20.1737 -19.4802
   -14.7927 -14.4769 -12.4006 -12.2508 -11.1740 -10.8039 -10.4501  -9.1789
    -8.7921  -8.3821  -7.6002  -7.0931  -5.9694  -4.6471  -3.7713  -2.8043
    -2.4705  -0.6834  -0.3977   2.2435   2.5568   2.5831   2.8873   4.3068
     4.9479   5.3818   5.8195

          k = 0.4056 0.4523 0.0000 ( 12634 PWs)   bands (ev):

   -77.7141 -49.1513 -49.0585 -48.8135 -21.1675 -21.0967 -20.1754 -19.4814
   -14.8133 -14.4994 -12.3442 -12.1897 -11.1786 -10.8209 -10.4455  -9.1782
    -8.7620  -8.3602  -7.6024  -7.0995  -5.9752  -4.6347  -3.7854  -2.8043
    -2.4684  -0.7502  -0.4597   2.2354   2.5613   2.6239   2.8361   4.3212
     4.9615   5.4146   5.8494

          k = 0.4083 0.4474 0.0000 ( 12634 PWs)   bands (ev):

   -77.7141 -49.1524 -49.0566 -48.8136 -21.1788 -21.1081 -20.1772 -19.4826
   -14.8336 -14.5213 -12.2885 -12.1289 -11.1821 -10.8369 -10.4407  -9.1772
    -8.7346  -8.3361  -7.6046  -7.1060  -5.9808  -4.6225  -3.7998  -2.8041
    -2.4666  -0.8179  -0.5226   2.2122   2.5784   2.6653   2.7908   4.3356
     4.9749   5.4465   5.8760

          k = 0.4111 0.4426 0.0000 ( 12630 PWs)   bands (ev):

   -77.7142 -49.1535 -49.0548 -48.8138 -21.1901 -21.1194 -20.1791 -19.4840
   -14.8534 -14.5426 -12.2336 -12.0684 -11.1845 -10.8519 -10.4359  -9.1758
    -8.7102  -8.3096  -7.6070  -7.1125  -5.9861  -4.6103  -3.8143  -2.8036
    -2.4653  -0.8865  -0.5860   2.1791   2.6013   2.6960   2.7642   4.3500
     4.9883   5.4775   5.8988

          k = 0.4139 0.4378 0.0000 ( 12630 PWs)   bands (ev):

   -77.7143 -49.1545 -49.0529 -48.8139 -21.2012 -21.1306 -20.1811 -19.4854
   -14.8728 -14.5634 -12.1800 -12.0086 -11.1854 -10.8658 -10.4312  -9.1739
    -8.6891  -8.2808  -7.6094  -7.1192  -5.9912  -4.5983  -3.8290  -2.8029
    -2.4643  -0.9556  -0.6499   2.1403   2.6126   2.7014   2.7839   4.3643
     5.0015   5.5075   5.9172

          k = 0.4167 0.4330 0.0000 ( 12622 PWs)   bands (ev):

   -77.7144 -49.1556 -49.0511 -48.8140 -21.2121 -21.1416 -20.1831 -19.4869
   -14.8918 -14.5836 -12.1280 -11.9495 -11.1845 -10.8783 -10.4267  -9.1713
    -8.6711  -8.2498  -7.6119  -7.1260  -5.9961  -4.5864  -3.8438  -2.8020
    -2.4637  -1.0253  -0.7138   2.0988   2.5931   2.7208   2.8265   4.3788
     5.0146   5.5365   5.9307

          k = 0.4194 0.4282 0.0000 ( 12610 PWs)   bands (ev):

   -77.7144 -49.1566 -49.0493 -48.8141 -21.2229 -21.1524 -20.1853 -19.4884
   -14.9103 -14.6032 -12.0780 -11.8915 -11.1816 -10.8895 -10.4223  -9.1681
    -8.6561  -8.2169  -7.6144  -7.1328  -6.0008  -4.5747  -3.8588  -2.8012
    -2.4633  -1.0952  -0.7777   2.0562   2.5570   2.7558   2.8742   4.3935
     5.0277   5.5646   5.9391

          k = 0.4222 0.4234 0.0000 ( 12610 PWs)   bands (ev):

   -77.7145 -49.1575 -49.0476 -48.8142 -21.2335 -21.1630 -20.1874 -19.4899
   -14.9283 -14.6222 -12.0305 -11.8347 -11.1761 -10.8992 -10.4181  -9.1643
    -8.6438  -8.1826  -7.6170  -7.1397  -6.0052  -4.5632  -3.8738  -2.8005
    -2.4631  -1.1651  -0.8411   2.0133   2.5172   2.7955   2.9239   4.4083
     5.0407   5.5917   5.9422

          k = 0.4250 0.4186 0.0000 ( 12610 PWs)   bands (ev):

   -77.7146 -49.1585 -49.0459 -48.8143 -21.2439 -21.1734 -20.1896 -19.4915
   -14.9458 -14.6407 -11.9859 -11.7795 -11.1678 -10.9073 -10.4142  -9.1597
    -8.6339  -8.1473  -7.6196  -7.1467  -6.0094  -4.5519  -3.8890  -2.7999
    -2.4630  -1.2350  -0.9041   1.9708   2.4770   2.8364   2.9749   4.4234
     5.0538   5.6180   5.9402

          k = 0.4278 0.4138 0.0000 ( 12616 PWs)   bands (ev):

   -77.7146 -49.1594 -49.0442 -48.8144 -21.2540 -21.1835 -20.1918 -19.4932
   -14.9628 -14.6585 -11.9447 -11.7260 -11.1562 -10.9137 -10.4106  -9.1545
    -8.6261  -8.1113  -7.6222  -7.1538  -6.0134  -4.5408  -3.9042  -2.7997
    -2.4630  -1.3045  -0.9662   1.9291   2.4377   2.8771   3.0267   4.4388
     5.0669   5.6433   5.9338

          k = 0.4306 0.4090 0.0000 ( 12610 PWs)   bands (ev):

   -77.7147 -49.1603 -49.0426 -48.8145 -21.2639 -21.1934 -20.1941 -19.4948
   -14.9792 -14.6756 -11.9072 -11.6746 -11.1412 -10.9181 -10.4073  -9.1487
    -8.6200  -8.0750  -7.6247  -7.1609  -6.0171  -4.5299  -3.9194  -2.8000
    -2.4629  -1.3735  -1.0274   1.8883   2.3997   2.9171   3.0789   4.4547
     5.0802   5.6677   5.9236

          k = 0.4333 0.4041 0.0000 ( 12602 PWs)   bands (ev):

   -77.7148 -49.1611 -49.0410 -48.8146 -21.2735 -21.2030 -20.1963 -19.4965
   -14.9950 -14.6922 -11.8739 -11.6256 -11.1224 -10.9203 -10.4043  -9.1422
    -8.6155  -8.0390  -7.6271  -7.1680  -6.0206  -4.5192  -3.9347  -2.8009
    -2.4627  -1.4417  -1.0873   1.8486   2.3630   2.9560   3.1311   4.4710
     5.0935   5.6912   5.9104

          k = 0.4361 0.3993 0.0000 ( 12606 PWs)   bands (ev):

   -77.7149 -49.1620 -49.0395 -48.8147 -21.2828 -21.2123 -20.1985 -19.4981
   -15.0103 -14.7081 -11.8449 -11.5791 -11.0999 -10.9202 -10.4016  -9.1351
    -8.6123  -8.0034  -7.6292  -7.1752  -6.0239  -4.5087  -3.9499  -2.8026
    -2.4622  -1.5090  -1.1459   1.8101   2.3279   2.9936   3.1829   4.4880
     5.1071   5.7139   5.8949

          k = 0.4389 0.3945 0.0000 ( 12606 PWs)   bands (ev):

   -77.7149 -49.1628 -49.0380 -48.8148 -21.2918 -21.2213 -20.2008 -19.4998
   -15.0250 -14.7233 -11.8203 -11.5357 -11.0738 -10.9174 -10.3993  -9.1274
    -8.6102  -7.9688  -7.6309  -7.1824  -6.0269  -4.4984  -3.9651  -2.8051
    -2.4613  -1.5750  -1.2030   1.7729   2.2944   3.0299   3.2340   4.5056
     5.1208   5.7356   5.8778

          k = 0.4417 0.3897 0.0000 ( 12612 PWs)   bands (ev):

   -77.7150 -49.1635 -49.0365 -48.8149 -21.3005 -21.2300 -20.2030 -19.5015
   -15.0392 -14.7380 -11.7998 -11.4954 -11.0446 -10.9117 -10.3973  -9.1193
    -8.6091  -7.9354  -7.6320  -7.1896  -6.0297  -4.4884  -3.9802  -2.8088
    -2.4601  -1.6396  -1.2583   1.7371   2.2624   3.0648   3.2841   4.5239
     5.1348   5.7561   5.8601

          k = 0.4444 0.3849 0.0000 ( 12610 PWs)   bands (ev):

   -77.7151 -49.1643 -49.0351 -48.8150 -21.3089 -21.2384 -20.2051 -19.5031
   -15.0527 -14.7519 -11.7833 -11.4587 -11.0127 -10.9027 -10.3956  -9.1107
    -8.6088  -7.9037  -7.6323  -7.1967  -6.0324  -4.4786  -3.9952  -2.8135
    -2.4583  -1.7024  -1.3119   1.7027   2.2320   3.0981   3.3329   4.5429
     5.1490   5.7746   5.8431

          k = 0.4472 0.3801 0.0000 ( 12606 PWs)   bands (ev):

   -77.7151 -49.1650 -49.0338 -48.8151 -21.3169 -21.2464 -20.2073 -19.5047
   -15.0656 -14.7652 -11.7703 -11.4258 -10.9790 -10.8901 -10.3943  -9.1017
    -8.6092  -7.8741  -7.6315  -7.2039  -6.0348  -4.4690  -4.0100  -2.8194
    -2.4562  -1.7632  -1.3634   1.6698   2.2033   3.1300   3.3800   4.5628
     5.1635   5.7871   5.8311

          k = 0.4500 0.3753 0.0000 ( 12600 PWs)   bands (ev):

   -77.7152 -49.1656 -49.0325 -48.8152 -21.3246 -21.2541 -20.2093 -19.5063
   -15.0779 -14.7779 -11.7604 -11.3969 -10.9443 -10.8736 -10.3933  -9.0924
    -8.6102  -7.8473  -7.6290  -7.2110  -6.0371  -4.4596  -4.0247  -2.8265
    -2.4536  -1.8217  -1.4129   1.6384   2.1760   3.1603   3.4252   4.5835
     5.1784   5.7841   5.8340

          k = 0.4528 0.3705 0.0000 ( 12592 PWs)   bands (ev):

   -77.7152 -49.1663 -49.0313 -48.8153 -21.3319 -21.2614 -20.2113 -19.5078
   -15.0895 -14.7899 -11.7531 -11.3718 -10.9096 -10.8528 -10.3927  -9.0828
    -8.6116  -7.8236  -7.6245  -7.2181  -6.0392  -4.4505  -4.0392  -2.8348
    -2.4507  -1.8776  -1.4603   1.6085   2.1504   3.1889   3.4682   4.6049
     5.1937   5.7693   5.8485

          k = 0.4556 0.3657 0.0000 ( 12592 PWs)   bands (ev):

   -77.7153 -49.1669 -49.0302 -48.8154 -21.3389 -21.2684 -20.2133 -19.5093
   -15.1005 -14.8012 -11.7480 -11.3506 -10.8761 -10.8276 -10.3925  -9.0731
    -8.6135  -7.8038  -7.6175  -7.2252  -6.0411  -4.4415  -4.0534  -2.8441
    -2.4477  -1.9305  -1.5055   1.5801   2.1263   3.2160   3.5088   4.6271
     5.2094   5.7515   5.8659

          k = 0.4583 0.3608 0.0000 ( 12592 PWs)   bands (ev):

   -77.7153 -49.1674 -49.0291 -48.8154 -21.3454 -21.2749 -20.2151 -19.5107
   -15.1109 -14.8118 -11.7446 -11.3330 -10.8444 -10.7983 -10.3926  -9.0632
    -8.6158  -7.7881  -7.6077  -7.2321  -6.0429  -4.4328  -4.0673  -2.8544
    -2.4449  -1.9799  -1.5484   1.5533   2.1037   3.2414   3.5468   4.6498
     5.2254   5.7332   5.8840

          k = 0.4611 0.3560 0.0000 ( 12598 PWs)   bands (ev):

   -77.7154 -49.1679 -49.0280 -48.8155 -21.3516 -21.2811 -20.2169 -19.5120
   -15.1207 -14.8218 -11.7427 -11.3186 -10.8142 -10.7660 -10.3932  -9.0533
    -8.6184  -7.7765  -7.5952  -7.2390  -6.0446  -4.4243  -4.0810  -2.8655
    -2.4426  -2.0255  -1.5890   1.5281   2.0826   3.2651   3.5822   4.6729
     5.2420   5.7151   5.9021

          k = 0.4639 0.3512 0.0000 ( 12592 PWs)   bands (ev):

   -77.7154 -49.1684 -49.0271 -48.8156 -21.3574 -21.2869 -20.2186 -19.5133
   -15.1298 -14.8311 -11.7418 -11.3069 -10.7848 -10.7325 -10.3941  -9.0435
    -8.6212  -7.7684  -7.5804  -7.2457  -6.0461  -4.4160  -4.0943  -2.8771
    -2.4412  -2.0667  -1.6274   1.5045   2.0631   3.2872   3.6148   4.6962
     5.2590   5.6976   5.9201

          k = 0.4667 0.3464 0.0000 ( 12588 PWs)   bands (ev):

   -77.7155 -49.1689 -49.0262 -48.8156 -21.3628 -21.2923 -20.2202 -19.5146
   -15.1382 -14.8397 -11.7418 -11.2975 -10.7560 -10.6989 -10.3954  -9.0339
    -8.6241  -7.7633  -7.5642  -7.2524  -6.0474  -4.4079  -4.1071  -2.8892
    -2.4414  -2.1029  -1.6634   1.4826   2.0450   3.3076   3.6446   4.7194
     5.2765   5.6808   5.9379

          k = 0.4694 0.3416 0.0000 ( 12580 PWs)   bands (ev):

   -77.7155 -49.1693 -49.0253 -48.8157 -21.3678 -21.2972 -20.2217 -19.5157
   -15.1460 -14.8477 -11.7424 -11.2901 -10.7278 -10.6664 -10.3971  -9.0244
    -8.6272  -7.7604  -7.5472  -7.2589  -6.0487  -4.4000  -4.1196  -2.9015
    -2.4435  -2.1334  -1.6971   1.4623   2.0285   3.3263   3.6715   4.7422
     5.2943   5.6649   5.9553

          k = 0.4722 0.3368 0.0000 ( 12576 PWs)   bands (ev):

   -77.7155 -49.1697 -49.0246 -48.8157 -21.3724 -21.3018 -20.2231 -19.5168
   -15.1531 -14.8549 -11.7434 -11.2843 -10.7002 -10.6353 -10.3992  -9.0154
    -8.6303  -7.7591  -7.5300  -7.2652  -6.0499  -4.3923  -4.1315  -2.9137
    -2.4482  -2.1580  -1.7286   1.4438   2.0134   3.3433   3.6957   4.7644
     5.3126   5.6498   5.9722

          k = 0.4750 0.3320 0.0000 ( 12580 PWs)   bands (ev):

   -77.7156 -49.1701 -49.0239 -48.8158 -21.3765 -21.3059 -20.2243 -19.5177
   -15.1595 -14.8615 -11.7447 -11.2797 -10.6737 -10.6062 -10.4019  -9.0067
    -8.6334  -7.7588  -7.5132  -7.2714  -6.0509  -4.3850  -4.1429  -2.9256
    -2.4554  -2.1765  -1.7576   1.4269   1.9998   3.3587   3.7171   4.7854
     5.3310   5.6357   5.9885

          k = 0.4778 0.3272 0.0000 ( 12578 PWs)   bands (ev):

   -77.7156 -49.1704 -49.0232 -48.8158 -21.3803 -21.3097 -20.2255 -19.5186
   -15.1653 -14.8674 -11.7461 -11.2762 -10.6484 -10.5794 -10.4049  -8.9986
    -8.6364  -7.7592  -7.4971  -7.2774  -6.0518  -4.3779  -4.1536  -2.9370
    -2.4649  -2.1892  -1.7843   1.4117   1.9876   3.3724   3.7360   4.8051
     5.3495   5.6226   6.0041

          k = 0.4806 0.3224 0.0000 ( 12590 PWs)   bands (ev):

   -77.7156 -49.1706 -49.0227 -48.8159 -21.3835 -21.3129 -20.2265 -19.5194
   -15.1704 -14.8726 -11.7476 -11.2734 -10.6246 -10.5552 -10.4085  -8.9911
    -8.6393  -7.7601  -7.4822  -7.2832  -6.0527  -4.3712  -4.1637  -2.9476
    -2.4760  -2.1969  -1.8085   1.3983   1.9769   3.3845   3.7522   4.8231
     5.3678   5.6105   6.0188

          k = 0.4833 0.3175 0.0000 ( 12586 PWs)   bands (ev):

   -77.7157 -49.1709 -49.0222 -48.8159 -21.3864 -21.3158 -20.2274 -19.5201
   -15.1748 -14.8771 -11.7490 -11.2713 -10.6026 -10.5337 -10.4125  -8.9844
    -8.6420  -7.7611  -7.4684  -7.2887  -6.0534  -4.3650  -4.1729  -2.9573
    -2.4877  -2.2006  -1.8302   1.3866   1.9676   3.3949   3.7661   4.8392
     5.3856   5.5994   6.0324

          k = 0.4861 0.3127 0.0000 ( 12588 PWs)   bands (ev):

   -77.7157 -49.1711 -49.0218 -48.8159 -21.3888 -21.3182 -20.2281 -19.5207
   -15.1786 -14.8809 -11.7503 -11.2697 -10.5826 -10.5153 -10.4169  -8.9785
    -8.6444  -7.7622  -7.4562  -7.2938  -6.0540  -4.3592  -4.1811  -2.9658
    -2.4992  -2.2016  -1.8491   1.3767   1.9598   3.4037   3.7776   4.8532
     5.4023   5.5893   6.0445

          k = 0.4889 0.3079 0.0000 ( 12590 PWs)   bands (ev):

   -77.7157 -49.1713 -49.0215 -48.8160 -21.3908 -21.3202 -20.2288 -19.5212
   -15.1817 -14.8840 -11.7515 -11.2685 -10.5650 -10.5000 -10.4216  -8.9735
    -8.6465  -7.7632  -7.4457  -7.2984  -6.0545  -4.3542  -4.1882  -2.9730
    -2.5097  -2.2008  -1.8651   1.3686   1.9534   3.4108   3.7868   4.8647
     5.4177   5.5803   6.0550

          k = 0.4917 0.3031 0.0000 ( 12594 PWs)   bands (ev):

   -77.7157 -49.1714 -49.0212 -48.8160 -21.3924 -21.3218 -20.2292 -19.5215
   -15.1840 -14.8864 -11.7524 -11.2677 -10.5502 -10.4879 -10.4262  -8.9695
    -8.6482  -7.7641  -7.4371  -7.3023  -6.0549  -4.3500  -4.1940  -2.9788
    -2.5184  -2.1992  -1.8780   1.3623   1.9484   3.4164   3.7939   4.8739
     5.4309   5.5726   6.0636

          k = 0.4944 0.2983 0.0000 ( 12578 PWs)   bands (ev):

   -77.7157 -49.1715 -49.0210 -48.8160 -21.3935 -21.3229 -20.2296 -19.5218
   -15.1858 -14.8882 -11.7531 -11.2671 -10.5387 -10.4791 -10.4304  -8.9667
    -8.6494  -7.7647  -7.4307  -7.3053  -6.0552  -4.3469  -4.1984  -2.9830
    -2.5249  -2.1975  -1.8874   1.3578   1.9448   3.4204   3.7990   4.8805
     5.4413   5.5665   6.0699

          k = 0.4972 0.2935 0.0000 ( 12582 PWs)   bands (ev):

   -77.7157 -49.1715 -49.0209 -48.8160 -21.3942 -21.3235 -20.2298 -19.5220
   -15.1868 -14.8892 -11.7535 -11.2668 -10.5313 -10.4738 -10.4335  -8.9649
    -8.6502  -7.7651  -7.4267  -7.3073  -6.0553  -4.3449  -4.2011  -2.9856
    -2.5290  -2.1962  -1.8932   1.3551   1.9427   3.4227   3.8020   4.8844
     5.4481   5.5625   6.0738

          k = 0.5000 0.2887 0.0000 ( 12586 PWs)   bands (ev):

   -77.7157 -49.1716 -49.0209 -48.8160 -21.3944 -21.3238 -20.2299 -19.5220
   -15.1871 -14.8896 -11.7537 -11.2667 -10.5287 -10.4720 -10.4346  -8.9643
    -8.6504  -7.7653  -7.4254  -7.3079  -6.0554  -4.3442  -4.2020  -2.9864
    -2.5303  -2.1957  -1.8951   1.3541   1.9420   3.4235   3.8030   4.8857
     5.4504   5.5611   6.0752

          k = 0.4950 0.2858 0.0000 ( 12578 PWs)   bands (ev):

   -77.7157 -49.1715 -49.0209 -48.8160 -21.3956 -21.3249 -20.2298 -19.5218
   -15.1858 -14.8883 -11.7541 -11.2659 -10.5285 -10.4718 -10.4344  -8.9642
    -8.6502  -7.7658  -7.4258  -7.3079  -6.0555  -4.3439  -4.2016  -2.9863
    -2.5294  -2.1959  -1.8947   1.3546   1.9424   3.4227   3.8017   4.8859
     5.4505   5.5612   6.0750

          k = 0.4900 0.2829 0.0000 ( 12584 PWs)   bands (ev):

   -77.7157 -49.1714 -49.0208 -48.8160 -21.3992 -21.3285 -20.2296 -19.5210
   -15.1820 -14.8845 -11.7554 -11.2635 -10.5277 -10.4710 -10.4336  -8.9639
    -8.6494  -7.7672  -7.4269  -7.3079  -6.0559  -4.3429  -4.2003  -2.9858
    -2.5265  -2.1965  -1.8937   1.3559   1.9437   3.4202   3.7979   4.8862
     5.4507   5.5614   6.0744

          k = 0.4850 0.2800 0.0000 ( 12592 PWs)   bands (ev):

   -77.7158 -49.1711 -49.0208 -48.8161 -21.4052 -21.3344 -20.2292 -19.5198
   -15.1757 -14.8782 -11.7576 -11.2595 -10.5263 -10.4696 -10.4323  -8.9634
    -8.6482  -7.7695  -7.4288  -7.3078  -6.0565  -4.3413  -4.1981  -2.9851
    -2.5217  -2.1974  -1.8918   1.3582   1.9459   3.4160   3.7917   4.8868
     5.4511   5.5618   6.0735

          k = 0.4800 0.2771 0.0000 ( 12584 PWs)   bands (ev):

   -77.7158 -49.1708 -49.0207 -48.8161 -21.4135 -21.3426 -20.2287 -19.5181
   -15.1668 -14.8694 -11.7605 -11.2539 -10.5244 -10.4678 -10.4306  -8.9627
    -8.6465  -7.7728  -7.4315  -7.3078  -6.0573  -4.3391  -4.1951  -2.9841
    -2.5150  -2.1987  -1.8893   1.3613   1.9490   3.4102   3.7830   4.8875
     5.4516   5.5623   6.0722

          k = 0.4750 0.2742 0.0000 ( 12596 PWs)   bands (ev):

   -77.7159 -49.1704 -49.0206 -48.8162 -21.4241 -21.3530 -20.2282 -19.5159
   -15.1554 -14.8580 -11.7643 -11.2469 -10.5219 -10.4654 -10.4283  -8.9617
    -8.6443  -7.7770  -7.4349  -7.3077  -6.0584  -4.3362  -4.1913  -2.9829
    -2.5065  -2.2004  -1.8860   1.3653   1.9528   3.4028   3.7719   4.8883
     5.4522   5.5630   6.0706

          k = 0.4700 0.2714 0.0000 ( 12592 PWs)   bands (ev):

   -77.7159 -49.1698 -49.0205 -48.8163 -21.4369 -21.3657 -20.2277 -19.5134
   -15.1415 -14.8442 -11.7687 -11.2384 -10.5189 -10.4624 -10.4256  -8.9605
    -8.6416  -7.7821  -7.4390  -7.3075  -6.0596  -4.3328  -4.1866  -2.9814
    -2.4960  -2.2025  -1.8818   1.3702   1.9575   3.3938   3.7584   4.8892
     5.4530   5.5639   6.0685

          k = 0.4650 0.2685 0.0000 ( 12592 PWs)   bands (ev):

   -77.7160 -49.1692 -49.0203 -48.8164 -21.4518 -21.3804 -20.2272 -19.5105
   -15.1252 -14.8279 -11.7738 -11.2286 -10.5154 -10.4590 -10.4225  -8.9591
    -8.6384  -7.7879  -7.4439  -7.3074  -6.0611  -4.3286  -4.1811  -2.9798
    -2.4837  -2.2050  -1.8769   1.3760   1.9630   3.3832   3.7426   4.8899
     5.4538   5.5648   6.0660

          k = 0.4600 0.2656 0.0000 ( 12596 PWs)   bands (ev):

   -77.7161 -49.1685 -49.0202 -48.8165 -21.4689 -21.3972 -20.2268 -19.5074
   -15.1064 -14.8091 -11.7796 -11.2174 -10.5113 -10.4550 -10.4189  -8.9573
    -8.6347  -7.7946  -7.4496  -7.3072  -6.0628  -4.3239  -4.1749  -2.9781
    -2.4696  -2.2078  -1.8712   1.3826   1.9693   3.3712   3.7246   4.8905
     5.4546   5.5658   6.0630

          k = 0.4550 0.2627 0.0000 ( 12596 PWs)   bands (ev):

   -77.7162 -49.1677 -49.0200 -48.8167 -21.4879 -21.4159 -20.2266 -19.5040
   -15.0852 -14.7879 -11.7859 -11.2050 -10.5067 -10.4504 -10.4149  -8.9553
    -8.6305  -7.8020  -7.4559  -7.3070  -6.0646  -4.3186  -4.1679  -2.9762
    -2.4537  -2.2110  -1.8645   1.3901   1.9763   3.3578   3.7045   4.8909
     5.4555   5.5669   6.0596

          k = 0.4500 0.2598 0.0000 ( 12588 PWs)   bands (ev):

   -77.7163 -49.1668 -49.0198 -48.8169 -21.5087 -21.4364 -20.2266 -19.5005
   -15.0617 -14.7643 -11.7927 -11.1914 -10.5015 -10.4454 -10.4105  -8.9529
    -8.6259  -7.8102  -7.4630  -7.3068  -6.0666  -4.3126  -4.1602  -2.9743
    -2.4361  -2.2146  -1.8570   1.3983   1.9840   3.3431   3.6823   4.8909
     5.4564   5.5680   6.0557

          k = 0.4450 0.2569 0.0000 ( 12600 PWs)   bands (ev):

   -77.7164 -49.1658 -49.0195 -48.8170 -21.5314 -21.4587 -20.2269 -19.4968
   -15.0358 -14.7383 -11.8000 -11.1768 -10.4958 -10.4398 -10.4058  -8.9502
    -8.6208  -7.8190  -7.4707  -7.3066  -6.0688  -4.3061  -4.1518  -2.9724
    -2.4167  -2.2185  -1.8484   1.4074   1.9923   3.3270   3.6582   4.8904
     5.4572   5.5690   6.0512

          k = 0.4400 0.2540 0.0000 ( 12600 PWs)   bands (ev):

   -77.7165 -49.1648 -49.0193 -48.8172 -21.5557 -21.4826 -20.2276 -19.4931
   -15.0076 -14.7099 -11.8076 -11.1610 -10.4896 -10.4337 -10.4007  -8.9471
    -8.6152  -7.8284  -7.4792  -7.3063  -6.0710  -4.2990  -4.1428  -2.9706
    -2.3955  -2.2229  -1.8389   1.4173   2.0012   3.3098   3.6321   4.8893
     5.4579   5.5699   6.0461

          k = 0.4350 0.2511 0.0000 ( 12604 PWs)   bands (ev):

   -77.7167 -49.1636 -49.0190 -48.8174 -21.5816 -21.5081 -20.2288 -19.4894
   -14.9772 -14.6792 -11.8157 -11.1443 -10.4828 -10.4271 -10.3954  -8.9435
    -8.6091  -7.8383  -7.4883  -7.3060  -6.0734  -4.2913  -4.1331  -2.9689
    -2.3728  -2.2276  -1.8284   1.4279   2.0107   3.2915   3.6043   4.8876
     5.4585   5.5706   6.0405

          k = 0.4300 0.2483 0.0000 ( 12600 PWs)   bands (ev):

   -77.7168 -49.1623 -49.0187 -48.8177 -21.6090 -21.5350 -20.2304 -19.4857
   -14.9446 -14.6463 -11.8241 -11.1267 -10.4756 -10.4200 -10.3898  -8.9395
    -8.6025  -7.8488  -7.4980  -7.3056  -6.0758  -4.2831  -4.1228  -2.9674
    -2.3484  -2.2327  -1.8168   1.4393   2.0206   3.2722   3.5748   4.8851
     5.4589   5.5710   6.0341

          k = 0.4250 0.2454 0.0000 ( 12590 PWs)   bands (ev):

   -77.7170 -49.1610 -49.0184 -48.8179 -21.6377 -21.5632 -20.2325 -19.4822
   -14.9099 -14.6110 -11.8328 -11.1082 -10.4678 -10.4124 -10.3839  -8.9350
    -8.5955  -7.8597  -7.5084  -7.3052  -6.0782  -4.2743  -4.1120  -2.9661
    -2.3224  -2.2382  -1.8040   1.4513   2.0308   3.2520   3.5437   4.8818
     5.4590   5.5710   6.0270

          k = 0.4200 0.2425 0.0000 ( 12596 PWs)   bands (ev):

   -77.7172 -49.1596 -49.0181 -48.8182 -21.6677 -21.5927 -20.2352 -19.4788
   -14.8731 -14.5736 -11.8418 -11.0889 -10.4595 -10.4043 -10.3779  -8.9300
    -8.5880  -7.8711  -7.5194  -7.3048  -6.0807  -4.2650  -4.1007  -2.9651
    -2.2949  -2.2440  -1.7901   1.4640   2.0414   3.2311   3.5112   4.8776
     5.4589   5.5704   6.0192

          k = 0.4150 0.2396 0.0000 ( 12606 PWs)   bands (ev):

   -77.7174 -49.1581 -49.0177 -48.8184 -21.6988 -21.6233 -20.2385 -19.4757
   -14.8343 -14.5340 -11.8510 -11.0689 -10.4507 -10.3957 -10.3718  -8.9244
    -8.5801  -7.8828  -7.5310  -7.3042  -6.0831  -4.2552  -4.0889  -2.9645
    -2.2659  -2.2502  -1.7749   1.4773   2.0521   3.2095   3.4772   4.8723
     5.4583   5.5691   6.0105

          k = 0.4100 0.2367 0.0000 ( 12612 PWs)   bands (ev):

   -77.7175 -49.1565 -49.0173 -48.8187 -21.7310 -21.6550 -20.2425 -19.4728
   -14.7936 -14.4922 -11.8605 -11.0481 -10.4413 -10.3865 -10.3655  -8.9183
    -8.5717  -7.8948  -7.5432  -7.3036  -6.0855  -4.2448  -4.0767  -2.9643
    -2.2569  -2.2354  -1.7586   1.4912   2.0629   3.1874   3.4420   4.8660
     5.4573   5.5670   6.0009

          k = 0.4050 0.2338 0.0000 ( 12622 PWs)   bands (ev):

   -77.7177 -49.1548 -49.0170 -48.8190 -21.7642 -21.6877 -20.2471 -19.4702
   -14.7510 -14.4484 -11.8701 -11.0266 -10.4315 -10.3769 -10.3591  -8.9114
    -8.5629  -7.9070  -7.5559  -7.3030  -6.0878  -4.2340  -4.0640  -2.9645
    -2.2639  -2.2035  -1.7410   1.5056   2.0736   3.1649   3.4056   4.8585
     5.4557   5.5639   5.9904

          k = 0.4000 0.2309 0.0000 ( 12606 PWs)   bands (ev):

   -77.7180 -49.1531 -49.0165 -48.8193 -21.7982 -21.7212 -20.2524 -19.4679
   -14.7067 -14.4025 -11.8799 -11.0045 -10.4212 -10.3668 -10.3527  -8.9039
    -8.5536  -7.9195  -7.5692  -7.3022  -6.0899  -4.2226  -4.0510  -2.9653
    -2.2712  -2.1703  -1.7220   1.5204   2.0841   3.1423   3.3682   4.8498
     5.4535   5.5597   5.9788

          k = 0.3950 0.2281 0.0000 ( 12600 PWs)   bands (ev):

   -77.7182 -49.1512 -49.0161 -48.8197 -21.8331 -21.7555 -20.2583 -19.4660
   -14.6606 -14.3547 -11.8899 -10.9818 -10.4104 -10.3563 -10.3463  -8.8957
    -8.5439  -7.9322  -7.5830  -7.3013  -6.0919  -4.2108  -4.0377  -2.9666
    -2.2790  -2.1358  -1.7018   1.5356   2.0942   3.1197   3.3298   4.8398
     5.4507   5.5541   5.9660

          k = 0.3900 0.2252 0.0000 ( 12586 PWs)   bands (ev):

   -77.7184 -49.1493 -49.0157 -48.8200 -21.8687 -21.7906 -20.2650 -19.4645
   -14.6128 -14.3049 -11.9000 -10.9586 -10.3991 -10.3452 -10.3399  -8.8867
    -8.5337  -7.9450  -7.5972  -7.3003  -6.0936  -4.1986  -4.0240  -2.9686
    -2.2871  -2.1000  -1.6803   1.5511   2.1036   3.0972   3.2907   4.8284
     5.4470   5.5471   5.9348

          k = 0.3850 0.2223 0.0000 ( 12582 PWs)   bands (ev):

   -77.7187 -49.1473 -49.0152 -48.8204 -21.9049 -21.8263 -20.2724 -19.4634
   -14.5635 -14.2532 -11.9101 -10.9349 -10.3873 -10.3339 -10.3333  -8.8769
    -8.5231  -7.9579  -7.6120  -7.2992  -6.0951  -4.1859  -4.0101  -2.9711
    -2.2956  -2.0630  -1.6574   1.5669   2.1123   3.0751   3.2509   4.8155
     5.4424   5.5384   5.8994

          k = 0.3800 0.2194 0.0000 ( 12586 PWs)   bands (ev):

   -77.7189 -49.1453 -49.0147 -48.8207 -21.9418 -21.8625 -20.2805 -19.4628
   -14.5128 -14.1997 -11.9203 -10.9107 -10.3751 -10.3272 -10.3217  -8.8663
    -8.5121  -7.9710  -7.6272  -7.2979  -6.0963  -4.1728  -3.9960  -2.9743
    -2.3045  -2.0248  -1.6332   1.5827   2.1199   3.0536   3.2105   4.8011
     5.4368   5.5280   5.8637

          k = 0.3750 0.2165 0.0000 ( 12586 PWs)   bands (ev):

   -77.7192 -49.1432 -49.0142 -48.8211 -21.9791 -21.8993 -20.2893 -19.4625
   -14.4607 -14.1444 -11.9305 -10.8862 -10.3623 -10.3210 -10.3092  -8.8549
    -8.5007  -7.9840  -7.6429  -7.2965  -6.0972  -4.1592  -3.9817  -2.9781
    -2.3137  -1.9855  -1.6077   1.5986   2.1263   3.0328   3.1698   4.7851
     5.4302   5.5156   5.8277

          k = 0.3700 0.2136 0.0000 ( 12588 PWs)   bands (ev):

   -77.7194 -49.1410 -49.0137 -48.8215 -22.0168 -21.9365 -20.2987 -19.4627
   -14.4073 -14.0873 -11.9407 -10.8613 -10.3492 -10.3148 -10.2964  -8.8426
    -8.4888  -7.9971  -7.6589  -7.2949  -6.0976  -4.1453  -3.9672  -2.9826
    -2.3233  -1.9452  -1.5809   1.6144   2.1312   3.0130   3.1289   4.7674
     5.4223   5.5010   5.7914

          k = 0.3650 0.2107 0.0000 ( 12582 PWs)   bands (ev):

   -77.7197 -49.1387 -49.0132 -48.8219 -22.0549 -21.9741 -20.3089 -19.4634
   -14.3528 -14.0286 -11.9507 -10.8362 -10.3356 -10.3086 -10.2830  -8.8295
    -8.4766  -8.0102  -7.6753  -7.2932  -6.0977  -4.1310  -3.9526  -2.9878
    -2.3333  -1.9039  -1.5528   1.6299   2.1343   2.9942   3.0881   4.7479
     5.4131   5.4843   5.7551

          k = 0.3600 0.2078 0.0000 ( 12570 PWs)   bands (ev):

   -77.7200 -49.1364 -49.0127 -48.8223 -22.0934 -22.0120 -20.3197 -19.4645
   -14.2972 -13.9682 -11.9607 -10.8110 -10.3215 -10.3025 -10.2693  -8.8154
    -8.4640  -8.0233  -7.6921  -7.2913  -6.0973  -4.1164  -3.9379  -2.9937
    -2.3437  -1.8616  -1.5234   1.6450   2.1354   2.9764   3.0479   4.7265
     5.4026   5.4653   5.7187

          k = 0.3550 0.2050 0.0000 ( 12568 PWs)   bands (ev):

   -77.7203 -49.1340 -49.0121 -48.8228 -22.1321 -22.0502 -20.3312 -19.4661
   -14.2407 -13.9063 -11.9704 -10.7856 -10.3070 -10.2964 -10.2551  -8.8004
    -8.4509  -8.0364  -7.7093  -7.2892  -6.0964  -4.1014  -3.9231  -3.0002
    -2.3544  -1.8184  -1.4928   1.6595   2.1343   2.9588   3.0092   4.7033
     5.3904   5.4437   5.6826

          k = 0.3500 0.2021 0.0000 ( 12560 PWs)   bands (ev):

   -77.7206 -49.1316 -49.0115 -48.8232 -22.1710 -22.0886 -20.3432 -19.4681
   -14.1835 -13.8428 -11.9798 -10.7602 -10.2921 -10.2902 -10.2405  -8.7846
    -8.4376  -8.0494  -7.7267  -7.2868  -6.0949  -4.0861  -3.9083  -3.0074
    -2.3655  -1.7743  -1.4610   1.6733   2.1307   2.9384   2.9756   4.6780
     5.3767   5.4197   5.6468

          k = 0.3450 0.1992 0.0000 ( 12564 PWs)   bands (ev):

   -77.7209 -49.1291 -49.0110 -48.8236 -22.2100 -22.1272 -20.3559 -19.4706
   -14.1255 -13.7779 -11.9889 -10.7349 -10.2839 -10.2768 -10.2255  -8.7678
    -8.4238  -8.0624  -7.7445  -7.2843  -6.0929  -4.0704  -3.8935  -3.0153
    -2.3769  -1.7294  -1.4281   1.6861   2.1246   2.9095   2.9529   4.6507
     5.3612   5.3931   5.6115

          k = 0.3400 0.1963 0.0000 ( 12568 PWs)   bands (ev):

   -77.7212 -49.1265 -49.0104 -48.8241 -22.2492 -22.1658 -20.3692 -19.4735
   -14.0671 -13.7116 -11.9975 -10.7099 -10.2774 -10.2611 -10.2101  -8.7501
    -8.4097  -8.0753  -7.7625  -7.2816  -6.0902  -4.0545  -3.8786  -3.0238
    -2.3887  -1.6838  -1.3941   1.6976   2.1159   2.8740   2.9395   4.6212
     5.3438   5.3641   5.5768

          k = 0.3350 0.1934 0.0000 ( 12564 PWs)   bands (ev):

   -77.7215 -49.1239 -49.0098 -48.8246 -22.2884 -22.2046 -20.3830 -19.4769
   -14.0083 -13.6439 -12.0055 -10.6852 -10.2705 -10.2450 -10.1943  -8.7316
    -8.3952  -8.0881  -7.7807  -7.2786  -6.0869  -4.0383  -3.8639  -3.0328
    -2.4009  -1.6374  -1.3590   1.7077   2.1046   2.8367   2.9307   4.5896
     5.3245   5.3326   5.5428

          k = 0.3300 0.1905 0.0000 ( 12562 PWs)   bands (ev):

   -77.7218 -49.1212 -49.0091 -48.8250 -22.3276 -22.2433 -20.3974 -19.4806
   -13.9494 -13.5749 -12.0128 -10.6612 -10.2631 -10.2285 -10.1781  -8.7123
    -8.3805  -8.1008  -7.7992  -7.2754  -6.0829  -4.0218  -3.8491  -3.0425
    -2.4134  -1.5904  -1.3229   1.7160   2.0907   2.7998   2.9246   4.5559
     5.2989   5.3033   5.5096

          k = 0.3250 0.1876 0.0000 ( 12562 PWs)   bands (ev):

   -77.7221 -49.1185 -49.0085 -48.8255 -22.3668 -22.2820 -20.4122 -19.4848
   -13.8905 -13.5047 -12.0193 -10.6379 -10.2550 -10.2117 -10.1616  -8.6921
    -8.3654  -8.1134  -7.8179  -7.2719  -6.0782  -4.0051  -3.8345  -3.0527
    -2.4262  -1.5428  -1.2859   1.7222   2.0743   2.7637   2.9205   4.5199
     5.2634   5.2799   5.4771

          k = 0.3200 0.1848 0.0000 ( 12566 PWs)   bands (ev):

   -77.7225 -49.1158 -49.0079 -48.8260 -22.4060 -22.3207 -20.4276 -19.4893
   -13.8318 -13.4333 -12.0247 -10.6156 -10.2460 -10.1945 -10.1447  -8.6712
    -8.3499  -8.1259  -7.8367  -7.2682  -6.0727  -3.9881  -3.8200  -3.0634
    -2.4394  -1.4947  -1.2480   1.7261   2.0556   2.7292   2.9181   4.4817
     5.2262   5.2544   5.4452

          k = 0.3150 0.1819 0.0000 ( 12572 PWs)   bands (ev):

   -77.7228 -49.1130 -49.0072 -48.8265 -22.4450 -22.3593 -20.4433 -19.4942
   -13.7737 -13.3608 -12.0288 -10.5945 -10.2359 -10.1769 -10.1274  -8.6496
    -8.3342  -8.1383  -7.8556  -7.2642  -6.0664  -3.9709  -3.8056  -3.0746
    -2.4530  -1.4461  -1.2093   1.7272   2.0349   2.6963   2.9170   4.4414
     5.1877   5.2267   5.4140

          k = 0.3100 0.1790 0.0000 ( 12574 PWs)   bands (ev):

   -77.7231 -49.1102 -49.0066 -48.8270 -22.4840 -22.3978 -20.4595 -19.4995
   -13.7163 -13.2872 -12.0315 -10.5750 -10.2244 -10.1590 -10.1098  -8.6273
    -8.3183  -8.1505  -7.8747  -7.2600  -6.0594  -3.9536  -3.7914  -3.0862
    -2.4669  -1.3970  -1.1699   1.7253   2.0123   2.6656   2.9167   4.3989
     5.1484   5.1967   5.3833

          k = 0.3050 0.1761 0.0000 ( 12560 PWs)   bands (ev):

   -77.7235 -49.1073 -49.0059 -48.8275 -22.5227 -22.4361 -20.4761 -19.5052
   -13.6599 -13.2125 -12.0325 -10.5572 -10.2113 -10.1408 -10.0919  -8.6045
    -8.3021  -8.1626  -7.8939  -7.2555  -6.0516  -3.9360  -3.7773  -3.0983
    -2.4811  -1.3476  -1.1299   1.7202   1.9881   2.6371   2.9170   4.3543
     5.1084   5.1644   5.3531

          k = 0.3000 0.1732 0.0000 ( 12568 PWs)   bands (ev):

   -77.7238 -49.1044 -49.0052 -48.8281 -22.5613 -22.4742 -20.4930 -19.5111
   -13.6049 -13.1369 -12.0315 -10.5413 -10.1965 -10.1222 -10.0737  -8.5811
    -8.2856  -8.1744  -7.9130  -7.2507  -6.0429  -3.9183  -3.7634  -3.1106
    -2.4956  -1.2979  -1.0893   1.7117   1.9623   2.6112   2.9175   4.3077
     5.0681   5.1300   5.3235

          k = 0.2950 0.1703 0.0000 ( 12568 PWs)   bands (ev):

   -77.7242 -49.1015 -49.0046 -48.8286 -22.5996 -22.5121 -20.5103 -19.5174
   -13.5515 -13.0604 -12.0282 -10.5275 -10.1796 -10.1034 -10.0552  -8.5575
    -8.2690  -8.1859  -7.9322  -7.2456  -6.0334  -3.9004  -3.7498  -3.1233
    -2.5104  -1.2479  -1.0482   1.6998   1.9352   2.5878   2.9179   4.2592
     5.0278   5.0932   5.2944

          k = 0.2900 0.1674 0.0000 ( 12580 PWs)   bands (ev):

   -77.7245 -49.0985 -49.0039 -48.8291 -22.6377 -22.5497 -20.5278 -19.5239
   -13.5002 -12.9830 -12.0224 -10.5158 -10.1608 -10.0843 -10.0364  -8.5336
    -8.2522  -8.1970  -7.9513  -7.2402  -6.0231  -3.8824  -3.7363  -3.1363
    -2.5255  -1.1979  -1.0068   1.6845   1.9069   2.5671   2.9177   4.2088
     4.9877   5.0543   5.2658

          k = 0.2850 0.1645 0.0000 ( 12574 PWs)   bands (ev):

   -77.7249 -49.0955 -49.0032 -48.8296 -22.6755 -22.5870 -20.5457 -19.5307
   -13.4512 -12.9048 -12.0136 -10.5063 -10.1399 -10.0650 -10.0173  -8.5098
    -8.2354  -8.2076  -7.9703  -7.2346  -6.0119  -3.8643  -3.7231  -3.1495
    -2.5410  -1.1478  -0.9651   1.6659   1.8775   2.5490   2.9169   4.1567
     4.9482   5.0131   5.2378

          k = 0.2800 0.1617 0.0000 ( 12578 PWs)   bands (ev):

   -77.7253 -49.0925 -49.0025 -48.8302 -22.7129 -22.6241 -20.5637 -19.5378
   -13.4050 -12.8259 -12.0016 -10.4989 -10.1172 -10.0454  -9.9980  -8.4862
    -8.2186  -8.2173  -7.9891  -7.2286  -5.9999  -3.8461  -3.7102  -3.1629
    -2.5567  -1.0977  -0.9232   1.6445   1.8470   2.5334   2.9149   4.1029
     4.9093   4.9699   5.2102

          k = 0.2750 0.1588 0.0000 ( 12564 PWs)   bands (ev):

   -77.7256 -49.0895 -49.0018 -48.8307 -22.7501 -22.6608 -20.5820 -19.5451
   -13.3619 -12.7463 -11.9860 -10.4933 -10.0926 -10.0255  -9.9784  -8.4633
    -8.2261  -8.2019  -8.0074  -7.2224  -5.9870  -3.8278  -3.6975  -3.1764
    -2.5727  -1.0478  -0.8814   1.6205   1.8155   2.5199   2.9117   4.0476
     4.8713   4.9247   5.1591

          k = 0.2700 0.1559 0.0000 ( 12570 PWs)   bands (ev):

   -77.7260 -49.0865 -49.0011 -48.8313 -22.7868 -22.6971 -20.6004 -19.5526
   -13.3223 -12.6660 -11.9666 -10.4894 -10.0665 -10.0055  -9.9586  -8.4417
    -8.2333  -8.1857  -8.0251  -7.2158  -5.9734  -3.8095  -3.6851  -3.1900
    -2.5890  -0.9981  -0.8396   1.5943   1.7832   2.5084   2.9070   3.9908
     4.8344   4.8775   5.1026

          k = 0.2650 0.1530 0.0000 ( 12588 PWs)   bands (ev):

   -77.7264 -49.0834 -49.0004 -48.8318 -22.8232 -22.7331 -20.6190 -19.5603
   -13.2863 -12.5852 -11.9431 -10.4871 -10.0389  -9.9852  -9.9386  -8.4222
    -8.2380  -8.1705  -8.0415  -7.2090  -5.9589  -3.7911  -3.6730  -3.2036
    -2.6056  -0.9489  -0.7981   1.5665   1.7501   2.4984   2.9006   3.9328
     4.7985   4.8285   5.0448

          k = 0.2600 0.1501 0.0000 ( 12586 PWs)   bands (ev):

   -77.7267 -49.0803 -48.9996 -48.8323 -22.8592 -22.7687 -20.6377 -19.5682
   -13.2542 -12.5039 -11.9152 -10.4862 -10.0101  -9.9648  -9.9183  -8.4059
    -8.2393  -8.1575  -8.0556  -7.2019  -5.9436  -3.7727  -3.6612  -3.2173
    -2.6223  -0.9002  -0.7570   1.5374   1.7164   2.4897   2.8924   3.8735
     4.7638   4.7779   4.9857

          k = 0.2550 0.1472 0.0000 ( 12594 PWs)   bands (ev):

   -77.7271 -49.0773 -48.9989 -48.8329 -22.8948 -22.8039 -20.6565 -19.5763
   -13.2261 -12.4220 -11.8830 -10.4864  -9.9802  -9.9442  -9.8979  -8.3942
    -8.2359  -8.1490  -8.0648  -7.1945  -5.9276  -3.7542  -3.6497  -3.2308
    -2.6394  -0.8523  -0.7165   1.5076   1.6824   2.4818   2.8822   3.8132
     4.7256   4.7304   4.9255

          k = 0.2500 0.1443 0.0000 ( 12600 PWs)   bands (ev):

   -77.7275 -49.0742 -48.9982 -48.8334 -22.9299 -22.8386 -20.6754 -19.5844
   -13.2021 -12.3398 -11.8465 -10.4876  -9.9493  -9.9234  -9.8774  -8.3879
    -8.2271  -8.1482  -8.0661  -7.1868  -5.9108  -3.7358  -3.6385  -3.2442
    -2.6566  -0.8053  -0.6768   1.4775   1.6484   2.4745   2.8701   3.7520
     4.6719   4.6982   4.8643

          k = 0.2450 0.1415 0.0000 ( 12582 PWs)   bands (ev):

   -77.7278 -49.0711 -48.9975 -48.8340 -22.9646 -22.8729 -20.6943 -19.5927
   -13.1821 -12.2572 -11.8056 -10.4896  -9.9177  -9.9025  -9.8567  -8.3867
    -8.2130  -8.1557  -8.0589  -7.1788  -5.8933  -3.7174  -3.6276  -3.2574
    -2.6741  -0.7595  -0.6380   1.4474   1.6145   2.4674   2.8559   3.6900
     4.6169   4.6672   4.8023

          k = 0.2400 0.1386 0.0000 ( 12584 PWs)   bands (ev):

   -77.7282 -49.0680 -48.9968 -48.8345 -22.9988 -22.9067 -20.7133 -19.6011
   -13.1659 -12.1744 -11.7606 -10.4924  -9.8854  -9.8816  -9.8358  -8.3898
    -8.1948  -8.1685  -8.0461  -7.1706  -5.8752  -3.6990  -3.6171  -3.2704
    -2.6918  -0.7152  -0.6004   1.4178   1.5811   2.4603   2.8397   3.6273
     4.5608   4.6373   4.7395

          k = 0.2350 0.1357 0.0000 ( 12570 PWs)   bands (ev):

   -77.7286 -49.0649 -48.9961 -48.8351 -23.0325 -22.9400 -20.7322 -19.6096
   -13.1534 -12.0913 -11.7117 -10.4958  -9.8605  -9.8526  -9.8149  -8.3958
    -8.1840  -8.1736  -8.0304  -7.1621  -5.8564  -3.6807  -3.6069  -3.2831
    -2.7096  -0.6726  -0.5643   1.3892   1.5485   2.4530   2.8216   3.5640
     4.5036   4.6084   4.6762

          k = 0.2300 0.1328 0.0000 ( 12558 PWs)   bands (ev):

   -77.7289 -49.0619 -48.9954 -48.8356 -23.0657 -22.9728 -20.7511 -19.6182
   -13.1443 -12.0081 -11.6593 -10.4996  -9.8394  -9.8193  -9.7938  -8.4040
    -8.2006  -8.1506  -8.0133  -7.1534  -5.8370  -3.6624  -3.5971  -3.2955
    -2.7277  -0.6322  -0.5298   1.3619   1.5171   2.4452   2.8016   3.5003
     4.4456   4.5804   4.6125

          k = 0.2250 0.1299 0.0000 ( 12558 PWs)   bands (ev):

   -77.7293 -49.0588 -48.9947 -48.8362 -23.0983 -23.0050 -20.7700 -19.6268
   -13.1382 -11.9248 -11.6036 -10.5039  -9.8182  -9.7857  -9.7727  -8.4134
    -8.2179  -8.1264  -7.9953  -7.1445  -5.8171  -3.6443  -3.5877  -3.3074
    -2.7458  -0.5942  -0.4971   1.3364   1.4872   2.4369   2.7797   3.4362
     4.3868   4.5473   4.5544

          k = 0.2200 0.1270 0.0000 ( 12558 PWs)   bands (ev):

   -77.7297 -49.0558 -48.9940 -48.8367 -23.1304 -23.0368 -20.7887 -19.6355
   -13.1350 -11.8415 -11.5449 -10.5084  -9.7970  -9.7519  -9.7513  -8.4239
    -8.2354  -8.1015  -7.9768  -7.1354  -5.7966  -3.6263  -3.5786  -3.3188
    -2.7642  -0.5593  -0.4666   1.3130   1.4593   2.4279   2.7562   3.3718
     4.3275   4.4837   4.5272

          k = 0.2150 0.1241 0.0000 ( 12550 PWs)   bands (ev):

   -77.7300 -49.0528 -48.9933 -48.8372 -23.1620 -23.0680 -20.8074 -19.6441
   -13.1342 -11.7583 -11.4837 -10.5131  -9.7758  -9.7303  -9.7175  -8.4350
    -8.2529  -8.0762  -7.9581  -7.1262  -5.7757  -3.6083  -3.5699  -3.3296
    -2.7826  -0.5279  -0.4383   1.2923   1.4338   2.4181   2.7312   3.3074
     4.2677   4.4194   4.5012

          k = 0.2100 0.1212 0.0000 ( 12554 PWs)   bands (ev):

   -77.7304 -49.0498 -48.9926 -48.8378 -23.1930 -23.0986 -20.8259 -19.6528
   -13.1357 -11.6752 -11.4202 -10.5180  -9.7546  -9.7091  -9.6831  -8.4465
    -8.2705  -8.0508  -7.9391  -7.1168  -5.7545  -3.5906  -3.5617  -3.3398
    -2.8011  -0.5004  -0.4126   1.2747   1.4110   2.4074   2.7049   3.2430
     4.2076   4.3550   4.4755

          k = 0.2050 0.1184 0.0000 ( 12550 PWs)   bands (ev):

   -77.7307 -49.0468 -48.9919 -48.8383 -23.2234 -23.1286 -20.8443 -19.6615
   -13.1390 -11.5925 -11.3547 -10.5228  -9.7335  -9.6879  -9.6486  -8.4584
    -8.2879  -8.0254  -7.9199  -7.1073  -5.7328  -3.5730  -3.5538  -3.3493
    -2.8197  -0.4775  -0.3896   1.2604   1.3914   2.3960   2.6773   3.1786
     4.1474   4.2908   4.4500

          k = 0.2000 0.1155 0.0000 ( 12554 PWs)   bands (ev):

   -77.7311 -49.0438 -48.9912 -48.8388 -23.2532 -23.1581 -20.8625 -19.6701
   -13.1441 -11.5102 -11.2876 -10.5275  -9.7124  -9.6667  -9.6140  -8.4705
    -8.3052  -8.0002  -7.9007  -7.0978  -5.7109  -3.5556  -3.5465  -3.3580
    -2.8384  -0.4596  -0.3696   1.2499   1.3755   2.3836   2.6487   3.1145
     4.0871   4.2268   4.4244

          k = 0.1950 0.1126 0.0000 ( 12550 PWs)   bands (ev):

   -77.7314 -49.0409 -48.9905 -48.8393 -23.2824 -23.1870 -20.8805 -19.6787
   -13.1505 -11.4284 -11.2191 -10.5320  -9.6915  -9.6456  -9.5795  -8.4828
    -8.3223  -7.9753  -7.8815  -7.0884  -5.6888  -3.5397  -3.5382  -3.3657
    -2.8571  -0.4469  -0.3529   1.2435   1.3636   2.3705   2.6192   3.0508
     4.0269   4.1632   4.3987

          k = 0.1900 0.1097 0.0000 ( 12538 PWs)   bands (ev):

   -77.7318 -49.0380 -48.9899 -48.8398 -23.3110 -23.2152 -20.8983 -19.6873
   -13.1582 -11.3475 -11.1494 -10.5360  -9.6706  -9.6245  -9.5449  -8.4952
    -8.3391  -7.9507  -7.8623  -7.0789  -5.6665  -3.5332  -3.5213  -3.3725
    -2.8759  -0.4396  -0.3399   1.2413   1.3561   2.3565   2.5890   2.9875
     3.9669   4.1000   4.3728

          k = 0.1850 0.1068 0.0000 ( 12526 PWs)   bands (ev):

   -77.7321 -49.0351 -48.9892 -48.8404 -23.3390 -23.2428 -20.9158 -19.6958
   -13.1669 -11.2675 -11.0790 -10.5393  -9.6499  -9.6036  -9.5105  -8.5077
    -8.3557  -7.9266  -7.8431  -7.0696  -5.6440  -3.5274  -3.5045  -3.3782
    -2.8946  -0.4378  -0.3309   1.2435   1.3533   2.3418   2.5583   2.9249
     3.9073   4.0374   4.3464

          k = 0.1800 0.1039 0.0000 ( 12528 PWs)   bands (ev):

   -77.7325 -49.0323 -48.9886 -48.8408 -23.3663 -23.2698 -20.9331 -19.7042
   -13.1765 -11.1888 -11.0079 -10.5417  -9.6293  -9.5828  -9.4761  -8.5202
    -8.3720  -7.9028  -7.8240  -7.0604  -5.6216  -3.5222  -3.4880  -3.3827
    -2.9133  -0.4413  -0.3262   1.2500   1.3554   2.3264   2.5271   2.8630
     3.8480   3.9755   4.3195

          k = 0.1750 0.1010 0.0000 ( 12529 PWs)   bands (ev):

   -77.7328 -49.0295 -48.9879 -48.8413 -23.3929 -23.2962 -20.9502 -19.7125
   -13.1868 -11.1119 -10.9364 -10.5426  -9.6090  -9.5621  -9.4420  -8.5327
    -8.3880  -7.8796  -7.8050  -7.0514  -5.5991  -3.5175  -3.4717  -3.3859
    -2.9320  -0.4499  -0.3260   1.2609   1.3623   2.3103   2.4957   2.8020
     3.7893   3.9143   4.2919

          k = 0.1700 0.0981 0.0000 ( 12545 PWs)   bands (ev):

   -77.7331 -49.0268 -48.9873 -48.8418 -23.4190 -23.3219 -20.9669 -19.7207
   -13.1977 -11.0376 -10.8648 -10.5412  -9.5888  -9.5416  -9.4080  -8.5453
    -8.4037  -7.8569  -7.7861  -7.0428  -5.5768  -3.5135  -3.4558  -3.3879
    -2.9505  -0.4635  -0.3304   1.2760   1.3742   2.2936   2.4641   2.7422
     3.7313   3.8539   4.2637

          k = 0.1650 0.0953 0.0000 ( 12531 PWs)   bands (ev):

   -77.7334 -49.0241 -48.9867 -48.8423 -23.4443 -23.3469 -20.9834 -19.7288
   -13.2091 -10.9669 -10.7933 -10.5365  -9.5689  -9.5213  -9.3743  -8.5578
    -8.4191  -7.8347  -7.7674  -7.0344  -5.5546  -3.5100  -3.4401  -3.3886
    -2.9690  -0.4816  -0.3392   1.2950   1.3908   2.2764   2.4324   2.6837
     3.6740   3.7945   4.2348

          k = 0.1600 0.0924 0.0000 ( 12533 PWs)   bands (ev):

   -77.7337 -49.0215 -48.9861 -48.8428 -23.4690 -23.3713 -20.9995 -19.7368
   -13.2208 -10.9015 -10.7224 -10.5265  -9.5492  -9.5012  -9.3409  -8.5702
    -8.4341  -7.8131  -7.7489  -7.0265  -5.5326  -3.5069  -3.4247  -3.3879
    -2.9873  -0.5039  -0.3524   1.3176   1.4119   2.2586   2.4007   2.6268
     3.6175   3.7361   4.2051

          k = 0.1550 0.0895 0.0000 ( 12539 PWs)   bands (ev):

   -77.7341 -49.0189 -48.9855 -48.8432 -23.4930 -23.3950 -21.0153 -19.7446
   -13.2328 -10.8439 -10.6524 -10.5087  -9.5299  -9.4813  -9.3079  -8.5826
    -8.4488  -7.7920  -7.7305  -7.0190  -5.5109  -3.5042  -3.4097  -3.3861
    -3.0055  -0.5300  -0.3697   1.3436   1.4371   2.2403   2.3691   2.5719
     3.5619   3.6787   4.1746

          k = 0.1500 0.0866 0.0000 ( 12539 PWs)   bands (ev):

   -77.7344 -49.0163 -48.9849 -48.8437 -23.5163 -23.4180 -21.0308 -19.7523
   -13.2449 -10.7969 -10.5838 -10.4799  -9.5108  -9.4618  -9.2752  -8.5949
    -8.4631  -7.7715  -7.7124  -7.0121  -5.4896  -3.5017  -3.3951  -3.3832
    -3.0234  -0.5595  -0.3907   1.3724   1.4659   2.2214   2.3377   2.5194
     3.5074   3.6225   4.1434

          k = 0.1450 0.0837 0.0000 ( 12539 PWs)   bands (ev):

   -77.7346 -49.0138 -48.9843 -48.8441 -23.5389 -23.4403 -21.0459 -19.7598
   -13.2572 -10.7623 -10.5169 -10.4382  -9.4921  -9.4425  -9.2429  -8.6071
    -8.4770  -7.7515  -7.6946  -7.0058  -5.4686  -3.4993  -3.3808  -3.3792
    -3.0412  -0.5919  -0.4152   1.4037   1.4980   2.2017   2.3064   2.4699
     3.4539   3.5676   4.1114

          k = 0.1400 0.0808 0.0000 ( 12535 PWs)   bands (ev):

   -77.7349 -49.0114 -48.9837 -48.8445 -23.5607 -23.4619 -21.0606 -19.7672
   -13.2694 -10.7394 -10.4512 -10.3850  -9.4737  -9.4236  -9.2111  -8.6192
    -8.4905  -7.7322  -7.6771  -7.0002  -5.4482  -3.4968  -3.3743  -3.3669
    -3.0587  -0.6269  -0.4427   1.4369   1.5327   2.1809   2.2756   2.4239
     3.4016   3.5139   4.0787

          k = 0.1350 0.0779 0.0000 ( 12539 PWs)   bands (ev):

   -77.7352 -49.0091 -48.9832 -48.8449 -23.5819 -23.4828 -21.0749 -19.7744
   -13.2817 -10.7256 -10.3855 -10.3243  -9.4558  -9.4050  -9.1799  -8.6313
    -8.5035  -7.7133  -7.6598  -6.9952  -5.4282  -3.4942  -3.3686  -3.3534
    -3.0758  -0.6641  -0.4728   1.4715   1.5697   2.1584   2.2457   2.3821
     3.3505   3.4615   4.0453

          k = 0.1300 0.0751 0.0000 ( 12543 PWs)   bands (ev):

   -77.7355 -49.0068 -48.9827 -48.8454 -23.6024 -23.5031 -21.0888 -19.7814
   -13.2938 -10.7180 -10.3195 -10.2597  -9.4382  -9.3868  -9.1491  -8.6432
    -8.5162  -7.6951  -7.6429  -6.9911  -5.4089  -3.4912  -3.3623  -3.3404
    -3.0926  -0.7030  -0.5052   1.5069   1.6082   2.1335   2.2175   2.3452
     3.3007   3.4106   4.0113

          k = 0.1250 0.0722 0.0000 ( 12541 PWs)   bands (ev):

   -77.7358 -49.0045 -48.9822 -48.8457 -23.6221 -23.5225 -21.1022 -19.7882
   -13.3058 -10.7144 -10.2531 -10.1934  -9.4211  -9.3691  -9.1190  -8.6550
    -8.5284  -7.6773  -7.6264  -6.9877  -5.3902  -3.4879  -3.3552  -3.3279
    -3.1091  -0.7434  -0.5394   1.5421   1.6478   2.1059   2.1918   2.3136
     3.2522   3.3611   3.9767

          k = 0.1200 0.0693 0.0000 ( 12531 PWs)   bands (ev):

   -77.7360 -49.0024 -48.9817 -48.8461 -23.6411 -23.5413 -21.1153 -19.7948
   -13.3176 -10.7133 -10.1868 -10.1266  -9.4045  -9.3517  -9.0894  -8.6667
    -8.5402  -7.6601  -7.6102  -6.9853  -5.3722  -3.4841  -3.3476  -3.3159
    -3.1250  -0.7850  -0.5751   1.5763   1.6879   2.0757   2.1693   2.2877
     3.2052   3.3131   3.9415

          k = 0.1150 0.0664 0.0000 ( 12527 PWs)   bands (ev):

   -77.7363 -49.0003 -48.9812 -48.8465 -23.6594 -23.5594 -21.1279 -19.8011
   -13.3292 -10.7140 -10.1211 -10.0600  -9.3883  -9.3348  -9.0606  -8.6783
    -8.5516  -7.6434  -7.5945  -6.9837  -5.3549  -3.4799  -3.3395  -3.3045
    -3.1404  -0.8273  -0.6119   1.6082   1.7277   2.0440   2.1500   2.2675
     3.1597   3.2668   3.9059

          k = 0.1100 0.0635 0.0000 ( 12531 PWs)   bands (ev):

   -77.7365 -48.9983 -48.9807 -48.8468 -23.6769 -23.5767 -21.1400 -19.8073
   -13.3405 -10.7157 -10.0563  -9.9941  -9.3727  -9.3185  -9.0325  -8.6897
    -8.5624  -7.6271  -7.5792  -6.9831  -5.3384  -3.4752  -3.3309  -3.2938
    -3.1552  -0.8702  -0.6494   1.6364   1.7663   2.0128   2.1340   2.2534
     3.1157   3.2220   3.8700

          k = 0.1050 0.0606 0.0000 ( 12539 PWs)   bands (ev):

   -77.7367 -48.9963 -48.9803 -48.8472 -23.6937 -23.5932 -21.1517 -19.8132
   -13.3516 -10.7182  -9.9927  -9.9292  -9.3576  -9.3026  -9.0052  -8.7010
    -8.5729  -7.6114  -7.5643  -6.9833  -5.3227  -3.4700  -3.3219  -3.2839
    -3.1691  -0.9134  -0.6875   1.6589   1.8026   1.9837   2.1217   2.2457
     3.0733   3.1789   3.8337

          k = 0.1000 0.0577 0.0000 ( 12541 PWs)   bands (ev):

   -77.7369 -48.9944 -48.9798 -48.8475 -23.7097 -23.6091 -21.1629 -19.8190
   -13.3622 -10.7211  -9.9306  -9.8654  -9.3430  -9.2873  -8.9787  -8.7122
    -8.5828  -7.5961  -7.5500  -6.9846  -5.3078  -3.4643  -3.3126  -3.2752
    -3.1820  -0.9565  -0.7258   1.6738   1.8349   1.9587   2.1142   2.2448
     3.0326   3.1376   3.7972

          k = 0.0950 0.0548 0.0000 ( 12529 PWs)   bands (ev):

   -77.7372 -48.9926 -48.9794 -48.8478 -23.7250 -23.6241 -21.1736 -19.8244
   -13.3726 -10.7243  -9.8701  -9.8031  -9.3290  -9.2725  -8.9532  -8.7232
    -8.5923  -7.5812  -7.5362  -6.9868  -5.2938  -3.4582  -3.3029  -3.2680
    -3.1932  -0.9995  -0.7640   1.6794   1.8612   1.9392   2.1133   2.2508
     2.9935   3.0980   3.7605

          k = 0.0900 0.0520 0.0000 ( 12523 PWs)   bands (ev):

   -77.7374 -48.9909 -48.9790 -48.8481 -23.7395 -23.6385 -21.1838 -19.8296
   -13.3825 -10.7276  -9.8113  -9.7423  -9.3157  -9.2584  -8.9286  -8.7341
    -8.6012  -7.5668  -7.5229  -6.9899  -5.2807  -3.4516  -3.2928  -3.2633
    -3.2018  -1.0420  -0.8019   1.6752   1.8792   1.9257   2.1210   2.2637
     2.9562   3.0602   3.7237

          k = 0.0850 0.0491 0.0000 ( 12531 PWs)   bands (ev):

   -77.7376 -48.9893 -48.9787 -48.8484 -23.7533 -23.6521 -21.1936 -19.8346
   -13.3920 -10.7310  -9.7545  -9.6834  -9.3029  -9.2448  -8.9052  -8.7447
    -8.6097  -7.5528  -7.5101  -6.9939  -5.2685  -3.4448  -3.2826  -3.2623
    -3.2068  -1.0838  -0.8392   1.6626   1.8879   1.9171   2.1381   2.2829
     2.9206   3.0242   3.6870

          k = 0.0800 0.0462 0.0000 ( 12543 PWs)   bands (ev):

   -77.7377 -48.9878 -48.9783 -48.8487 -23.7663 -23.6649 -21.2028 -19.8393
   -13.4011 -10.7344  -9.6996  -9.6265  -9.2908  -9.2319  -8.8831  -8.7548
    -8.6177  -7.5392  -7.4980  -6.9989  -5.2571  -3.4376  -3.2722  -3.2654
    -3.2075  -1.1247  -0.8757   1.6438   1.8892   1.9110   2.1636   2.3075
     2.8869   2.9901   3.6503

          k = 0.0750 0.0433 0.0000 ( 12547 PWs)   bands (ev):

   -77.7379 -48.9863 -48.9780 -48.8489 -23.7785 -23.6769 -21.2114 -19.8438
   -13.4097 -10.7378  -9.6469  -9.5717  -9.2793  -9.2197  -8.8628  -8.7643
    -8.6252  -7.5259  -7.4864  -7.0046  -5.2467  -3.4303  -3.2718  -3.2616
    -3.2048  -1.1645  -0.9113   1.6212   1.8864   1.9048   2.1954   2.3364
     2.8550   2.9579   3.6138

          k = 0.0700 0.0404 0.0000 ( 12551 PWs)   bands (ev):

   -77.7381 -48.9849 -48.9777 -48.8492 -23.7899 -23.6882 -21.2196 -19.8480
   -13.4178 -10.7411  -9.5964  -9.5192  -9.2685  -9.2081  -8.8449  -8.7724
    -8.6322  -7.5131  -7.4755  -7.0111  -5.2371  -3.4228  -3.2798  -3.2510
    -3.2004  -1.2030  -0.9456   1.5967   1.8813   1.8977   2.2311   2.3683
     2.8251   2.9276   3.5775

          k = 0.0650 0.0375 0.0000 ( 12551 PWs)   bands (ev):

   -77.7382 -48.9837 -48.9774 -48.8494 -23.8006 -23.6988 -21.2272 -19.8519
   -13.4255 -10.7442  -9.5482  -9.4693  -9.2584  -9.1973  -8.8315  -8.7771
    -8.6388  -7.5006  -7.4653  -7.0183  -5.2283  -3.4152  -3.2885  -3.2405
    -3.1952  -1.2401  -0.9784   1.5716   1.8747   1.8902   2.2691   2.4021
     2.7970   2.8993   3.5416

          k = 0.0600 0.0346 0.0000 ( 12547 PWs)   bands (ev):

   -77.7384 -48.9825 -48.9771 -48.8496 -23.8105 -23.7085 -21.2343 -19.8556
   -13.4326 -10.7472  -9.5024  -9.4221  -9.2490  -9.1872  -8.8259  -8.7751
    -8.6448  -7.4886  -7.4557  -7.0260  -5.2205  -3.4077  -3.2971  -3.2301
    -3.1899  -1.2754  -1.0097   1.5468   1.8670   1.8830   2.3081   2.4368
     2.7709   2.8730   3.5061

          k = 0.0550 0.0318 0.0000 ( 12543 PWs)   bands (ev):

   -77.7385 -48.9814 -48.9768 -48.8498 -23.8196 -23.7175 -21.2408 -19.8589
   -13.4392 -10.7500  -9.4591  -9.3778  -9.2403  -9.1778  -8.8287  -8.7661
    -8.6503  -7.4769  -7.4468  -7.0342  -5.2134  -3.4003  -3.3055  -3.2199
    -3.1846  -1.3088  -1.0393   1.5229   1.8586   1.8762   2.3474   2.4717
     2.7468   2.8487   3.4712

          k = 0.0500 0.0289 0.0000 ( 12535 PWs)   bands (ev):

   -77.7386 -48.9803 -48.9766 -48.8500 -23.8279 -23.7257 -21.2468 -19.8620
   -13.4453 -10.7526  -9.4183  -9.3366  -9.2323  -9.1691  -8.8359  -8.7539
    -8.6553  -7.4657  -7.4386  -7.0428  -5.2071  -3.3931  -3.3134  -3.2100
    -3.1795  -1.3401  -1.0668   1.5003   1.8499   1.8699   2.3861   2.5062
     2.7247   2.8265   3.4371

          k = 0.0450 0.0260 0.0000 ( 12535 PWs)   bands (ev):

   -77.7387 -48.9794 -48.9764 -48.8501 -23.8354 -23.7332 -21.2522 -19.8648
   -13.4509 -10.7550  -9.3802  -9.2986  -9.2251  -9.1613  -8.8450  -8.7411
    -8.6598  -7.4550  -7.4311  -7.0515  -5.2015  -3.3863  -3.3208  -3.2006
    -3.1749  -1.3691  -1.0923   1.4793   1.8414   1.8641   2.4237   2.5395
     2.7046   2.8063   3.4038

          k = 0.0400 0.0231 0.0000 ( 12549 PWs)   bands (ev):

   -77.7388 -48.9786 -48.9762 -48.8503 -23.8422 -23.7398 -21.2571 -19.8673
   -13.4558 -10.7571  -9.3450  -9.2639  -9.2186  -9.1542  -8.8549  -8.7288
    -8.6639  -7.4449  -7.4244  -7.0602  -5.1967  -3.3799  -3.3275  -3.1918
    -3.1706  -1.3957  -1.1156   1.4601   1.8335   1.8587   2.4595   2.5714
     2.6866   2.7882   3.3717

          k = 0.0350 0.0202 0.0000 ( 12553 PWs)   bands (ev):

   -77.7389 -48.9779 -48.9760 -48.8504 -23.8481 -23.7457 -21.2614 -19.8696
   -13.4603 -10.7591  -9.3126  -9.2329  -9.2129  -9.1480  -8.8651  -8.7176
    -8.6674  -7.4354  -7.4184  -7.0688  -5.1925  -3.3740  -3.3334  -3.1836
    -3.1668  -1.4196  -1.1364   1.4429   1.8261   1.8539   2.4932   2.6014
     2.6707   2.7721   3.3410

          k = 0.0300 0.0173 0.0000 ( 12553 PWs)   bands (ev):

   -77.7390 -48.9772 -48.9759 -48.8505 -23.8533 -23.7508 -21.2652 -19.8715
   -13.4641 -10.7608  -9.2835  -9.2079  -9.2055  -9.1425  -8.8751  -8.7076
    -8.6705  -7.4267  -7.4132  -7.0769  -5.1890  -3.3686  -3.3387  -3.1762
    -3.1635  -1.4407  -1.1548   1.4277   1.8196   1.8496   2.5240   2.6291
     2.6568   2.7582   3.3121

          k = 0.0250 0.0144 0.0000 ( 12567 PWs)   bands (ev):

   -77.7390 -48.9767 -48.9758 -48.8506 -23.8577 -23.7551 -21.2683 -19.8731
   -13.4674 -10.7622  -9.2578  -9.2037  -9.1820  -9.1379  -8.8848  -8.6990
    -8.6731  -7.4190  -7.4088  -7.0844  -5.1861  -3.3640  -3.3432  -3.1698
    -3.1606  -1.4589  -1.1705   1.4148   1.8140   1.8460   2.5513   2.6451
     2.6542   2.7464   3.2857

          k = 0.0200 0.0115 0.0000 ( 12571 PWs)   bands (ev):

   -77.7391 -48.9763 -48.9757 -48.8507 -23.8613 -23.7587 -21.2709 -19.8745
   -13.4700 -10.7634  -9.2358  -9.2002  -9.1625  -9.1341  -8.8937  -8.6918
    -8.6752  -7.4123  -7.4052  -7.0910  -5.1837  -3.3601  -3.3469  -3.1643
    -3.1583  -1.4739  -1.1835   1.4041   1.8093   1.8429   2.5746   2.6355
     2.6761   2.7367   3.2622

          k = 0.0150 0.0087 0.0000 ( 12575 PWs)   bands (ev):

   -77.7391 -48.9759 -48.9756 -48.8508 -23.8641 -23.7614 -21.2730 -19.8755
   -13.4721 -10.7643  -9.2180  -9.1975  -9.1472  -9.1311  -8.9015  -8.6862
    -8.6769  -7.4068  -7.4023  -7.0965  -5.1819  -3.3570  -3.3498  -3.1600
    -3.1565  -1.4858  -1.1937   1.3957   1.8056   1.8405   2.5933   2.6280
     2.6944   2.7292   3.2426

          k = 0.0100 0.0058 0.0000 ( 12575 PWs)   bands (ev):

   -77.7392 -48.9757 -48.9755 -48.8508 -23.8660 -23.7634 -21.2744 -19.8763
   -13.4736 -10.7650  -9.2048  -9.1956  -9.1360  -9.1290  -8.9075  -8.6822
    -8.6780  -7.4029  -7.4002  -7.1006  -5.1807  -3.3548  -3.3518  -3.1569
    -3.1551  -1.4943  -1.2010   1.3897   1.8030   1.8388   2.6069   2.6226
     2.7083   2.7238   3.2276

          k = 0.0050 0.0029 0.0000 ( 12575 PWs)   bands (ev):

   -77.7392 -48.9755 -48.9755 -48.8508 -23.8672 -23.7645 -21.2753 -19.8767
   -13.4745 -10.7654  -9.1967  -9.1944  -9.1293  -9.1277  -8.9115  -8.6798
    -8.6787  -7.4005  -7.3989  -7.1031  -5.1799  -3.3538  -3.3526  -3.1550
    -3.1543  -1.4995  -1.2055   1.3861   1.8014   1.8377   2.6152   2.6194
     2.7170   2.7206   3.2182

          k = 0.0000 0.0000 0.0000 ( 12573 PWs)   bands (ev):

   -77.7392 -48.9755 -48.9755 -48.8508 -23.8676 -23.7649 -21.2756 -19.8769
   -13.4748 -10.7655  -9.1941  -9.1938  -9.1275  -9.1268  -8.9128  -8.6790
    -8.6789  -7.3997  -7.3984  -7.1040  -5.1797  -3.3539  -3.3525  -3.1544
    -3.1540  -1.5012  -1.2069   1.3849   1.8009   1.8374   2.6178   2.6185
     2.7193   2.7202   3.2150

     Writing all to output data dir ./tmp/crsi2n4.save/ :
     XML data file, pseudopotentials, collected wavefunctions
 
     init_run     :      0.93s CPU      0.98s WALL (       1 calls)
     electrons    :    539.01s CPU    540.09s WALL (       1 calls)

     Called by init_run:
     wfcinit      :      0.00s CPU      0.00s WALL (       1 calls)
     wfcinit:atom :      0.16s CPU      0.16s WALL (     261 calls)
     wfcinit:wfcr :      9.90s CPU      9.95s WALL (     261 calls)
     potinit      :      0.48s CPU      0.50s WALL (       1 calls)
     hinit0       :      0.17s CPU      0.18s WALL (       1 calls)

     Called by electrons:
     c_bands      :    539.01s CPU    540.09s WALL (       1 calls)
     v_of_rho     :      0.01s CPU      0.04s WALL (       1 calls)
     v_h          :      0.00s CPU      0.01s WALL (       1 calls)
     v_xc         :      0.01s CPU      0.03s WALL (       1 calls)

     Called by c_bands:
     init_us_2    :      0.14s CPU      0.16s WALL (     261 calls)
     cegterg      :    528.08s CPU    528.70s WALL (    1046 calls)

     Called by sum_band:

     Called by *egterg:
     cdiaghg      :     83.17s CPU     83.43s WALL (   18948 calls)
                                       83.33s GPU  (   18948 calls)
     cegterg:over :    120.44s CPU    120.49s WALL (   18687 calls)
     cegterg:upda :     33.84s CPU     33.86s WALL (   18687 calls)
     cegterg:last :     42.77s CPU     42.78s WALL (    8558 calls)
     h_psi        :    240.09s CPU    240.76s WALL (   19994 calls)
                                      240.63s GPU  (   19994 calls)
     g_psi        :      0.08s CPU      2.75s WALL (   18687 calls)
                                        2.67s GPU  (   18687 calls)

     Called by h_psi:
     h_psi:calbec :      0.63s CPU     38.35s WALL (   19994 calls)
                                       38.25s GPU  (   19994 calls)
     vloc_psi     :    169.72s CPU    170.33s WALL (   19994 calls)
                                      170.24s GPU  (   19994 calls)
     add_vuspsi   :      3.96s CPU     30.78s WALL (   19994 calls)
                                       30.60s GPU  (   19994 calls)

     General routines
     calbec       :      0.59s CPU      0.62s WALL (   19994 calls)
     fft          :      0.23s CPU      0.23s WALL (      11 calls)
                                        0.01s GPU  (      10 calls)
     ffts         :      0.23s CPU      0.23s WALL (       1 calls)
     fftw         :      0.66s CPU    148.09s WALL (   64626 calls)
                                      147.79s GPU  (   64626 calls)
     interpolate  :      0.46s CPU      0.46s WALL (       1 calls)
     davcio       :      0.07s CPU      0.63s WALL (     522 calls)
 
     Parallel routines
 
     PWSCF        :   9m 0.37s CPU   9m 2.28s WALL

 
   This run was terminated on:   4:16:50  13Mar2026            

=------------------------------------------------------------------------------=
   JOB DONE.
=------------------------------------------------------------------------------=
