
     Program PWSCF v.7.4.1 starts on 13Mar2026 at  3:40:30 

     This program is part of the open-source Quantum ESPRESSO suite
     for quantum simulation of materials; please cite
         "P. Giannozzi et al., J. Phys.:Condens. Matter 21 395502 (2009);
         "P. Giannozzi et al., J. Phys.:Condens. Matter 29 465901 (2017);
         "P. Giannozzi et al., J. Chem. Phys. 152 154105 (2020);
          URL http://www.quantum-espresso.org", 
     in publications or presentations arising from this work. More details at
     http://www.quantum-espresso.org/quote

     Parallel version (MPI), running on     1 processors

     MPI processes distributed on     1 nodes
     4476 MiB available memory on the printing compute node when the environment starts
 
     Reading input from nscf.in

     Current dimensions of program PWSCF are:
     Max number of different atomic species (ntypx) = 10
     Max number of k-points (npk) =  40000
     Max angular momentum in pseudopotentials (lmaxx) =  4

     Atomic positions and unit cell read from directory:
     ./tmp/crsi2n4.save/
 
     Message from routine setup:
     no reason to have ecutrho>4*ecutwfc
 
     Subspace diagonalization in iterative solution of the eigenvalue problem:
     a serial algorithm will be used

 
     G-vector sticks info
     --------------------
     sticks:   dense  smooth     PW     G-vecs:    dense   smooth      PW
     Sum         835     661    199               138087    98707   15787
 
     Using Slab Decomposition
 


     bravais-lattice index     =            4
     lattice parameter (alat)  =       5.4819  a.u.
     unit-cell volume          =    1021.2726 (a.u.)^3
     number of atoms/cell      =            7
     number of atomic types    =            3
     number of electrons       =        42.00
     number of Kohn-Sham states=           21
     kinetic-energy cutoff     =      80.0000  Ry
     charge density cutoff     =     400.0000  Ry
     Exchange-correlation= PBE
                           (   1   4   3   4   0   0   0)

     GPU acceleration is ACTIVE.  1 visible GPUs per MPI rank
     GPU-aware MPI enabled


     GPU used by master process:

        Device Number: 0
        Device name: NVIDIA RTX A2000 12GB
        Compute capability : 86
        Ratio of single to double precision performance  : 64
        Memory Clock Rate (KHz): 6001000
        Memory Bus Width (bits): 192
        Peak Memory Bandwidth (GB/s): 288.05

     celldm(1)=   5.481869  celldm(2)=   0.000000  celldm(3)=   7.158552
     celldm(4)=   0.000000  celldm(5)=   0.000000  celldm(6)=   0.000000

     crystal axes: (cart. coord. in units of alat)
               a(1) = (   1.000000   0.000000   0.000000 )  
               a(2) = (  -0.500000   0.866025   0.000000 )  
               a(3) = (   0.000000   0.000000   7.158552 )  

     reciprocal axes: (cart. coord. in units 2 pi/alat)
               b(1) = (  1.000000  0.577350 -0.000000 )  
               b(2) = (  0.000000  1.154701  0.000000 )  
               b(3) = (  0.000000 -0.000000  0.139693 )  


     PseudoPot. # 1 for Cr read from file:
     /home/rao/Desktop/pseudo/ONCVPSP/sg15/Cr_ONCV_PBE_sr.upf
     MD5 check sum: 8c25700f94aee329d8014e8d8708abb4
     Pseudo is Norm-conserving, Zval = 14.0
     Generated using ONCVPSP code by D. R. Hamann
     Using radial grid of 1490 points,  6 beta functions with: 
                l(1) =   0
                l(2) =   0
                l(3) =   1
                l(4) =   1
                l(5) =   2
                l(6) =   2

     PseudoPot. # 2 for Si read from file:
     /home/rao/Desktop/pseudo/ONCVPSP/sg15/Si_ONCV_PBE_sr.upf
     MD5 check sum: 8553c464762ac42b85b1eed164b4d029
     Pseudo is Norm-conserving, Zval =  4.0
     Generated using ONCVPSP code by D. R. Hamann
     Using radial grid of 1510 points,  4 beta functions with: 
                l(1) =   0
                l(2) =   0
                l(3) =   1
                l(4) =   1

     PseudoPot. # 3 for N  read from file:
     /home/rao/Desktop/pseudo/ONCVPSP/sg15/N_ONCV_PBE_sr.upf
     MD5 check sum: 584dff68b02d160f04ff099e3496afa1
     Pseudo is Norm-conserving, Zval =  5.0
     Generated using ONCVPSP code by D. R. Hamann
     Using radial grid of 1058 points,  4 beta functions with: 
                l(1) =   0
                l(2) =   0
                l(3) =   1
                l(4) =   1

     atomic species   valence    mass     pseudopotential
     Cr               14.00    51.99600     Cr( 1.00)
     Si                4.00    28.08600     Si( 1.00)
     N                 5.00    14.00700     N ( 1.00)

     No symmetry found


                                    s                        frac. trans.

      isym =  1     identity                                     

 cryst.   s( 1) = (     1          0          0      )
                  (     0          1          0      )
                  (     0          0          1      )

 cart.    s( 1) = (  1.0000000  0.0000000  0.0000000 )
                  (  0.0000000  1.0000000  0.0000000 )
                  (  0.0000000  0.0000000  1.0000000 )


     point group C_1 (1)    
     there are  1 classes
     the character table:

       E    
A      1.00

     the symmetry operations in each class and the name of the first element:

     E        1
          identity                                               

   Cartesian axes

     site n.     atom                  positions (alat units)
         1        Cr     tau(   1) = (   0.7855717   0.1237897   3.0618962  )
         2        N      tau(   2) = (   0.2855074   0.4125036   2.6700018  )
         3        N      tau(   3) = (   0.2855465   0.4124777   3.4595859  )
         4        N      tau(   4) = (   0.7857893   0.1236585   4.2473862  )
         5        N      tau(   5) = (  -0.2141128   0.7009622   1.8909205  )
         6        Si     tau(   6) = (   0.2858795   0.4122915   2.0667952  )
         7        Si     tau(   7) = (   0.2857855   0.4123359   4.0673586  )

   Crystallographic axes

     site n.     atom                  positions (cryst. coord.)
         1        Cr     tau(   1) = (  0.8570417  0.1429400  0.4277256  )
         2        N      tau(   2) = (  0.5236664  0.4763181  0.3729807  )
         3        N      tau(   3) = (  0.5236906  0.4762882  0.4832801  )
         4        N      tau(   4) = (  0.8571836  0.1427886  0.5933304  )
         5        N      tau(   5) = (  0.1905879  0.8094014  0.2641485  )
         6        Si     tau(   6) = (  0.5239161  0.4760732  0.2887169  )
         7        Si     tau(   7) = (  0.5238477  0.4761245  0.5681818  )

     number of k points=   100
                       cart. coord. in units 2pi/alat
        k(    1) = (   0.0000000   0.0000000   0.0000000), wk =   0.0102041
        k(    2) = (   0.0000000   0.0824786   0.0000000), wk =   0.0204082
        k(    3) = (   0.0000000   0.1649572   0.0000000), wk =   0.0204082
        k(    4) = (   0.0000000   0.2474358   0.0000000), wk =   0.0204082
        k(    5) = (   0.0000000   0.3299144   0.0000000), wk =   0.0204082
        k(    6) = (   0.0000000   0.4123930   0.0000000), wk =   0.0204082
        k(    7) = (   0.0000000   0.4948717   0.0000000), wk =   0.0204082
        k(    8) = (   0.0000000  -0.5773503   0.0000000), wk =   0.0102041
        k(    9) = (   0.0714286   0.1237179   0.0000000), wk =   0.0204082
        k(   10) = (   0.0714286   0.2061965   0.0000000), wk =   0.0204082
        k(   11) = (   0.0714286   0.2886751   0.0000000), wk =   0.0204082
        k(   12) = (   0.0714286   0.3711537   0.0000000), wk =   0.0204082
        k(   13) = (   0.0714286   0.4536324   0.0000000), wk =   0.0204082
        k(   14) = (   0.0714286   0.5361110   0.0000000), wk =   0.0204082
        k(   15) = (   0.1428571   0.2474358   0.0000000), wk =   0.0204082
        k(   16) = (   0.1428571   0.3299144   0.0000000), wk =   0.0204082
        k(   17) = (   0.1428571   0.4123930   0.0000000), wk =   0.0204082
        k(   18) = (   0.1428571   0.4948717   0.0000000), wk =   0.0204082
        k(   19) = (   0.1428571   0.5773503   0.0000000), wk =   0.0204082
        k(   20) = (   0.2142857   0.3711537   0.0000000), wk =   0.0204082
        k(   21) = (   0.2142857   0.4536324   0.0000000), wk =   0.0204082
        k(   22) = (   0.2142857   0.5361110   0.0000000), wk =   0.0204082
        k(   23) = (   0.2857143   0.4948717   0.0000000), wk =   0.0204082
        k(   24) = (   0.2857143   0.5773503   0.0000000), wk =   0.0204082
        k(   25) = (  -0.0714286   0.0412393   0.0000000), wk =   0.0204082
        k(   26) = (   0.0714286   0.0412393   0.0000000), wk =   0.0204082
        k(   27) = (  -0.1428571   0.0824786   0.0000000), wk =   0.0204082
        k(   28) = (   0.1428571   0.0824786   0.0000000), wk =   0.0204082
        k(   29) = (  -0.2142857   0.1237179   0.0000000), wk =   0.0204082
        k(   30) = (   0.2142857   0.1237179   0.0000000), wk =   0.0204082
        k(   31) = (  -0.2857143   0.1649572   0.0000000), wk =   0.0204082
        k(   32) = (   0.2857143   0.1649572   0.0000000), wk =   0.0204082
        k(   33) = (  -0.3571429   0.2061965   0.0000000), wk =   0.0204082
        k(   34) = (   0.3571429   0.2061965   0.0000000), wk =   0.0204082
        k(   35) = (  -0.4285714   0.2474358   0.0000000), wk =   0.0204082
        k(   36) = (   0.4285714   0.2474358   0.0000000), wk =   0.0204082
        k(   37) = (   0.5000000  -0.2886751   0.0000000), wk =   0.0102041
        k(   38) = (  -0.5000000  -0.2886751   0.0000000), wk =   0.0102041
        k(   39) = (  -0.0714286   0.1237179   0.0000000), wk =   0.0204082
        k(   40) = (   0.1428571   0.0000000   0.0000000), wk =   0.0204082
        k(   41) = (  -0.0714286   0.2061965   0.0000000), wk =   0.0204082
        k(   42) = (  -0.1428571   0.1649572   0.0000000), wk =   0.0204082
        k(   43) = (   0.2142857   0.0412393   0.0000000), wk =   0.0204082
        k(   44) = (  -0.1428571  -0.1649572   0.0000000), wk =   0.0204082
        k(   45) = (   0.2142857  -0.0412393   0.0000000), wk =   0.0204082
        k(   46) = (  -0.0714286   0.2886751   0.0000000), wk =   0.0204082
        k(   47) = (  -0.2142857   0.2061965   0.0000000), wk =   0.0204082
        k(   48) = (   0.2857143   0.0824786   0.0000000), wk =   0.0204082
        k(   49) = (  -0.2142857  -0.2061965   0.0000000), wk =   0.0204082
        k(   50) = (   0.2857143  -0.0824786   0.0000000), wk =   0.0204082
        k(   51) = (  -0.0714286   0.3711537   0.0000000), wk =   0.0204082
        k(   52) = (  -0.2857143   0.2474358   0.0000000), wk =   0.0204082
        k(   53) = (   0.3571429   0.1237179   0.0000000), wk =   0.0204082
        k(   54) = (  -0.2857143  -0.2474358   0.0000000), wk =   0.0204082
        k(   55) = (   0.3571429  -0.1237179   0.0000000), wk =   0.0204082
        k(   56) = (  -0.0714286   0.4536324   0.0000000), wk =   0.0204082
        k(   57) = (  -0.3571429   0.2886751   0.0000000), wk =   0.0204082
        k(   58) = (   0.4285714   0.1649572   0.0000000), wk =   0.0204082
        k(   59) = (  -0.3571429  -0.2886751   0.0000000), wk =   0.0204082
        k(   60) = (   0.4285714  -0.1649572   0.0000000), wk =   0.0204082
        k(   61) = (  -0.0714286   0.5361110   0.0000000), wk =   0.0204082
        k(   62) = (  -0.4285714   0.3299144   0.0000000), wk =   0.0204082
        k(   63) = (   0.5000000   0.2061965   0.0000000), wk =   0.0204082
        k(   64) = (  -0.4285714  -0.3299144   0.0000000), wk =   0.0204082
        k(   65) = (   0.5000000  -0.2061965   0.0000000), wk =   0.0204082
        k(   66) = (  -0.1428571   0.2474358   0.0000000), wk =   0.0204082
        k(   67) = (   0.2857143   0.0000000   0.0000000), wk =   0.0204082
        k(   68) = (  -0.1428571   0.3299144   0.0000000), wk =   0.0204082
        k(   69) = (  -0.2142857   0.2886751   0.0000000), wk =   0.0204082
        k(   70) = (   0.3571429   0.0412393   0.0000000), wk =   0.0204082
        k(   71) = (  -0.2142857  -0.2886751   0.0000000), wk =   0.0204082
        k(   72) = (   0.3571429  -0.0412393   0.0000000), wk =   0.0204082
        k(   73) = (  -0.1428571   0.4123930   0.0000000), wk =   0.0204082
        k(   74) = (  -0.2857143   0.3299144   0.0000000), wk =   0.0204082
        k(   75) = (   0.4285714   0.0824786   0.0000000), wk =   0.0204082
        k(   76) = (  -0.2857143  -0.3299144   0.0000000), wk =   0.0204082
        k(   77) = (   0.4285714  -0.0824786   0.0000000), wk =   0.0204082
        k(   78) = (  -0.1428571   0.4948717   0.0000000), wk =   0.0204082
        k(   79) = (  -0.3571429   0.3711537   0.0000000), wk =   0.0204082
        k(   80) = (   0.5000000   0.1237179   0.0000000), wk =   0.0204082
        k(   81) = (  -0.3571429  -0.3711537   0.0000000), wk =   0.0204082
        k(   82) = (   0.5000000  -0.1237179   0.0000000), wk =   0.0204082
        k(   83) = (  -0.4285714   0.4123930   0.0000000), wk =   0.0204082
        k(   84) = (   0.5714286   0.1649572   0.0000000), wk =   0.0204082
        k(   85) = (  -0.2142857   0.3711537   0.0000000), wk =   0.0204082
        k(   86) = (   0.4285714   0.0000000   0.0000000), wk =   0.0204082
        k(   87) = (  -0.2142857   0.4536324   0.0000000), wk =   0.0204082
        k(   88) = (  -0.2857143   0.4123930   0.0000000), wk =   0.0204082
        k(   89) = (   0.5000000   0.0412393   0.0000000), wk =   0.0204082
        k(   90) = (  -0.2857143  -0.4123930   0.0000000), wk =   0.0204082
        k(   91) = (   0.5000000  -0.0412393   0.0000000), wk =   0.0204082
        k(   92) = (  -0.2142857   0.5361110   0.0000000), wk =   0.0204082
        k(   93) = (  -0.3571429   0.4536324   0.0000000), wk =   0.0204082
        k(   94) = (   0.5714286   0.0824786   0.0000000), wk =   0.0204082
        k(   95) = (  -0.3571429  -0.4536324   0.0000000), wk =   0.0204082
        k(   96) = (   0.5714286  -0.0824786   0.0000000), wk =   0.0204082
        k(   97) = (  -0.2857143   0.4948717   0.0000000), wk =   0.0204082
        k(   98) = (   0.5714286   0.0000000   0.0000000), wk =   0.0204082
        k(   99) = (  -0.3571429   0.5361110   0.0000000), wk =   0.0204082
        k(  100) = (   0.6428571   0.0412393   0.0000000), wk =   0.0204082

                       cryst. coord.
        k(    1) = (   0.0000000   0.0000000   0.0000000), wk =   0.0102041
        k(    2) = (   0.0000000   0.0714286   0.0000000), wk =   0.0204082
        k(    3) = (   0.0000000   0.1428571   0.0000000), wk =   0.0204082
        k(    4) = (   0.0000000   0.2142857   0.0000000), wk =   0.0204082
        k(    5) = (   0.0000000   0.2857143   0.0000000), wk =   0.0204082
        k(    6) = (   0.0000000   0.3571429   0.0000000), wk =   0.0204082
        k(    7) = (   0.0000000   0.4285714   0.0000000), wk =   0.0204082
        k(    8) = (   0.0000000  -0.5000000   0.0000000), wk =   0.0102041
        k(    9) = (   0.0714286   0.0714286   0.0000000), wk =   0.0204082
        k(   10) = (   0.0714286   0.1428571   0.0000000), wk =   0.0204082
        k(   11) = (   0.0714286   0.2142857   0.0000000), wk =   0.0204082
        k(   12) = (   0.0714286   0.2857143   0.0000000), wk =   0.0204082
        k(   13) = (   0.0714286   0.3571429   0.0000000), wk =   0.0204082
        k(   14) = (   0.0714286   0.4285714   0.0000000), wk =   0.0204082
        k(   15) = (   0.1428571   0.1428571   0.0000000), wk =   0.0204082
        k(   16) = (   0.1428571   0.2142857   0.0000000), wk =   0.0204082
        k(   17) = (   0.1428571   0.2857143   0.0000000), wk =   0.0204082
        k(   18) = (   0.1428571   0.3571429   0.0000000), wk =   0.0204082
        k(   19) = (   0.1428571   0.4285714   0.0000000), wk =   0.0204082
        k(   20) = (   0.2142857   0.2142857   0.0000000), wk =   0.0204082
        k(   21) = (   0.2142857   0.2857143   0.0000000), wk =   0.0204082
        k(   22) = (   0.2142857   0.3571429   0.0000000), wk =   0.0204082
        k(   23) = (   0.2857143   0.2857143   0.0000000), wk =   0.0204082
        k(   24) = (   0.2857143   0.3571429   0.0000000), wk =   0.0204082
        k(   25) = (  -0.0714286   0.0714286   0.0000000), wk =   0.0204082
        k(   26) = (   0.0714286   0.0000000   0.0000000), wk =   0.0204082
        k(   27) = (  -0.1428571   0.1428571   0.0000000), wk =   0.0204082
        k(   28) = (   0.1428571   0.0000000   0.0000000), wk =   0.0204082
        k(   29) = (  -0.2142857   0.2142857   0.0000000), wk =   0.0204082
        k(   30) = (   0.2142857   0.0000000   0.0000000), wk =   0.0204082
        k(   31) = (  -0.2857143   0.2857143   0.0000000), wk =   0.0204082
        k(   32) = (   0.2857143   0.0000000   0.0000000), wk =   0.0204082
        k(   33) = (  -0.3571429   0.3571429   0.0000000), wk =   0.0204082
        k(   34) = (   0.3571429  -0.0000000   0.0000000), wk =   0.0204082
        k(   35) = (  -0.4285714   0.4285714   0.0000000), wk =   0.0204082
        k(   36) = (   0.4285714   0.0000000   0.0000000), wk =   0.0204082
        k(   37) = (   0.5000000  -0.5000000   0.0000000), wk =   0.0102041
        k(   38) = (  -0.5000000   0.0000000   0.0000000), wk =   0.0102041
        k(   39) = (  -0.0714286   0.1428571   0.0000000), wk =   0.0204082
        k(   40) = (   0.1428571  -0.0714286   0.0000000), wk =   0.0204082
        k(   41) = (  -0.0714286   0.2142857   0.0000000), wk =   0.0204082
        k(   42) = (  -0.1428571   0.2142857   0.0000000), wk =   0.0204082
        k(   43) = (   0.2142857  -0.0714286   0.0000000), wk =   0.0204082
        k(   44) = (  -0.1428571  -0.0714286   0.0000000), wk =   0.0204082
        k(   45) = (   0.2142857  -0.1428571   0.0000000), wk =   0.0204082
        k(   46) = (  -0.0714286   0.2857143   0.0000000), wk =   0.0204082
        k(   47) = (  -0.2142857   0.2857143   0.0000000), wk =   0.0204082
        k(   48) = (   0.2857143  -0.0714286   0.0000000), wk =   0.0204082
        k(   49) = (  -0.2142857  -0.0714286   0.0000000), wk =   0.0204082
        k(   50) = (   0.2857143  -0.2142857   0.0000000), wk =   0.0204082
        k(   51) = (  -0.0714286   0.3571429   0.0000000), wk =   0.0204082
        k(   52) = (  -0.2857143   0.3571429   0.0000000), wk =   0.0204082
        k(   53) = (   0.3571429  -0.0714286   0.0000000), wk =   0.0204082
        k(   54) = (  -0.2857143  -0.0714286   0.0000000), wk =   0.0204082
        k(   55) = (   0.3571429  -0.2857143   0.0000000), wk =   0.0204082
        k(   56) = (  -0.0714286   0.4285714   0.0000000), wk =   0.0204082
        k(   57) = (  -0.3571429   0.4285714   0.0000000), wk =   0.0204082
        k(   58) = (   0.4285714  -0.0714286   0.0000000), wk =   0.0204082
        k(   59) = (  -0.3571429  -0.0714286   0.0000000), wk =   0.0204082
        k(   60) = (   0.4285714  -0.3571429   0.0000000), wk =   0.0204082
        k(   61) = (  -0.0714286   0.5000000   0.0000000), wk =   0.0204082
        k(   62) = (  -0.4285714   0.5000000   0.0000000), wk =   0.0204082
        k(   63) = (   0.5000000  -0.0714286   0.0000000), wk =   0.0204082
        k(   64) = (  -0.4285714  -0.0714286   0.0000000), wk =   0.0204082
        k(   65) = (   0.5000000  -0.4285714   0.0000000), wk =   0.0204082
        k(   66) = (  -0.1428571   0.2857143   0.0000000), wk =   0.0204082
        k(   67) = (   0.2857143  -0.1428571   0.0000000), wk =   0.0204082
        k(   68) = (  -0.1428571   0.3571429   0.0000000), wk =   0.0204082
        k(   69) = (  -0.2142857   0.3571429   0.0000000), wk =   0.0204082
        k(   70) = (   0.3571429  -0.1428571   0.0000000), wk =   0.0204082
        k(   71) = (  -0.2142857  -0.1428571   0.0000000), wk =   0.0204082
        k(   72) = (   0.3571429  -0.2142857   0.0000000), wk =   0.0204082
        k(   73) = (  -0.1428571   0.4285714   0.0000000), wk =   0.0204082
        k(   74) = (  -0.2857143   0.4285714   0.0000000), wk =   0.0204082
        k(   75) = (   0.4285714  -0.1428571   0.0000000), wk =   0.0204082
        k(   76) = (  -0.2857143  -0.1428571   0.0000000), wk =   0.0204082
        k(   77) = (   0.4285714  -0.2857143   0.0000000), wk =   0.0204082
        k(   78) = (  -0.1428571   0.5000000   0.0000000), wk =   0.0204082
        k(   79) = (  -0.3571429   0.5000000   0.0000000), wk =   0.0204082
        k(   80) = (   0.5000000  -0.1428571   0.0000000), wk =   0.0204082
        k(   81) = (  -0.3571429  -0.1428571   0.0000000), wk =   0.0204082
        k(   82) = (   0.5000000  -0.3571429   0.0000000), wk =   0.0204082
        k(   83) = (  -0.4285714   0.5714286   0.0000000), wk =   0.0204082
        k(   84) = (   0.5714286  -0.1428571   0.0000000), wk =   0.0204082
        k(   85) = (  -0.2142857   0.4285714   0.0000000), wk =   0.0204082
        k(   86) = (   0.4285714  -0.2142857   0.0000000), wk =   0.0204082
        k(   87) = (  -0.2142857   0.5000000   0.0000000), wk =   0.0204082
        k(   88) = (  -0.2857143   0.5000000   0.0000000), wk =   0.0204082
        k(   89) = (   0.5000000  -0.2142857   0.0000000), wk =   0.0204082
        k(   90) = (  -0.2857143  -0.2142857   0.0000000), wk =   0.0204082
        k(   91) = (   0.5000000  -0.2857143   0.0000000), wk =   0.0204082
        k(   92) = (  -0.2142857   0.5714286   0.0000000), wk =   0.0204082
        k(   93) = (  -0.3571429   0.5714286   0.0000000), wk =   0.0204082
        k(   94) = (   0.5714286  -0.2142857   0.0000000), wk =   0.0204082
        k(   95) = (  -0.3571429  -0.2142857   0.0000000), wk =   0.0204082
        k(   96) = (   0.5714286  -0.3571429   0.0000000), wk =   0.0204082
        k(   97) = (  -0.2857143   0.5714286   0.0000000), wk =   0.0204082
        k(   98) = (   0.5714286  -0.2857143   0.0000000), wk =   0.0204082
        k(   99) = (  -0.3571429   0.6428571   0.0000000), wk =   0.0204082
        k(  100) = (   0.6428571  -0.2857143   0.0000000), wk =   0.0204082

     Dense  grid:   138087 G-vectors     FFT dimensions: (  36,  36, 250)

     Smooth grid:    98707 G-vectors     FFT dimensions: (  32,  32, 225)

     Dynamical RAM for                 wfc:       3.95 MB

     Dynamical RAM for     wfc (w. buffer):       3.95 MB

     Dynamical RAM for           str. fact:       6.32 MB

     Dynamical RAM for           local pot:       0.00 MB

     Dynamical RAM for          nlocal pot:      12.43 MB

     Dynamical RAM for                qrad:       4.82 MB

     Dynamical RAM for          rho,v,vnew:      13.74 MB

     Dynamical RAM for           G-vectors:       8.65 MB

     Dynamical RAM for          h,s,v(r/c):       0.08 MB

     Dynamical RAM for          <psi|beta>:       0.02 MB

     Dynamical RAM for                 psi:       7.91 MB

     Dynamical RAM for                hpsi:       7.91 MB

     Dynamical RAM for      wfcinit/wfcrot:       7.92 MB

     Estimated static dynamical RAM per process >      70.70 MB

     Estimated max dynamical RAM per process >      86.62 MB
 ----2D----2D----2D----2D----2D----2D----2D----2D----2D----2D----2D----2D
  The code is running with the 2D cutoff
  Please refer to:
  Sohier, T., Calandra, M., & Mauri, F. (2017), 
  Density functional perturbation theory for gated two-dimensional heterostructures:
  Theoretical developments and application to flexural phonons in graphene.
  Physical Review B, 96(7), 75448. https://doi.org/10.1103/PhysRevB.96.075448
 ----2D----2D----2D----2D----2D----2D----2D----2D----2D----2D----2D----2D

     The potential is recalculated from file :
     ./tmp/crsi2n4.save/charge-density

     Starting wfcs are   34 randomized atomic wfcs

     Band Structure Calculation
     Davidson diagonalization with overlap

     Computing kpt #:     1  of   100
     total cpu time spent up to now is        3.6 secs

     Computing kpt #:     2  of   100
     total cpu time spent up to now is        5.6 secs

     Computing kpt #:     3  of   100
     total cpu time spent up to now is        7.6 secs

     Computing kpt #:     4  of   100
     total cpu time spent up to now is        9.5 secs

     Computing kpt #:     5  of   100
     total cpu time spent up to now is       11.4 secs

     Computing kpt #:     6  of   100
     total cpu time spent up to now is       13.5 secs

     Computing kpt #:     7  of   100
     total cpu time spent up to now is       15.6 secs

     Computing kpt #:     8  of   100
     total cpu time spent up to now is       17.8 secs

     Computing kpt #:     9  of   100
     total cpu time spent up to now is       19.7 secs

     Computing kpt #:    10  of   100
     total cpu time spent up to now is       21.8 secs

     Computing kpt #:    11  of   100
     total cpu time spent up to now is       23.7 secs

     Computing kpt #:    12  of   100
     total cpu time spent up to now is       25.7 secs

     Computing kpt #:    13  of   100
     total cpu time spent up to now is       27.9 secs

     Computing kpt #:    14  of   100
     total cpu time spent up to now is       30.1 secs

     Computing kpt #:    15  of   100
     total cpu time spent up to now is       32.1 secs

     Computing kpt #:    16  of   100
     total cpu time spent up to now is       34.2 secs

     Computing kpt #:    17  of   100
     total cpu time spent up to now is       36.2 secs

     Computing kpt #:    18  of   100
     total cpu time spent up to now is       38.4 secs

     Computing kpt #:    19  of   100
     total cpu time spent up to now is       40.6 secs

     Computing kpt #:    20  of   100
     total cpu time spent up to now is       42.6 secs

     Computing kpt #:    21  of   100
     total cpu time spent up to now is       44.6 secs

     Computing kpt #:    22  of   100
     total cpu time spent up to now is       46.6 secs

     Computing kpt #:    23  of   100
     total cpu time spent up to now is       48.5 secs

     Computing kpt #:    24  of   100
     total cpu time spent up to now is       50.4 secs

     Computing kpt #:    25  of   100
     total cpu time spent up to now is       52.3 secs

     Computing kpt #:    26  of   100
     total cpu time spent up to now is       54.2 secs

     Computing kpt #:    27  of   100
     total cpu time spent up to now is       56.1 secs

     Computing kpt #:    28  of   100
     total cpu time spent up to now is       58.0 secs

     Computing kpt #:    29  of   100
     total cpu time spent up to now is       59.9 secs

     Computing kpt #:    30  of   100
     total cpu time spent up to now is       61.8 secs

     Computing kpt #:    31  of   100
     total cpu time spent up to now is       63.8 secs

     Computing kpt #:    32  of   100
     total cpu time spent up to now is       65.7 secs

     Computing kpt #:    33  of   100
     total cpu time spent up to now is       67.8 secs

     Computing kpt #:    34  of   100
     total cpu time spent up to now is       70.0 secs

     Computing kpt #:    35  of   100
     total cpu time spent up to now is       72.3 secs

     Computing kpt #:    36  of   100
     total cpu time spent up to now is       74.4 secs

     Computing kpt #:    37  of   100
     total cpu time spent up to now is       76.6 secs

     Computing kpt #:    38  of   100
     total cpu time spent up to now is       78.9 secs

     Computing kpt #:    39  of   100
     total cpu time spent up to now is       81.0 secs

     Computing kpt #:    40  of   100
     total cpu time spent up to now is       83.0 secs

     Computing kpt #:    41  of   100
     total cpu time spent up to now is       85.1 secs

     Computing kpt #:    42  of   100
     total cpu time spent up to now is       87.2 secs

     Computing kpt #:    43  of   100
     total cpu time spent up to now is       89.2 secs

     Computing kpt #:    44  of   100
     total cpu time spent up to now is       91.1 secs

     Computing kpt #:    45  of   100
     total cpu time spent up to now is       93.1 secs

     Computing kpt #:    46  of   100
     total cpu time spent up to now is       95.1 secs

     Computing kpt #:    47  of   100
     total cpu time spent up to now is       97.0 secs

     Computing kpt #:    48  of   100
     total cpu time spent up to now is       98.9 secs

     Computing kpt #:    49  of   100
     total cpu time spent up to now is      100.9 secs

     Computing kpt #:    50  of   100
     total cpu time spent up to now is      102.8 secs

     Computing kpt #:    51  of   100
     total cpu time spent up to now is      104.8 secs

     Computing kpt #:    52  of   100
     total cpu time spent up to now is      107.0 secs

     Computing kpt #:    53  of   100
     total cpu time spent up to now is      109.1 secs

     Computing kpt #:    54  of   100
     total cpu time spent up to now is      111.2 secs

     Computing kpt #:    55  of   100
     total cpu time spent up to now is      113.2 secs

     Computing kpt #:    56  of   100
     total cpu time spent up to now is      115.4 secs

     Computing kpt #:    57  of   100
     total cpu time spent up to now is      117.7 secs

     Computing kpt #:    58  of   100
     total cpu time spent up to now is      120.0 secs

     Computing kpt #:    59  of   100
     total cpu time spent up to now is      122.3 secs

     Computing kpt #:    60  of   100
     total cpu time spent up to now is      124.5 secs

     Computing kpt #:    61  of   100
     total cpu time spent up to now is      126.9 secs

     Computing kpt #:    62  of   100
     total cpu time spent up to now is      129.2 secs

     Computing kpt #:    63  of   100
     total cpu time spent up to now is      131.5 secs

     Computing kpt #:    64  of   100
     total cpu time spent up to now is      133.9 secs

     Computing kpt #:    65  of   100
     total cpu time spent up to now is      136.1 secs

     Computing kpt #:    66  of   100
     total cpu time spent up to now is      138.1 secs

     Computing kpt #:    67  of   100
     total cpu time spent up to now is      140.2 secs

     Computing kpt #:    68  of   100
     total cpu time spent up to now is      142.3 secs

     Computing kpt #:    69  of   100
     total cpu time spent up to now is      144.4 secs

     Computing kpt #:    70  of   100
     total cpu time spent up to now is      146.5 secs

     Computing kpt #:    71  of   100
     total cpu time spent up to now is      148.5 secs

     Computing kpt #:    72  of   100
     total cpu time spent up to now is      150.6 secs

     Computing kpt #:    73  of   100
     total cpu time spent up to now is      153.0 secs

     Computing kpt #:    74  of   100
     total cpu time spent up to now is      155.1 secs

     Computing kpt #:    75  of   100
     total cpu time spent up to now is      157.3 secs

     Computing kpt #:    76  of   100
     total cpu time spent up to now is      159.6 secs

     Computing kpt #:    77  of   100
     total cpu time spent up to now is      161.8 secs

     Computing kpt #:    78  of   100
     total cpu time spent up to now is      164.1 secs

     Computing kpt #:    79  of   100
     total cpu time spent up to now is      166.5 secs

     Computing kpt #:    80  of   100
     total cpu time spent up to now is      168.6 secs

     Computing kpt #:    81  of   100
     total cpu time spent up to now is      170.9 secs

     Computing kpt #:    82  of   100
     total cpu time spent up to now is      173.3 secs

     Computing kpt #:    83  of   100
     total cpu time spent up to now is      175.6 secs

     Computing kpt #:    84  of   100
     total cpu time spent up to now is      177.8 secs

     Computing kpt #:    85  of   100
     total cpu time spent up to now is      180.0 secs

     Computing kpt #:    86  of   100
     total cpu time spent up to now is      182.1 secs

     Computing kpt #:    87  of   100
     total cpu time spent up to now is      184.2 secs

     Computing kpt #:    88  of   100
     total cpu time spent up to now is      186.2 secs

     Computing kpt #:    89  of   100
     total cpu time spent up to now is      188.4 secs

     Computing kpt #:    90  of   100
     total cpu time spent up to now is      190.5 secs

     Computing kpt #:    91  of   100
     total cpu time spent up to now is      192.6 secs

     Computing kpt #:    92  of   100
     total cpu time spent up to now is      194.8 secs

     Computing kpt #:    93  of   100
     total cpu time spent up to now is      196.9 secs

     Computing kpt #:    94  of   100
     total cpu time spent up to now is      199.1 secs

     Computing kpt #:    95  of   100
     total cpu time spent up to now is      201.1 secs

     Computing kpt #:    96  of   100
     total cpu time spent up to now is      203.3 secs

     Computing kpt #:    97  of   100
     total cpu time spent up to now is      205.2 secs

     Computing kpt #:    98  of   100
     total cpu time spent up to now is      207.3 secs

     Computing kpt #:    99  of   100
     total cpu time spent up to now is      209.3 secs

     Computing kpt #:   100  of   100
     total cpu time spent up to now is      211.3 secs

     ethr =  2.38E-13,  avg # of iterations = 99.6

     total cpu time spent up to now is      211.3 secs

     End of band structure calculation

          k = 0.0000 0.0000 0.0000 ( 12369 PWs)   bands (ev):

   -77.7450 -48.9734 -48.9734 -48.8712 -24.0590 -23.9641 -21.4109 -20.0080
   -13.6170 -10.9324  -9.2029  -9.2028  -9.1435  -9.1430  -9.0534  -8.7106
    -8.7105  -7.4241  -7.4229  -7.2006  -5.2120

     occupation numbers 
     1.0000   1.0000   1.0000   1.0000   1.0000   1.0000   1.0000   1.0000
     1.0000   1.0000   1.0000   1.0000   1.0000   1.0000   1.0000   1.0000
     1.0000   1.0000   1.0000   1.0000   1.0000

          k = 0.0000 0.0825 0.0000 ( 12357 PWs)   bands (ev):

   -77.7437 -48.9843 -48.9759 -48.8693 -23.9758 -23.8820 -21.3497 -19.9759
   -13.5540 -10.9044  -9.6344  -9.5554  -9.2813  -9.2292  -8.9297  -8.8532
    -8.6599  -7.5611  -7.5066  -7.0930  -5.2741

     occupation numbers 
     1.0000   1.0000   1.0000   1.0000   1.0000   1.0000   1.0000   1.0000
     1.0000   1.0000   1.0000   1.0000   1.0000   1.0000   1.0000   1.0000
     1.0000   1.0000   1.0000   1.0000   1.0000

          k = 0.0000 0.1650 0.0000 ( 12331 PWs)   bands (ev):

   -77.7400 -49.0149 -48.9829 -48.8638 -23.7306 -23.6401 -21.1757 -19.8859
   -13.3885 -10.8767 -10.5293 -10.4775  -9.4970  -9.4568  -9.2729  -8.7421
    -8.5068  -7.8045  -7.7238  -7.0874  -5.4991

     occupation numbers 
     1.0000   1.0000   1.0000   1.0000   1.0000   1.0000   1.0000   1.0000
     1.0000   1.0000   1.0000   1.0000   1.0000   1.0000   1.0000   1.0000
     1.0000   1.0000   1.0000   1.0000   1.0000

          k = 0.0000 0.2474 0.0000 ( 12299 PWs)   bands (ev):

   -77.7346 -49.0588 -48.9930 -48.8560 -23.3377 -23.2521 -20.9195 -19.7583
   -13.2337 -11.7965 -11.5479 -10.6639  -9.7904  -9.7692  -9.7550  -8.5609
    -8.2723  -8.1513  -8.0020  -7.2154  -5.8213

     occupation numbers 
     1.0000   1.0000   1.0000   1.0000   1.0000   1.0000   1.0000   1.0000
     1.0000   1.0000   1.0000   1.0000   1.0000   1.0000   1.0000   1.0000
     1.0000   1.0000   1.0000   1.0000   1.0000

          k = 0.0000 0.3299 0.0000 ( 12324 PWs)   bands (ev):

   -77.7287 -49.1072 -49.0042 -48.8473 -22.8263 -22.7471 -20.6349 -19.6300
   -13.5261 -12.9914 -12.1336 -10.6346 -10.2308 -10.0910 -10.0524  -8.6132
    -8.3191  -8.2944  -7.9760  -7.3326  -6.0714

     occupation numbers 
     1.0000   1.0000   1.0000   1.0000   1.0000   1.0000   1.0000   1.0000
     1.0000   1.0000   1.0000   1.0000   1.0000   1.0000   1.0000   1.0000
     1.0000   1.0000   1.0000   1.0000   1.0000

          k = 0.0000 0.4124 0.0000 ( 12346 PWs)   bands (ev):

   -77.7233 -49.1506 -49.0142 -48.8394 -22.2543 -22.1824 -20.3996 -19.5526
   -14.3514 -14.0363 -12.0853 -10.8916 -10.4287 -10.3413 -10.2973  -8.9208
    -8.5216  -8.1376  -7.7028  -7.3909  -6.1575

     occupation numbers 
     1.0000   1.0000   1.0000   1.0000   1.0000   1.0000   1.0000   1.0000
     1.0000   1.0000   1.0000   1.0000   1.0000   1.0000   1.0000   1.0000
     1.0000   1.0000   1.0000   1.0000   1.0000

          k = 0.0000 0.4949 0.0000 ( 12340 PWs)   bands (ev):

   -77.7196 -49.1804 -49.0212 -48.8340 -21.7397 -21.6757 -20.2902 -19.5628
   -15.0441 -14.7623 -11.9415 -11.2220 -10.5252 -10.5045 -10.4565  -9.0610
    -8.6704  -7.9494  -7.4978  -7.4081  -6.1353

     occupation numbers 
     1.0000   1.0000   1.0000   1.0000   1.0000   1.0000   1.0000   1.0000
     1.0000   1.0000   1.0000   1.0000   1.0000   1.0000   1.0000   1.0000
     1.0000   1.0000   1.0000   1.0000   1.0000

          k = 0.0000-0.5774 0.0000 ( 12330 PWs)   bands (ev):

   -77.7183 -49.1911 -49.0236 -48.8321 -21.5099 -21.4495 -20.2838 -19.5975
   -15.3055 -15.0243 -11.8674 -11.3714 -10.5741 -10.5609 -10.5115  -9.0892
    -8.7219  -7.8573  -7.4211  -7.4117  -6.1132

     occupation numbers 
     1.0000   1.0000   1.0000   1.0000   1.0000   1.0000   1.0000   1.0000
     1.0000   1.0000   1.0000   1.0000   1.0000   1.0000   1.0000   1.0000
     1.0000   1.0000   1.0000   1.0000   1.0000

          k = 0.0714 0.1237 0.0000 ( 12349 PWs)   bands (ev):

   -77.7412 -49.0047 -48.9811 -48.8656 -23.8116 -23.7200 -21.2320 -19.9148
   -13.4390 -10.8645 -10.2359 -10.1900  -9.4920  -9.4417  -9.0881  -8.7878
    -8.5732  -7.7245  -7.6719  -7.0522  -5.4216

     occupation numbers 
     1.0000   1.0000   1.0000   1.0000   1.0000   1.0000   1.0000   1.0000
     1.0000   1.0000   1.0000   1.0000   1.0000   1.0000   1.0000   1.0000
     1.0000   1.0000   1.0000   1.0000   1.0000

          k = 0.0714 0.2062 0.0000 ( 12322 PWs)   bands (ev):

   -77.7367 -49.0408 -48.9907 -48.8590 -23.4922 -23.4047 -21.0165 -19.8054
   -13.2674 -11.3092 -11.1284 -10.6778  -9.9031  -9.7734  -9.4345  -8.6230
    -8.3952  -8.1133  -7.8075  -7.1298  -5.7034

     occupation numbers 
     1.0000   1.0000   1.0000   1.0000   1.0000   1.0000   1.0000   1.0000
     1.0000   1.0000   1.0000   1.0000   1.0000   1.0000   1.0000   1.0000
     1.0000   1.0000   1.0000   1.0000   1.0000

          k = 0.0714 0.2887 0.0000 ( 12302 PWs)   bands (ev):

   -77.7310 -49.0856 -49.0027 -48.8507 -23.0386 -22.9568 -20.7447 -19.6758
   -13.2808 -12.4345 -11.9390 -10.6236 -10.3159 -10.1412  -9.8418  -8.6106
    -8.4220  -8.1510  -7.9611  -7.2807  -5.9928

     occupation numbers 
     1.0000   1.0000   1.0000   1.0000   1.0000   1.0000   1.0000   1.0000
     1.0000   1.0000   1.0000   1.0000   1.0000   1.0000   1.0000   1.0000
     1.0000   1.0000   1.0000   1.0000   1.0000

          k = 0.0714 0.3712 0.0000 ( 12340 PWs)   bands (ev):

   -77.7253 -49.1300 -49.0147 -48.8424 -22.4922 -22.4171 -20.4820 -19.5701
   -13.9104 -13.5287 -12.1100 -10.8308 -10.5343 -10.3893 -10.2188  -8.9890
    -8.3304  -8.1205  -7.8997  -7.3688  -6.1504

     occupation numbers 
     1.0000   1.0000   1.0000   1.0000   1.0000   1.0000   1.0000   1.0000
     1.0000   1.0000   1.0000   1.0000   1.0000   1.0000   1.0000   1.0000
     1.0000   1.0000   1.0000   1.0000   1.0000

          k = 0.0714 0.4536 0.0000 ( 12331 PWs)   bands (ev):

   -77.7208 -49.1655 -49.0243 -48.8357 -21.9347 -21.8673 -20.3102 -19.5381
   -14.6977 -14.4058 -11.9843 -11.1509 -10.7392 -10.5604 -10.4246  -9.1702
    -8.5037  -8.0011  -7.7285  -7.3639  -6.1546

     occupation numbers 
     1.0000   1.0000   1.0000   1.0000   1.0000   1.0000   1.0000   1.0000
     1.0000   1.0000   1.0000   1.0000   1.0000   1.0000   1.0000   1.0000
     1.0000   1.0000   1.0000   1.0000   1.0000

          k = 0.0714 0.5361 0.0000 ( 12353 PWs)   bands (ev):

   -77.7183 -49.1851 -49.0297 -48.8321 -21.5337 -21.4726 -20.2695 -19.5766
   -15.1822 -14.9005 -11.8687 -11.3689 -10.8349 -10.7475 -10.5077  -9.1691
    -8.6774  -7.8649  -7.6281  -7.3393  -6.1054

     occupation numbers 
     1.0000   1.0000   1.0000   1.0000   1.0000   1.0000   1.0000   1.0000
     1.0000   1.0000   1.0000   1.0000   1.0000   1.0000   1.0000   1.0000
     1.0000   1.0000   1.0000   1.0000   1.0000

          k = 0.1429 0.2474 0.0000 ( 12284 PWs)   bands (ev):

   -77.7318 -49.0759 -49.0041 -48.8519 -23.1113 -23.0285 -20.7843 -19.6927
   -13.2168 -12.1467 -11.7523 -10.6179 -10.5134 -10.2777  -9.7090  -8.6491
    -8.4551  -8.2348  -7.8015  -7.2475  -5.9586

     occupation numbers 
     1.0000   1.0000   1.0000   1.0000   1.0000   1.0000   1.0000   1.0000
     1.0000   1.0000   1.0000   1.0000   1.0000   1.0000   1.0000   1.0000
     1.0000   1.0000   1.0000   1.0000   1.0000

          k = 0.1429 0.3299 0.0000 ( 12325 PWs)   bands (ev):

   -77.7264 -49.1136 -49.0201 -48.8440 -22.6182 -22.5413 -20.5309 -19.5818
   -13.5742 -13.0724 -12.0253 -11.0783 -10.9049 -10.4172 -10.0468  -9.1297
    -8.3171  -8.1484  -7.7843  -7.4052  -6.1482

     occupation numbers 
     1.0000   1.0000   1.0000   1.0000   1.0000   1.0000   1.0000   1.0000
     1.0000   1.0000   1.0000   1.0000   1.0000   1.0000   1.0000   1.0000
     1.0000   1.0000   1.0000   1.0000   1.0000

          k = 0.1429 0.4124 0.0000 ( 12354 PWs)   bands (ev):

   -77.7216 -49.1469 -49.0350 -48.8370 -22.0710 -22.0011 -20.3279 -19.5186
   -14.2636 -13.9357 -11.9855 -11.4823 -11.2744 -10.4674 -10.3250  -9.4153
    -8.2834  -8.1714  -7.8348  -7.3832  -6.1818

     occupation numbers 
     1.0000   1.0000   1.0000   1.0000   1.0000   1.0000   1.0000   1.0000
     1.0000   1.0000   1.0000   1.0000   1.0000   1.0000   1.0000   1.0000
     1.0000   1.0000   1.0000   1.0000   1.0000

          k = 0.1429 0.4949 0.0000 ( 12361 PWs)   bands (ev):

   -77.7183 -49.1697 -49.0454 -48.8321 -21.5844 -21.5217 -20.2408 -19.5322
   -14.8506 -14.5608 -11.9835 -11.7097 -11.3536 -10.7824 -10.4679  -9.3799
    -8.5360  -8.1553  -7.7724  -7.2850  -6.1028

     occupation numbers 
     1.0000   1.0000   1.0000   1.0000   1.0000   1.0000   1.0000   1.0000
     1.0000   1.0000   1.0000   1.0000   1.0000   1.0000   1.0000   1.0000
     1.0000   1.0000   1.0000   1.0000   1.0000

          k = 0.1429 0.5774 0.0000 ( 12348 PWs)   bands (ev):

   -77.7171 -49.1778 -49.0491 -48.8303 -21.3697 -21.3093 -20.2406 -19.5639
   -15.0768 -14.7908 -12.0154 -11.7847 -11.2414 -11.0113 -10.5421  -9.2684
    -8.7167  -8.1464  -7.7155  -7.2447  -6.0491

     occupation numbers 
     1.0000   1.0000   1.0000   1.0000   1.0000   1.0000   1.0000   1.0000
     1.0000   1.0000   1.0000   1.0000   1.0000   1.0000   1.0000   1.0000
     1.0000   1.0000   1.0000   1.0000   1.0000

          k = 0.2143 0.3712 0.0000 ( 12332 PWs)   bands (ev):

   -77.7219 -49.1374 -49.0417 -48.8374 -22.1195 -22.0488 -20.3353 -19.5116
   -14.0323 -13.6628 -11.9621 -11.7118 -11.6505 -10.3471 -10.2487  -9.5472
    -8.3769  -8.1874  -7.7105  -7.4637  -6.1952

     occupation numbers 
     1.0000   1.0000   1.0000   1.0000   1.0000   1.0000   1.0000   1.0000
     1.0000   1.0000   1.0000   1.0000   1.0000   1.0000   1.0000   1.0000
     1.0000   1.0000   1.0000   1.0000   1.0000

          k = 0.2143 0.4536 0.0000 ( 12345 PWs)   bands (ev):

   -77.7183 -49.1537 -49.0616 -48.8321 -21.6228 -21.5589 -20.2207 -19.4989
   -14.4827 -14.1628 -12.3890 -12.2293 -11.5822 -10.5192 -10.3994  -9.5937
    -8.6611  -8.2897  -7.7686  -7.2930  -6.1061

     occupation numbers 
     1.0000   1.0000   1.0000   1.0000   1.0000   1.0000   1.0000   1.0000
     1.0000   1.0000   1.0000   1.0000   1.0000   1.0000   1.0000   1.0000
     1.0000   1.0000   1.0000   1.0000   1.0000

          k = 0.2143 0.5361 0.0000 ( 12363 PWs)   bands (ev):

   -77.7162 -49.1617 -49.0737 -48.8291 -21.2764 -21.2156 -20.2062 -19.5332
   -14.7724 -14.4682 -12.6605 -12.5227 -11.3134 -10.7787 -10.5686  -9.3653
    -8.9274  -8.5014  -7.7030  -7.1741  -5.9891

     occupation numbers 
     1.0000   1.0000   1.0000   1.0000   1.0000   1.0000   1.0000   1.0000
     1.0000   1.0000   1.0000   1.0000   1.0000   1.0000   1.0000   1.0000
     1.0000   1.0000   1.0000   1.0000   1.0000

          k = 0.2857 0.4949 0.0000 ( 12384 PWs)   bands (ev):

   -77.7159 -49.1504 -49.0881 -48.8287 -21.2482 -21.1872 -20.1899 -19.5169
   -14.5415 -14.2016 -13.0648 -12.9470 -11.3194 -10.6645 -10.4233  -9.5483
    -9.1097  -8.5275  -7.7076  -7.1547  -5.9613

     occupation numbers 
     1.0000   1.0000   1.0000   1.0000   1.0000   1.0000   1.0000   1.0000
     1.0000   1.0000   1.0000   1.0000   1.0000   1.0000   1.0000   1.0000
     1.0000   1.0000   1.0000   1.0000   1.0000

          k = 0.2857 0.5774 0.0000 ( 12378 PWs)   bands (ev):

   -77.7151 -49.1450 -49.1017 -48.8275 -21.0938 -21.0294 -20.1995 -19.5353
   -14.5217 -14.1572 -13.3483 -13.2736 -11.1503 -10.7600 -10.3898  -9.6834
    -9.0763  -8.7500  -7.6684  -7.0954  -5.8786

     occupation numbers 
     1.0000   1.0000   1.0000   1.0000   1.0000   1.0000   1.0000   1.0000
     1.0000   1.0000   1.0000   1.0000   1.0000   1.0000   1.0000   1.0000
     1.0000   1.0000   1.0000   1.0000   1.0000

          k =-0.0714 0.0412 0.0000 ( 12357 PWs)   bands (ev):

   -77.7437 -48.9844 -48.9759 -48.8693 -23.9758 -23.8820 -21.3497 -19.9759
   -13.5540 -10.9043  -9.6345  -9.5556  -9.2813  -9.2289  -8.9299  -8.8532
    -8.6598  -7.5600  -7.5074  -7.0933  -5.2740

     occupation numbers 
     1.0000   1.0000   1.0000   1.0000   1.0000   1.0000   1.0000   1.0000
     1.0000   1.0000   1.0000   1.0000   1.0000   1.0000   1.0000   1.0000
     1.0000   1.0000   1.0000   1.0000   1.0000

          k = 0.0714 0.0412 0.0000 ( 12357 PWs)   bands (ev):

   -77.7437 -48.9843 -48.9759 -48.8693 -23.9758 -23.8820 -21.3497 -19.9759
   -13.5540 -10.9044  -9.6344  -9.5554  -9.2813  -9.2292  -8.9297  -8.8532
    -8.6599  -7.5611  -7.5066  -7.0930  -5.2741

     occupation numbers 
     1.0000   1.0000   1.0000   1.0000   1.0000   1.0000   1.0000   1.0000
     1.0000   1.0000   1.0000   1.0000   1.0000   1.0000   1.0000   1.0000
     1.0000   1.0000   1.0000   1.0000   1.0000

          k =-0.1429 0.0825 0.0000 ( 12331 PWs)   bands (ev):

   -77.7400 -49.0149 -48.9829 -48.8638 -23.7306 -23.6401 -21.1757 -19.8859
   -13.3885 -10.8766 -10.5293 -10.4778  -9.4970  -9.4565  -9.2731  -8.7421
    -8.5068  -7.8032  -7.7245  -7.0883  -5.4990

     occupation numbers 
     1.0000   1.0000   1.0000   1.0000   1.0000   1.0000   1.0000   1.0000
     1.0000   1.0000   1.0000   1.0000   1.0000   1.0000   1.0000   1.0000
     1.0000   1.0000   1.0000   1.0000   1.0000

          k = 0.1429 0.0825 0.0000 ( 12331 PWs)   bands (ev):

   -77.7400 -49.0149 -48.9829 -48.8638 -23.7306 -23.6401 -21.1757 -19.8859
   -13.3885 -10.8767 -10.5293 -10.4775  -9.4970  -9.4568  -9.2729  -8.7421
    -8.5068  -7.8045  -7.7238  -7.0874  -5.4991

     occupation numbers 
     1.0000   1.0000   1.0000   1.0000   1.0000   1.0000   1.0000   1.0000
     1.0000   1.0000   1.0000   1.0000   1.0000   1.0000   1.0000   1.0000
     1.0000   1.0000   1.0000   1.0000   1.0000

          k =-0.2143 0.1237 0.0000 ( 12299 PWs)   bands (ev):

   -77.7346 -49.0588 -48.9930 -48.8560 -23.3377 -23.2521 -20.9195 -19.7583
   -13.2339 -11.7964 -11.5479 -10.6638  -9.7904  -9.7693  -9.7547  -8.5609
    -8.2723  -8.1501  -8.0025  -7.2166  -5.8212

     occupation numbers 
     1.0000   1.0000   1.0000   1.0000   1.0000   1.0000   1.0000   1.0000
     1.0000   1.0000   1.0000   1.0000   1.0000   1.0000   1.0000   1.0000
     1.0000   1.0000   1.0000   1.0000   1.0000

          k = 0.2143 0.1237 0.0000 ( 12299 PWs)   bands (ev):

   -77.7346 -49.0588 -48.9930 -48.8560 -23.3377 -23.2521 -20.9195 -19.7583
   -13.2337 -11.7965 -11.5479 -10.6639  -9.7904  -9.7692  -9.7550  -8.5609
    -8.2723  -8.1513  -8.0020  -7.2154  -5.8213

     occupation numbers 
     1.0000   1.0000   1.0000   1.0000   1.0000   1.0000   1.0000   1.0000
     1.0000   1.0000   1.0000   1.0000   1.0000   1.0000   1.0000   1.0000
     1.0000   1.0000   1.0000   1.0000   1.0000

          k =-0.2857 0.1650 0.0000 ( 12324 PWs)   bands (ev):

   -77.7287 -49.1072 -49.0041 -48.8473 -22.8264 -22.7470 -20.6350 -19.6300
   -13.5263 -12.9913 -12.1336 -10.6346 -10.2306 -10.0909 -10.0522  -8.6125
    -8.3188  -8.2950  -7.9759  -7.3339  -6.0713

     occupation numbers 
     1.0000   1.0000   1.0000   1.0000   1.0000   1.0000   1.0000   1.0000
     1.0000   1.0000   1.0000   1.0000   1.0000   1.0000   1.0000   1.0000
     1.0000   1.0000   1.0000   1.0000   1.0000

          k = 0.2857 0.1650 0.0000 ( 12324 PWs)   bands (ev):

   -77.7287 -49.1072 -49.0042 -48.8473 -22.8263 -22.7471 -20.6349 -19.6300
   -13.5260 -12.9914 -12.1336 -10.6346 -10.2308 -10.0910 -10.0524  -8.6132
    -8.3190  -8.2944  -7.9760  -7.3326  -6.0714

     occupation numbers 
     1.0000   1.0000   1.0000   1.0000   1.0000   1.0000   1.0000   1.0000
     1.0000   1.0000   1.0000   1.0000   1.0000   1.0000   1.0000   1.0000
     1.0000   1.0000   1.0000   1.0000   1.0000

          k =-0.3571 0.2062 0.0000 ( 12346 PWs)   bands (ev):

   -77.7233 -49.1506 -49.0142 -48.8394 -22.2543 -22.1822 -20.3997 -19.5526
   -14.3516 -14.0361 -12.0856 -10.8916 -10.4280 -10.3413 -10.2972  -8.9204
    -8.5220  -8.1373  -7.7028  -7.3923  -6.1574

     occupation numbers 
     1.0000   1.0000   1.0000   1.0000   1.0000   1.0000   1.0000   1.0000
     1.0000   1.0000   1.0000   1.0000   1.0000   1.0000   1.0000   1.0000
     1.0000   1.0000   1.0000   1.0000   1.0000

          k = 0.3571 0.2062 0.0000 ( 12346 PWs)   bands (ev):

   -77.7233 -49.1506 -49.0142 -48.8394 -22.2543 -22.1824 -20.3996 -19.5526
   -14.3514 -14.0363 -12.0853 -10.8916 -10.4287 -10.3413 -10.2973  -8.9209
    -8.5216  -8.1376  -7.7028  -7.3909  -6.1575

     occupation numbers 
     1.0000   1.0000   1.0000   1.0000   1.0000   1.0000   1.0000   1.0000
     1.0000   1.0000   1.0000   1.0000   1.0000   1.0000   1.0000   1.0000
     1.0000   1.0000   1.0000   1.0000   1.0000

          k =-0.4286 0.2474 0.0000 ( 12340 PWs)   bands (ev):

   -77.7196 -49.1804 -49.0211 -48.8340 -21.7399 -21.6754 -20.2905 -19.5629
   -15.0443 -14.7620 -11.9422 -11.2215 -10.5245 -10.5045 -10.4563  -9.0607
    -8.6709  -7.9488  -7.4979  -7.4098  -6.1353

     occupation numbers 
     1.0000   1.0000   1.0000   1.0000   1.0000   1.0000   1.0000   1.0000
     1.0000   1.0000   1.0000   1.0000   1.0000   1.0000   1.0000   1.0000
     1.0000   1.0000   1.0000   1.0000   1.0000

          k = 0.4286 0.2474 0.0000 ( 12340 PWs)   bands (ev):

   -77.7196 -49.1804 -49.0212 -48.8340 -21.7397 -21.6757 -20.2902 -19.5628
   -15.0441 -14.7623 -11.9415 -11.2220 -10.5252 -10.5045 -10.4565  -9.0610
    -8.6704  -7.9494  -7.4978  -7.4081  -6.1353

     occupation numbers 
     1.0000   1.0000   1.0000   1.0000   1.0000   1.0000   1.0000   1.0000
     1.0000   1.0000   1.0000   1.0000   1.0000   1.0000   1.0000   1.0000
     1.0000   1.0000   1.0000   1.0000   1.0000

          k = 0.5000-0.2887 0.0000 ( 12330 PWs)   bands (ev):

   -77.7183 -49.1911 -49.0236 -48.8321 -21.5103 -21.4489 -20.2842 -19.5976
   -15.3057 -15.0240 -11.8686 -11.3705 -10.5734 -10.5609 -10.5114  -9.0890
    -8.7223  -7.8566  -7.4212  -7.4137  -6.1133

     occupation numbers 
     1.0000   1.0000   1.0000   1.0000   1.0000   1.0000   1.0000   1.0000
     1.0000   1.0000   1.0000   1.0000   1.0000   1.0000   1.0000   1.0000
     1.0000   1.0000   1.0000   1.0000   1.0000

          k =-0.5000-0.2887 0.0000 ( 12330 PWs)   bands (ev):

   -77.7183 -49.1911 -49.0236 -48.8321 -21.5099 -21.4495 -20.2838 -19.5975
   -15.3055 -15.0243 -11.8674 -11.3714 -10.5741 -10.5609 -10.5115  -9.0892
    -8.7219  -7.8573  -7.4211  -7.4117  -6.1132

     occupation numbers 
     1.0000   1.0000   1.0000   1.0000   1.0000   1.0000   1.0000   1.0000
     1.0000   1.0000   1.0000   1.0000   1.0000   1.0000   1.0000   1.0000
     1.0000   1.0000   1.0000   1.0000   1.0000

          k =-0.0714 0.1237 0.0000 ( 12349 PWs)   bands (ev):

   -77.7412 -49.0047 -48.9811 -48.8656 -23.8116 -23.7200 -21.2320 -19.9147
   -13.4390 -10.8644 -10.2359 -10.1903  -9.4920  -9.4414  -9.0883  -8.7879
    -8.5729  -7.7248  -7.6709  -7.0531  -5.4215

     occupation numbers 
     1.0000   1.0000   1.0000   1.0000   1.0000   1.0000   1.0000   1.0000
     1.0000   1.0000   1.0000   1.0000   1.0000   1.0000   1.0000   1.0000
     1.0000   1.0000   1.0000   1.0000   1.0000

          k = 0.1429 0.0000 0.0000 ( 12349 PWs)   bands (ev):

   -77.7412 -49.0047 -48.9811 -48.8656 -23.8116 -23.7200 -21.2320 -19.9147
   -13.4390 -10.8644 -10.2359 -10.1903  -9.4920  -9.4414  -9.0883  -8.7879
    -8.5729  -7.7248  -7.6709  -7.0532  -5.4215

     occupation numbers 
     1.0000   1.0000   1.0000   1.0000   1.0000   1.0000   1.0000   1.0000
     1.0000   1.0000   1.0000   1.0000   1.0000   1.0000   1.0000   1.0000
     1.0000   1.0000   1.0000   1.0000   1.0000

          k =-0.0714 0.2062 0.0000 ( 12322 PWs)   bands (ev):

   -77.7367 -49.0408 -48.9907 -48.8590 -23.4922 -23.4047 -21.0165 -19.8054
   -13.2674 -11.3092 -11.1285 -10.6778  -9.9031  -9.7732  -9.4346  -8.6232
    -8.3949  -8.1133  -7.8067  -7.1310  -5.7034

     occupation numbers 
     1.0000   1.0000   1.0000   1.0000   1.0000   1.0000   1.0000   1.0000
     1.0000   1.0000   1.0000   1.0000   1.0000   1.0000   1.0000   1.0000
     1.0000   1.0000   1.0000   1.0000   1.0000

          k =-0.1429 0.1650 0.0000 ( 12322 PWs)   bands (ev):

   -77.7367 -49.0408 -48.9907 -48.8590 -23.4922 -23.4047 -21.0165 -19.8054
   -13.2675 -11.3091 -11.1285 -10.6778  -9.9031  -9.7731  -9.4346  -8.6231
    -8.3950  -8.1130  -7.8068  -7.1314  -5.7033

     occupation numbers 
     1.0000   1.0000   1.0000   1.0000   1.0000   1.0000   1.0000   1.0000
     1.0000   1.0000   1.0000   1.0000   1.0000   1.0000   1.0000   1.0000
     1.0000   1.0000   1.0000   1.0000   1.0000

          k = 0.2143 0.0412 0.0000 ( 12322 PWs)   bands (ev):

   -77.7367 -49.0408 -48.9907 -48.8590 -23.4922 -23.4047 -21.0165 -19.8054
   -13.2674 -11.3092 -11.1285 -10.6778  -9.9031  -9.7732  -9.4346  -8.6232
    -8.3949  -8.1133  -7.8067  -7.1310  -5.7034

     occupation numbers 
     1.0000   1.0000   1.0000   1.0000   1.0000   1.0000   1.0000   1.0000
     1.0000   1.0000   1.0000   1.0000   1.0000   1.0000   1.0000   1.0000
     1.0000   1.0000   1.0000   1.0000   1.0000

          k =-0.1429-0.1650 0.0000 ( 12322 PWs)   bands (ev):

   -77.7367 -49.0408 -48.9907 -48.8590 -23.4922 -23.4047 -21.0165 -19.8054
   -13.2674 -11.3092 -11.1284 -10.6778  -9.9031  -9.7734  -9.4345  -8.6230
    -8.3952  -8.1133  -7.8075  -7.1298  -5.7034

     occupation numbers 
     1.0000   1.0000   1.0000   1.0000   1.0000   1.0000   1.0000   1.0000
     1.0000   1.0000   1.0000   1.0000   1.0000   1.0000   1.0000   1.0000
     1.0000   1.0000   1.0000   1.0000   1.0000

          k = 0.2143-0.0412 0.0000 ( 12322 PWs)   bands (ev):

   -77.7367 -49.0408 -48.9907 -48.8590 -23.4922 -23.4047 -21.0165 -19.8054
   -13.2675 -11.3091 -11.1285 -10.6778  -9.9031  -9.7731  -9.4346  -8.6231
    -8.3950  -8.1130  -7.8068  -7.1314  -5.7033

     occupation numbers 
     1.0000   1.0000   1.0000   1.0000   1.0000   1.0000   1.0000   1.0000
     1.0000   1.0000   1.0000   1.0000   1.0000   1.0000   1.0000   1.0000
     1.0000   1.0000   1.0000   1.0000   1.0000

          k =-0.0714 0.2887 0.0000 ( 12302 PWs)   bands (ev):

   -77.7310 -49.0856 -49.0027 -48.8507 -23.0387 -22.9568 -20.7447 -19.6758
   -13.2808 -12.4345 -11.9390 -10.6235 -10.3159 -10.1411  -9.8420  -8.6103
    -8.4220  -8.1508  -7.9611  -7.2816  -5.9927

     occupation numbers 
     1.0000   1.0000   1.0000   1.0000   1.0000   1.0000   1.0000   1.0000
     1.0000   1.0000   1.0000   1.0000   1.0000   1.0000   1.0000   1.0000
     1.0000   1.0000   1.0000   1.0000   1.0000

          k =-0.2143 0.2062 0.0000 ( 12302 PWs)   bands (ev):

   -77.7310 -49.0856 -49.0027 -48.8507 -23.0387 -22.9567 -20.7447 -19.6758
   -13.2810 -12.4344 -11.9390 -10.6235 -10.3158 -10.1409  -9.8419  -8.6102
    -8.4219  -8.1508  -7.9609  -7.2824  -5.9926

     occupation numbers 
     1.0000   1.0000   1.0000   1.0000   1.0000   1.0000   1.0000   1.0000
     1.0000   1.0000   1.0000   1.0000   1.0000   1.0000   1.0000   1.0000
     1.0000   1.0000   1.0000   1.0000   1.0000

          k = 0.2857 0.0825 0.0000 ( 12302 PWs)   bands (ev):

   -77.7310 -49.0856 -49.0027 -48.8507 -23.0387 -22.9568 -20.7447 -19.6758
   -13.2808 -12.4345 -11.9390 -10.6235 -10.3159 -10.1411  -9.8420  -8.6103
    -8.4220  -8.1508  -7.9611  -7.2816  -5.9927

     occupation numbers 
     1.0000   1.0000   1.0000   1.0000   1.0000   1.0000   1.0000   1.0000
     1.0000   1.0000   1.0000   1.0000   1.0000   1.0000   1.0000   1.0000
     1.0000   1.0000   1.0000   1.0000   1.0000

          k =-0.2143-0.2062 0.0000 ( 12302 PWs)   bands (ev):

   -77.7310 -49.0856 -49.0027 -48.8507 -23.0386 -22.9568 -20.7447 -19.6758
   -13.2808 -12.4345 -11.9390 -10.6236 -10.3159 -10.1412  -9.8418  -8.6106
    -8.4220  -8.1510  -7.9611  -7.2808  -5.9928

     occupation numbers 
     1.0000   1.0000   1.0000   1.0000   1.0000   1.0000   1.0000   1.0000
     1.0000   1.0000   1.0000   1.0000   1.0000   1.0000   1.0000   1.0000
     1.0000   1.0000   1.0000   1.0000   1.0000

          k = 0.2857-0.0825 0.0000 ( 12302 PWs)   bands (ev):

   -77.7310 -49.0856 -49.0027 -48.8507 -23.0387 -22.9567 -20.7447 -19.6758
   -13.2810 -12.4344 -11.9390 -10.6235 -10.3158 -10.1409  -9.8419  -8.6102
    -8.4219  -8.1508  -7.9609  -7.2824  -5.9926

     occupation numbers 
     1.0000   1.0000   1.0000   1.0000   1.0000   1.0000   1.0000   1.0000
     1.0000   1.0000   1.0000   1.0000   1.0000   1.0000   1.0000   1.0000
     1.0000   1.0000   1.0000   1.0000   1.0000

          k =-0.0714 0.3712 0.0000 ( 12340 PWs)   bands (ev):

   -77.7253 -49.1300 -49.0147 -48.8424 -22.4922 -22.4170 -20.4820 -19.5701
   -13.9104 -13.5287 -12.1100 -10.8308 -10.5340 -10.3893 -10.2191  -8.9881
    -8.3305  -8.1215  -7.8995  -7.3691  -6.1502

     occupation numbers 
     1.0000   1.0000   1.0000   1.0000   1.0000   1.0000   1.0000   1.0000
     1.0000   1.0000   1.0000   1.0000   1.0000   1.0000   1.0000   1.0000
     1.0000   1.0000   1.0000   1.0000   1.0000

          k =-0.2857 0.2474 0.0000 ( 12340 PWs)   bands (ev):

   -77.7253 -49.1301 -49.0147 -48.8424 -22.4923 -22.4170 -20.4821 -19.5701
   -13.9106 -13.5286 -12.1101 -10.8309 -10.5340 -10.3889 -10.2188  -8.9884
    -8.3305  -8.1208  -7.8996  -7.3703  -6.1502

     occupation numbers 
     1.0000   1.0000   1.0000   1.0000   1.0000   1.0000   1.0000   1.0000
     1.0000   1.0000   1.0000   1.0000   1.0000   1.0000   1.0000   1.0000
     1.0000   1.0000   1.0000   1.0000   1.0000

          k = 0.3571 0.1237 0.0000 ( 12340 PWs)   bands (ev):

   -77.7253 -49.1300 -49.0147 -48.8424 -22.4922 -22.4170 -20.4820 -19.5701
   -13.9104 -13.5287 -12.1100 -10.8308 -10.5340 -10.3893 -10.2191  -8.9881
    -8.3305  -8.1215  -7.8995  -7.3691  -6.1502

     occupation numbers 
     1.0000   1.0000   1.0000   1.0000   1.0000   1.0000   1.0000   1.0000
     1.0000   1.0000   1.0000   1.0000   1.0000   1.0000   1.0000   1.0000
     1.0000   1.0000   1.0000   1.0000   1.0000

          k =-0.2857-0.2474 0.0000 ( 12340 PWs)   bands (ev):

   -77.7253 -49.1300 -49.0147 -48.8424 -22.4922 -22.4171 -20.4820 -19.5701
   -13.9104 -13.5287 -12.1100 -10.8308 -10.5343 -10.3893 -10.2188  -8.9890
    -8.3304  -8.1205  -7.8997  -7.3689  -6.1504

     occupation numbers 
     1.0000   1.0000   1.0000   1.0000   1.0000   1.0000   1.0000   1.0000
     1.0000   1.0000   1.0000   1.0000   1.0000   1.0000   1.0000   1.0000
     1.0000   1.0000   1.0000   1.0000   1.0000

          k = 0.3571-0.1237 0.0000 ( 12340 PWs)   bands (ev):

   -77.7253 -49.1301 -49.0147 -48.8424 -22.4923 -22.4170 -20.4821 -19.5701
   -13.9106 -13.5286 -12.1101 -10.8309 -10.5340 -10.3889 -10.2188  -8.9884
    -8.3305  -8.1208  -7.8996  -7.3703  -6.1502

     occupation numbers 
     1.0000   1.0000   1.0000   1.0000   1.0000   1.0000   1.0000   1.0000
     1.0000   1.0000   1.0000   1.0000   1.0000   1.0000   1.0000   1.0000
     1.0000   1.0000   1.0000   1.0000   1.0000

          k =-0.0714 0.4536 0.0000 ( 12331 PWs)   bands (ev):

   -77.7208 -49.1655 -49.0243 -48.8357 -21.9347 -21.8673 -20.3102 -19.5381
   -14.6978 -14.4058 -11.9843 -11.1510 -10.7390 -10.5605 -10.4249  -9.1690
    -8.5047  -8.0016  -7.7282  -7.3639  -6.1543

     occupation numbers 
     1.0000   1.0000   1.0000   1.0000   1.0000   1.0000   1.0000   1.0000
     1.0000   1.0000   1.0000   1.0000   1.0000   1.0000   1.0000   1.0000
     1.0000   1.0000   1.0000   1.0000   1.0000

          k =-0.3571 0.2887 0.0000 ( 12331 PWs)   bands (ev):

   -77.7208 -49.1655 -49.0243 -48.8357 -21.9348 -21.8670 -20.3104 -19.5381
   -14.6979 -14.4056 -11.9848 -11.1508 -10.7389 -10.5603 -10.4242  -9.1695
    -8.5043  -8.0010  -7.7286  -7.3652  -6.1545

     occupation numbers 
     1.0000   1.0000   1.0000   1.0000   1.0000   1.0000   1.0000   1.0000
     1.0000   1.0000   1.0000   1.0000   1.0000   1.0000   1.0000   1.0000
     1.0000   1.0000   1.0000   1.0000   1.0000

          k = 0.4286 0.1650 0.0000 ( 12331 PWs)   bands (ev):

   -77.7208 -49.1655 -49.0243 -48.8357 -21.9347 -21.8673 -20.3102 -19.5381
   -14.6978 -14.4058 -11.9843 -11.1510 -10.7390 -10.5605 -10.4249  -9.1690
    -8.5047  -8.0016  -7.7282  -7.3639  -6.1544

     occupation numbers 
     1.0000   1.0000   1.0000   1.0000   1.0000   1.0000   1.0000   1.0000
     1.0000   1.0000   1.0000   1.0000   1.0000   1.0000   1.0000   1.0000
     1.0000   1.0000   1.0000   1.0000   1.0000

          k =-0.3571-0.2887 0.0000 ( 12331 PWs)   bands (ev):

   -77.7208 -49.1655 -49.0243 -48.8357 -21.9347 -21.8673 -20.3102 -19.5381
   -14.6977 -14.4058 -11.9843 -11.1509 -10.7392 -10.5604 -10.4246  -9.1702
    -8.5037  -8.0011  -7.7285  -7.3639  -6.1546

     occupation numbers 
     1.0000   1.0000   1.0000   1.0000   1.0000   1.0000   1.0000   1.0000
     1.0000   1.0000   1.0000   1.0000   1.0000   1.0000   1.0000   1.0000
     1.0000   1.0000   1.0000   1.0000   1.0000

          k = 0.4286-0.1650 0.0000 ( 12331 PWs)   bands (ev):

   -77.7208 -49.1655 -49.0243 -48.8357 -21.9348 -21.8670 -20.3104 -19.5381
   -14.6979 -14.4056 -11.9848 -11.1508 -10.7389 -10.5603 -10.4242  -9.1695
    -8.5043  -8.0010  -7.7286  -7.3652  -6.1545

     occupation numbers 
     1.0000   1.0000   1.0000   1.0000   1.0000   1.0000   1.0000   1.0000
     1.0000   1.0000   1.0000   1.0000   1.0000   1.0000   1.0000   1.0000
     1.0000   1.0000   1.0000   1.0000   1.0000

          k =-0.0714 0.5361 0.0000 ( 12353 PWs)   bands (ev):

   -77.7183 -49.1851 -49.0297 -48.8321 -21.5337 -21.4726 -20.2696 -19.5766
   -15.1822 -14.9005 -11.8687 -11.3689 -10.8347 -10.7476 -10.5078  -9.1684
    -8.6781  -7.8650  -7.6279  -7.3393  -6.1053

     occupation numbers 
     1.0000   1.0000   1.0000   1.0000   1.0000   1.0000   1.0000   1.0000
     1.0000   1.0000   1.0000   1.0000   1.0000   1.0000   1.0000   1.0000
     1.0000   1.0000   1.0000   1.0000   1.0000

          k =-0.4286 0.3299 0.0000 ( 12353 PWs)   bands (ev):

   -77.7183 -49.1851 -49.0297 -48.8321 -21.5339 -21.4720 -20.2698 -19.5766
   -15.1824 -14.9002 -11.8696 -11.3683 -10.8345 -10.7475 -10.5073  -9.1685
    -8.6779  -7.8645  -7.6284  -7.3407  -6.1054

     occupation numbers 
     1.0000   1.0000   1.0000   1.0000   1.0000   1.0000   1.0000   1.0000
     1.0000   1.0000   1.0000   1.0000   1.0000   1.0000   1.0000   1.0000
     1.0000   1.0000   1.0000   1.0000   1.0000

          k = 0.5000 0.2062 0.0000 ( 12353 PWs)   bands (ev):

   -77.7183 -49.1851 -49.0297 -48.8321 -21.5337 -21.4726 -20.2695 -19.5766
   -15.1822 -14.9005 -11.8687 -11.3689 -10.8347 -10.7476 -10.5078  -9.1684
    -8.6781  -7.8650  -7.6279  -7.3393  -6.1053

     occupation numbers 
     1.0000   1.0000   1.0000   1.0000   1.0000   1.0000   1.0000   1.0000
     1.0000   1.0000   1.0000   1.0000   1.0000   1.0000   1.0000   1.0000
     1.0000   1.0000   1.0000   1.0000   1.0000

          k =-0.4286-0.3299 0.0000 ( 12353 PWs)   bands (ev):

   -77.7183 -49.1851 -49.0297 -48.8321 -21.5337 -21.4726 -20.2695 -19.5766
   -15.1822 -14.9005 -11.8687 -11.3688 -10.8349 -10.7475 -10.5077  -9.1691
    -8.6774  -7.8649  -7.6281  -7.3393  -6.1054

     occupation numbers 
     1.0000   1.0000   1.0000   1.0000   1.0000   1.0000   1.0000   1.0000
     1.0000   1.0000   1.0000   1.0000   1.0000   1.0000   1.0000   1.0000
     1.0000   1.0000   1.0000   1.0000   1.0000

          k = 0.5000-0.2062 0.0000 ( 12353 PWs)   bands (ev):

   -77.7183 -49.1851 -49.0297 -48.8321 -21.5339 -21.4720 -20.2698 -19.5766
   -15.1824 -14.9002 -11.8696 -11.3683 -10.8345 -10.7475 -10.5073  -9.1685
    -8.6779  -7.8645  -7.6284  -7.3407  -6.1054

     occupation numbers 
     1.0000   1.0000   1.0000   1.0000   1.0000   1.0000   1.0000   1.0000
     1.0000   1.0000   1.0000   1.0000   1.0000   1.0000   1.0000   1.0000
     1.0000   1.0000   1.0000   1.0000   1.0000

          k =-0.1429 0.2474 0.0000 ( 12284 PWs)   bands (ev):

   -77.7318 -49.0759 -49.0041 -48.8519 -23.1113 -23.0284 -20.7843 -19.6927
   -13.2169 -12.1467 -11.7523 -10.6178 -10.5134 -10.2774  -9.7092  -8.6489
    -8.4553  -8.2343  -7.8008  -7.2493  -5.9584

     occupation numbers 
     1.0000   1.0000   1.0000   1.0000   1.0000   1.0000   1.0000   1.0000
     1.0000   1.0000   1.0000   1.0000   1.0000   1.0000   1.0000   1.0000
     1.0000   1.0000   1.0000   1.0000   1.0000

          k = 0.2857 0.0000 0.0000 ( 12284 PWs)   bands (ev):

   -77.7318 -49.0759 -49.0041 -48.8519 -23.1113 -23.0284 -20.7843 -19.6927
   -13.2169 -12.1467 -11.7523 -10.6178 -10.5134 -10.2774  -9.7092  -8.6489
    -8.4553  -8.2342  -7.8008  -7.2493  -5.9584

     occupation numbers 
     1.0000   1.0000   1.0000   1.0000   1.0000   1.0000   1.0000   1.0000
     1.0000   1.0000   1.0000   1.0000   1.0000   1.0000   1.0000   1.0000
     1.0000   1.0000   1.0000   1.0000   1.0000

          k =-0.1429 0.3299 0.0000 ( 12325 PWs)   bands (ev):

   -77.7265 -49.1136 -49.0201 -48.8440 -22.6182 -22.5413 -20.5310 -19.5818
   -13.5743 -13.0724 -12.0253 -11.0783 -10.9047 -10.4172 -10.0471  -9.1291
    -8.3174  -8.1478  -7.7846  -7.4062  -6.1479

     occupation numbers 
     1.0000   1.0000   1.0000   1.0000   1.0000   1.0000   1.0000   1.0000
     1.0000   1.0000   1.0000   1.0000   1.0000   1.0000   1.0000   1.0000
     1.0000   1.0000   1.0000   1.0000   1.0000

          k =-0.2143 0.2887 0.0000 ( 12325 PWs)   bands (ev):

   -77.7265 -49.1136 -49.0201 -48.8440 -22.6182 -22.5412 -20.5310 -19.5818
   -13.5743 -13.0724 -12.0253 -11.0783 -10.9047 -10.4170 -10.0470  -9.1292
    -8.3173  -8.1478  -7.7841  -7.4069  -6.1480

     occupation numbers 
     1.0000   1.0000   1.0000   1.0000   1.0000   1.0000   1.0000   1.0000
     1.0000   1.0000   1.0000   1.0000   1.0000   1.0000   1.0000   1.0000
     1.0000   1.0000   1.0000   1.0000   1.0000

          k = 0.3571 0.0412 0.0000 ( 12325 PWs)   bands (ev):

   -77.7265 -49.1136 -49.0201 -48.8440 -22.6182 -22.5413 -20.5310 -19.5818
   -13.5743 -13.0724 -12.0253 -11.0783 -10.9047 -10.4172 -10.0471  -9.1291
    -8.3174  -8.1478  -7.7846  -7.4062  -6.1479

     occupation numbers 
     1.0000   1.0000   1.0000   1.0000   1.0000   1.0000   1.0000   1.0000
     1.0000   1.0000   1.0000   1.0000   1.0000   1.0000   1.0000   1.0000
     1.0000   1.0000   1.0000   1.0000   1.0000

          k =-0.2143-0.2887 0.0000 ( 12325 PWs)   bands (ev):

   -77.7264 -49.1136 -49.0201 -48.8440 -22.6182 -22.5413 -20.5309 -19.5818
   -13.5742 -13.0724 -12.0253 -11.0783 -10.9049 -10.4172 -10.0468  -9.1297
    -8.3171  -8.1484  -7.7843  -7.4052  -6.1482

     occupation numbers 
     1.0000   1.0000   1.0000   1.0000   1.0000   1.0000   1.0000   1.0000
     1.0000   1.0000   1.0000   1.0000   1.0000   1.0000   1.0000   1.0000
     1.0000   1.0000   1.0000   1.0000   1.0000

          k = 0.3571-0.0412 0.0000 ( 12325 PWs)   bands (ev):

   -77.7265 -49.1136 -49.0201 -48.8440 -22.6182 -22.5412 -20.5310 -19.5818
   -13.5743 -13.0724 -12.0253 -11.0783 -10.9047 -10.4170 -10.0470  -9.1292
    -8.3173  -8.1478  -7.7841  -7.4069  -6.1480

     occupation numbers 
     1.0000   1.0000   1.0000   1.0000   1.0000   1.0000   1.0000   1.0000
     1.0000   1.0000   1.0000   1.0000   1.0000   1.0000   1.0000   1.0000
     1.0000   1.0000   1.0000   1.0000   1.0000

          k =-0.1429 0.4124 0.0000 ( 12354 PWs)   bands (ev):

   -77.7216 -49.1469 -49.0350 -48.8370 -22.0710 -22.0011 -20.3280 -19.5186
   -14.2636 -13.9357 -11.9854 -11.4824 -11.2741 -10.4677 -10.3254  -9.4141
    -8.2839  -8.1712  -7.8360  -7.3830  -6.1815

     occupation numbers 
     1.0000   1.0000   1.0000   1.0000   1.0000   1.0000   1.0000   1.0000
     1.0000   1.0000   1.0000   1.0000   1.0000   1.0000   1.0000   1.0000
     1.0000   1.0000   1.0000   1.0000   1.0000

          k =-0.2857 0.3299 0.0000 ( 12354 PWs)   bands (ev):

   -77.7216 -49.1469 -49.0350 -48.8370 -22.0710 -22.0009 -20.3281 -19.5186
   -14.2638 -13.9355 -11.9856 -11.4823 -11.2741 -10.4677 -10.3248  -9.4146
    -8.2832  -8.1713  -7.8357  -7.3840  -6.1816

     occupation numbers 
     1.0000   1.0000   1.0000   1.0000   1.0000   1.0000   1.0000   1.0000
     1.0000   1.0000   1.0000   1.0000   1.0000   1.0000   1.0000   1.0000
     1.0000   1.0000   1.0000   1.0000   1.0000

          k = 0.4286 0.0825 0.0000 ( 12354 PWs)   bands (ev):

   -77.7216 -49.1469 -49.0350 -48.8370 -22.0710 -22.0011 -20.3280 -19.5186
   -14.2636 -13.9357 -11.9854 -11.4824 -11.2741 -10.4676 -10.3254  -9.4141
    -8.2839  -8.1711  -7.8360  -7.3830  -6.1815

     occupation numbers 
     1.0000   1.0000   1.0000   1.0000   1.0000   1.0000   1.0000   1.0000
     1.0000   1.0000   1.0000   1.0000   1.0000   1.0000   1.0000   1.0000
     1.0000   1.0000   1.0000   1.0000   1.0000

          k =-0.2857-0.3299 0.0000 ( 12354 PWs)   bands (ev):

   -77.7216 -49.1469 -49.0350 -48.8370 -22.0710 -22.0011 -20.3279 -19.5186
   -14.2636 -13.9357 -11.9855 -11.4823 -11.2744 -10.4674 -10.3250  -9.4153
    -8.2834  -8.1714  -7.8348  -7.3832  -6.1818

     occupation numbers 
     1.0000   1.0000   1.0000   1.0000   1.0000   1.0000   1.0000   1.0000
     1.0000   1.0000   1.0000   1.0000   1.0000   1.0000   1.0000   1.0000
     1.0000   1.0000   1.0000   1.0000   1.0000

          k = 0.4286-0.0825 0.0000 ( 12354 PWs)   bands (ev):

   -77.7216 -49.1469 -49.0350 -48.8370 -22.0710 -22.0009 -20.3281 -19.5186
   -14.2638 -13.9355 -11.9856 -11.4823 -11.2741 -10.4677 -10.3248  -9.4146
    -8.2832  -8.1713  -7.8357  -7.3840  -6.1816

     occupation numbers 
     1.0000   1.0000   1.0000   1.0000   1.0000   1.0000   1.0000   1.0000
     1.0000   1.0000   1.0000   1.0000   1.0000   1.0000   1.0000   1.0000
     1.0000   1.0000   1.0000   1.0000   1.0000

          k =-0.1429 0.4949 0.0000 ( 12361 PWs)   bands (ev):

   -77.7183 -49.1697 -49.0454 -48.8321 -21.5844 -21.5217 -20.2409 -19.5322
   -14.8506 -14.5608 -11.9834 -11.7097 -11.3534 -10.7826 -10.4682  -9.3786
    -8.5369  -8.1552  -7.7730  -7.2847  -6.1025

     occupation numbers 
     1.0000   1.0000   1.0000   1.0000   1.0000   1.0000   1.0000   1.0000
     1.0000   1.0000   1.0000   1.0000   1.0000   1.0000   1.0000   1.0000
     1.0000   1.0000   1.0000   1.0000   1.0000

          k =-0.3571 0.3712 0.0000 ( 12361 PWs)   bands (ev):

   -77.7183 -49.1697 -49.0453 -48.8321 -21.5846 -21.5213 -20.2411 -19.5322
   -14.8508 -14.5606 -11.9837 -11.7096 -11.3536 -10.7824 -10.4678  -9.3790
    -8.5361  -8.1555  -7.7729  -7.2857  -6.1027

     occupation numbers 
     1.0000   1.0000   1.0000   1.0000   1.0000   1.0000   1.0000   1.0000
     1.0000   1.0000   1.0000   1.0000   1.0000   1.0000   1.0000   1.0000
     1.0000   1.0000   1.0000   1.0000   1.0000

          k = 0.5000 0.1237 0.0000 ( 12361 PWs)   bands (ev):

   -77.7183 -49.1697 -49.0454 -48.8321 -21.5844 -21.5217 -20.2409 -19.5322
   -14.8506 -14.5608 -11.9834 -11.7097 -11.3534 -10.7826 -10.4682  -9.3787
    -8.5369  -8.1552  -7.7730  -7.2847  -6.1025

     occupation numbers 
     1.0000   1.0000   1.0000   1.0000   1.0000   1.0000   1.0000   1.0000
     1.0000   1.0000   1.0000   1.0000   1.0000   1.0000   1.0000   1.0000
     1.0000   1.0000   1.0000   1.0000   1.0000

          k =-0.3571-0.3712 0.0000 ( 12361 PWs)   bands (ev):

   -77.7183 -49.1697 -49.0454 -48.8321 -21.5844 -21.5217 -20.2408 -19.5322
   -14.8506 -14.5608 -11.9835 -11.7096 -11.3536 -10.7824 -10.4679  -9.3799
    -8.5360  -8.1553  -7.7724  -7.2850  -6.1028

     occupation numbers 
     1.0000   1.0000   1.0000   1.0000   1.0000   1.0000   1.0000   1.0000
     1.0000   1.0000   1.0000   1.0000   1.0000   1.0000   1.0000   1.0000
     1.0000   1.0000   1.0000   1.0000   1.0000

          k = 0.5000-0.1237 0.0000 ( 12361 PWs)   bands (ev):

   -77.7183 -49.1697 -49.0453 -48.8321 -21.5846 -21.5213 -20.2411 -19.5322
   -14.8508 -14.5606 -11.9837 -11.7096 -11.3536 -10.7824 -10.4678  -9.3790
    -8.5362  -8.1555  -7.7729  -7.2857  -6.1027

     occupation numbers 
     1.0000   1.0000   1.0000   1.0000   1.0000   1.0000   1.0000   1.0000
     1.0000   1.0000   1.0000   1.0000   1.0000   1.0000   1.0000   1.0000
     1.0000   1.0000   1.0000   1.0000   1.0000

          k =-0.4286 0.4124 0.0000 ( 12348 PWs)   bands (ev):

   -77.7171 -49.1779 -49.0491 -48.8303 -21.3700 -21.3087 -20.2409 -19.5639
   -15.0770 -14.7906 -12.0157 -11.7846 -11.2420 -11.0105 -10.5418  -9.2680
    -8.7165  -8.1466  -7.7157  -7.2456  -6.0492

     occupation numbers 
     1.0000   1.0000   1.0000   1.0000   1.0000   1.0000   1.0000   1.0000
     1.0000   1.0000   1.0000   1.0000   1.0000   1.0000   1.0000   1.0000
     1.0000   1.0000   1.0000   1.0000   1.0000

          k = 0.5714 0.1650 0.0000 ( 12348 PWs)   bands (ev):

   -77.7171 -49.1778 -49.0491 -48.8303 -21.3697 -21.3093 -20.2406 -19.5639
   -15.0768 -14.7908 -12.0154 -11.7847 -11.2414 -11.0113 -10.5421  -9.2684
    -8.7166  -8.1464  -7.7155  -7.2447  -6.0491

     occupation numbers 
     1.0000   1.0000   1.0000   1.0000   1.0000   1.0000   1.0000   1.0000
     1.0000   1.0000   1.0000   1.0000   1.0000   1.0000   1.0000   1.0000
     1.0000   1.0000   1.0000   1.0000   1.0000

          k =-0.2143 0.3712 0.0000 ( 12332 PWs)   bands (ev):

   -77.7219 -49.1374 -49.0416 -48.8374 -22.1196 -22.0487 -20.3354 -19.5116
   -14.0325 -13.6628 -11.9621 -11.7119 -11.6502 -10.3476 -10.2488  -9.5463
    -8.3768  -8.1869  -7.7126  -7.4633  -6.1949

     occupation numbers 
     1.0000   1.0000   1.0000   1.0000   1.0000   1.0000   1.0000   1.0000
     1.0000   1.0000   1.0000   1.0000   1.0000   1.0000   1.0000   1.0000
     1.0000   1.0000   1.0000   1.0000   1.0000

          k = 0.4286 0.0000 0.0000 ( 12332 PWs)   bands (ev):

   -77.7219 -49.1374 -49.0416 -48.8374 -22.1196 -22.0487 -20.3354 -19.5116
   -14.0324 -13.6628 -11.9621 -11.7119 -11.6502 -10.3476 -10.2488  -9.5463
    -8.3768  -8.1869  -7.7126  -7.4633  -6.1949

     occupation numbers 
     1.0000   1.0000   1.0000   1.0000   1.0000   1.0000   1.0000   1.0000
     1.0000   1.0000   1.0000   1.0000   1.0000   1.0000   1.0000   1.0000
     1.0000   1.0000   1.0000   1.0000   1.0000

          k =-0.2143 0.4536 0.0000 ( 12345 PWs)   bands (ev):

   -77.7183 -49.1537 -49.0616 -48.8321 -21.6229 -21.5587 -20.2208 -19.4990
   -14.4828 -14.1627 -12.3890 -12.2290 -11.5822 -10.5198 -10.3996  -9.5925
    -8.6608  -8.2900  -7.7702  -7.2924  -6.1059

     occupation numbers 
     1.0000   1.0000   1.0000   1.0000   1.0000   1.0000   1.0000   1.0000
     1.0000   1.0000   1.0000   1.0000   1.0000   1.0000   1.0000   1.0000
     1.0000   1.0000   1.0000   1.0000   1.0000

          k =-0.2857 0.4124 0.0000 ( 12345 PWs)   bands (ev):

   -77.7183 -49.1537 -49.0615 -48.8321 -21.6229 -21.5586 -20.2209 -19.4990
   -14.4828 -14.1627 -12.3890 -12.2290 -11.5824 -10.5198 -10.3993  -9.5927
    -8.6606  -8.2900  -7.7703  -7.2928  -6.1060

     occupation numbers 
     1.0000   1.0000   1.0000   1.0000   1.0000   1.0000   1.0000   1.0000
     1.0000   1.0000   1.0000   1.0000   1.0000   1.0000   1.0000   1.0000
     1.0000   1.0000   1.0000   1.0000   1.0000

          k = 0.5000 0.0412 0.0000 ( 12345 PWs)   bands (ev):

   -77.7183 -49.1537 -49.0616 -48.8321 -21.6229 -21.5587 -20.2208 -19.4990
   -14.4828 -14.1627 -12.3891 -12.2290 -11.5822 -10.5198 -10.3996  -9.5925
    -8.6608  -8.2900  -7.7702  -7.2924  -6.1059

     occupation numbers 
     1.0000   1.0000   1.0000   1.0000   1.0000   1.0000   1.0000   1.0000
     1.0000   1.0000   1.0000   1.0000   1.0000   1.0000   1.0000   1.0000
     1.0000   1.0000   1.0000   1.0000   1.0000

          k =-0.2857-0.4124 0.0000 ( 12345 PWs)   bands (ev):

   -77.7183 -49.1537 -49.0616 -48.8321 -21.6228 -21.5589 -20.2207 -19.4989
   -14.4827 -14.1628 -12.3890 -12.2293 -11.5822 -10.5192 -10.3994  -9.5937
    -8.6611  -8.2897  -7.7686  -7.2930  -6.1061

     occupation numbers 
     1.0000   1.0000   1.0000   1.0000   1.0000   1.0000   1.0000   1.0000
     1.0000   1.0000   1.0000   1.0000   1.0000   1.0000   1.0000   1.0000
     1.0000   1.0000   1.0000   1.0000   1.0000

          k = 0.5000-0.0412 0.0000 ( 12345 PWs)   bands (ev):

   -77.7183 -49.1537 -49.0615 -48.8321 -21.6229 -21.5586 -20.2209 -19.4990
   -14.4828 -14.1627 -12.3890 -12.2290 -11.5824 -10.5198 -10.3993  -9.5927
    -8.6606  -8.2900  -7.7703  -7.2928  -6.1060

     occupation numbers 
     1.0000   1.0000   1.0000   1.0000   1.0000   1.0000   1.0000   1.0000
     1.0000   1.0000   1.0000   1.0000   1.0000   1.0000   1.0000   1.0000
     1.0000   1.0000   1.0000   1.0000   1.0000

          k =-0.2143 0.5361 0.0000 ( 12363 PWs)   bands (ev):

   -77.7162 -49.1617 -49.0737 -48.8291 -21.2764 -21.2155 -20.2063 -19.5332
   -14.7724 -14.4681 -12.6605 -12.5226 -11.3133 -10.7789 -10.5687  -9.3646
    -8.9275  -8.5018  -7.7035  -7.1738  -5.9890

     occupation numbers 
     1.0000   1.0000   1.0000   1.0000   1.0000   1.0000   1.0000   1.0000
     1.0000   1.0000   1.0000   1.0000   1.0000   1.0000   1.0000   1.0000
     1.0000   1.0000   1.0000   1.0000   1.0000

          k =-0.3571 0.4536 0.0000 ( 12363 PWs)   bands (ev):

   -77.7162 -49.1617 -49.0737 -48.8291 -21.2766 -21.2151 -20.2065 -19.5333
   -14.7725 -14.4680 -12.6604 -12.5225 -11.3138 -10.7788 -10.5684  -9.3647
    -8.9267  -8.5021  -7.7040  -7.1741  -5.9891

     occupation numbers 
     1.0000   1.0000   1.0000   1.0000   1.0000   1.0000   1.0000   1.0000
     1.0000   1.0000   1.0000   1.0000   1.0000   1.0000   1.0000   1.0000
     1.0000   1.0000   1.0000   1.0000   1.0000

          k = 0.5714 0.0825 0.0000 ( 12363 PWs)   bands (ev):

   -77.7162 -49.1617 -49.0737 -48.8291 -21.2764 -21.2155 -20.2063 -19.5332
   -14.7724 -14.4682 -12.6605 -12.5226 -11.3133 -10.7789 -10.5687  -9.3646
    -8.9275  -8.5018  -7.7035  -7.1738  -5.9890

     occupation numbers 
     1.0000   1.0000   1.0000   1.0000   1.0000   1.0000   1.0000   1.0000
     1.0000   1.0000   1.0000   1.0000   1.0000   1.0000   1.0000   1.0000
     1.0000   1.0000   1.0000   1.0000   1.0000

          k =-0.3571-0.4536 0.0000 ( 12363 PWs)   bands (ev):

   -77.7162 -49.1617 -49.0737 -48.8291 -21.2764 -21.2156 -20.2062 -19.5332
   -14.7724 -14.4682 -12.6605 -12.5227 -11.3134 -10.7787 -10.5686  -9.3653
    -8.9274  -8.5014  -7.7030  -7.1741  -5.9891

     occupation numbers 
     1.0000   1.0000   1.0000   1.0000   1.0000   1.0000   1.0000   1.0000
     1.0000   1.0000   1.0000   1.0000   1.0000   1.0000   1.0000   1.0000
     1.0000   1.0000   1.0000   1.0000   1.0000

          k = 0.5714-0.0825 0.0000 ( 12363 PWs)   bands (ev):

   -77.7162 -49.1617 -49.0737 -48.8291 -21.2766 -21.2151 -20.2064 -19.5333
   -14.7725 -14.4680 -12.6604 -12.5225 -11.3138 -10.7788 -10.5684  -9.3647
    -8.9267  -8.5021  -7.7040  -7.1741  -5.9891

     occupation numbers 
     1.0000   1.0000   1.0000   1.0000   1.0000   1.0000   1.0000   1.0000
     1.0000   1.0000   1.0000   1.0000   1.0000   1.0000   1.0000   1.0000
     1.0000   1.0000   1.0000   1.0000   1.0000

          k =-0.2857 0.4949 0.0000 ( 12384 PWs)   bands (ev):

   -77.7159 -49.1504 -49.0881 -48.8287 -21.2484 -21.1870 -20.1900 -19.5169
   -14.5416 -14.2016 -13.0648 -12.9468 -11.3194 -10.6650 -10.4233  -9.5479
    -9.1086  -8.5283  -7.7086  -7.1543  -5.9612

     occupation numbers 
     1.0000   1.0000   1.0000   1.0000   1.0000   1.0000   1.0000   1.0000
     1.0000   1.0000   1.0000   1.0000   1.0000   1.0000   1.0000   1.0000
     1.0000   1.0000   1.0000   1.0000   1.0000

          k = 0.5714 0.0000 0.0000 ( 12384 PWs)   bands (ev):

   -77.7159 -49.1504 -49.0881 -48.8287 -21.2484 -21.1870 -20.1900 -19.5169
   -14.5416 -14.2016 -13.0648 -12.9468 -11.3194 -10.6650 -10.4233  -9.5479
    -9.1086  -8.5283  -7.7086  -7.1543  -5.9612

     occupation numbers 
     1.0000   1.0000   1.0000   1.0000   1.0000   1.0000   1.0000   1.0000
     1.0000   1.0000   1.0000   1.0000   1.0000   1.0000   1.0000   1.0000
     1.0000   1.0000   1.0000   1.0000   1.0000

          k =-0.3571 0.5361 0.0000 ( 12378 PWs)   bands (ev):

   -77.7151 -49.1450 -49.1017 -48.8275 -21.0939 -21.0292 -20.1996 -19.5353
   -14.5217 -14.1571 -13.3482 -13.2736 -11.1504 -10.7602 -10.3897  -9.6834
    -9.0752  -8.7508  -7.6689  -7.0953  -5.8786

     occupation numbers 
     1.0000   1.0000   1.0000   1.0000   1.0000   1.0000   1.0000   1.0000
     1.0000   1.0000   1.0000   1.0000   1.0000   1.0000   1.0000   1.0000
     1.0000   1.0000   1.0000   1.0000   1.0000

          k = 0.6429 0.0412 0.0000 ( 12378 PWs)   bands (ev):

   -77.7151 -49.1450 -49.1017 -48.8275 -21.0938 -21.0294 -20.1995 -19.5353
   -14.5217 -14.1572 -13.3483 -13.2736 -11.1503 -10.7600 -10.3898  -9.6834
    -9.0764  -8.7500  -7.6684  -7.0954  -5.8786

     occupation numbers 
     1.0000   1.0000   1.0000   1.0000   1.0000   1.0000   1.0000   1.0000
     1.0000   1.0000   1.0000   1.0000   1.0000   1.0000   1.0000   1.0000
     1.0000   1.0000   1.0000   1.0000   1.0000

     highest occupied level (ev):    -5.2120

     Writing all to output data dir ./tmp/crsi2n4.save/ :
     XML data file, pseudopotentials, collected wavefunctions
 
     init_run     :      1.18s CPU      1.26s WALL (       1 calls)
     electrons    :    208.58s CPU    209.76s WALL (       1 calls)

     Called by init_run:
     wfcinit      :      0.00s CPU      0.00s WALL (       1 calls)
     wfcinit:atom :      0.08s CPU      0.08s WALL (     100 calls)
     wfcinit:wfcr :      3.72s CPU      3.77s WALL (     100 calls)
     potinit      :      0.70s CPU      0.74s WALL (       1 calls)
     hinit0       :      0.29s CPU      0.30s WALL (       1 calls)

     Called by electrons:
     c_bands      :    208.58s CPU    209.76s WALL (       1 calls)
     v_of_rho     :      0.03s CPU      0.06s WALL (       1 calls)
     v_h          :      0.00s CPU      0.01s WALL (       1 calls)
     v_xc         :      0.02s CPU      0.06s WALL (       1 calls)

     Called by c_bands:
     init_us_2    :      0.06s CPU      0.08s WALL (     100 calls)
     cegterg      :    204.40s CPU    205.36s WALL (     541 calls)

     Called by sum_band:

     Called by *egterg:
     cdiaghg      :     26.12s CPU     26.32s WALL (   10061 calls)
                                       26.25s GPU  (   10061 calls)
     cegterg:over :     36.19s CPU     36.25s WALL (    9961 calls)
     cegterg:upda :     11.72s CPU     11.77s WALL (    9961 calls)
     cegterg:last :     15.91s CPU     15.95s WALL (    7999 calls)
     h_psi        :    111.61s CPU    112.51s WALL (   10602 calls)
                                      112.45s GPU  (   10602 calls)
     g_psi        :      0.09s CPU      1.34s WALL (    9961 calls)
                                        1.29s GPU  (    9961 calls)

     Called by h_psi:
     h_psi:calbec :      0.83s CPU     17.29s WALL (   10602 calls)
                                       17.21s GPU  (   10602 calls)
     vloc_psi     :     78.38s CPU     79.17s WALL (   10602 calls)
                                       79.11s GPU  (   10602 calls)
     add_vuspsi   :      3.10s CPU     15.10s WALL (   10602 calls)
                                       15.02s GPU  (   10602 calls)

     General routines
     calbec       :      0.78s CPU      0.83s WALL (   10602 calls)
     fft          :      0.33s CPU      0.34s WALL (      11 calls)
                                        0.01s GPU  (      10 calls)
     ffts         :      0.34s CPU      0.34s WALL (       1 calls)
     fftw         :      0.92s CPU     66.57s WALL (   30090 calls)
                                       66.41s GPU  (   30090 calls)
     interpolate  :      0.66s CPU      0.67s WALL (       1 calls)
     davcio       :      0.04s CPU      0.23s WALL (     200 calls)
 
     Parallel routines
 
     PWSCF        :   3m30.21s CPU   3m31.81s WALL

 
   This run was terminated on:   3:44: 2  13Mar2026            

=------------------------------------------------------------------------------=
   JOB DONE.
=------------------------------------------------------------------------------=
