
     Program PWSCF v.7.4.1 starts on 27Apr2026 at  3: 7:52 

     This program is part of the open-source Quantum ESPRESSO suite
     for quantum simulation of materials; please cite
         "P. Giannozzi et al., J. Phys.:Condens. Matter 21 395502 (2009);
         "P. Giannozzi et al., J. Phys.:Condens. Matter 29 465901 (2017);
         "P. Giannozzi et al., J. Chem. Phys. 152 154105 (2020);
          URL http://www.quantum-espresso.org", 
     in publications or presentations arising from this work. More details at
     http://www.quantum-espresso.org/quote

     Parallel version (MPI), running on     1 processors

     MPI processes distributed on     1 nodes
     16838 MiB available memory on the printing compute node when the environment starts
 
     Reading input from crsi2n4_uni_-0.015.in

     Current dimensions of program PWSCF are:
     Max number of different atomic species (ntypx) = 10
     Max number of k-points (npk) =  40000
     Max angular momentum in pseudopotentials (lmaxx) =  4
     Message from routine setup:
     no reason to have ecutrho>4*ecutwfc
 
     Subspace diagonalization in iterative solution of the eigenvalue problem:
     a serial algorithm will be used

 
     G-vector sticks info
     --------------------
     sticks:   dense  smooth     PW     G-vecs:    dense   smooth      PW
     Sum         781     633    199               161881   115865   20453
 
     Using Slab Decomposition
 


     bravais-lattice index     =            0
     lattice parameter (alat)  =       5.2938  a.u.
     unit-cell volume          =    1199.6962 (a.u.)^3
     number of atoms/cell      =            7
     number of atomic types    =            3
     number of electrons       =        42.00
     number of Kohn-Sham states=           21
     kinetic-energy cutoff     =      80.0000  Ry
     charge density cutoff     =     400.0000  Ry
     scf convergence threshold =      1.0E-10
     mixing beta               =       0.4000
     number of iterations used =            8  plain     mixing
     energy convergence thresh.=      1.0E-04
     force convergence thresh. =      1.0E-03
     Exchange-correlation= PBE
                           (   1   4   3   4   0   0   0)
     nstep                     =           50


     GPU acceleration is ACTIVE.  1 visible GPUs per MPI rank
     GPU-aware MPI enabled


     GPU used by master process:

        Device Number: 0
        Device name: NVIDIA RTX A2000 12GB
        Compute capability : 86
        Ratio of single to double precision performance  : 64
        Memory Clock Rate (KHz): 6001000
        Memory Bus Width (bits): 192
        Peak Memory Bandwidth (GB/s): 288.05

     celldm(1)=   5.293765  celldm(2)=   0.000000  celldm(3)=   0.000000
     celldm(4)=   0.000000  celldm(5)=   0.000000  celldm(6)=   0.000000

     crystal axes: (cart. coord. in units of alat)
               a(1) = (   1.000000   0.000000   0.000000 )  
               a(2) = (  -0.500000   0.879214   0.000000 )  
               a(3) = (   0.000000   0.000000   9.197777 )  

     reciprocal axes: (cart. coord. in units 2 pi/alat)
               b(1) = (  1.000000  0.568690 -0.000000 )  
               b(2) = (  0.000000  1.137380  0.000000 )  
               b(3) = (  0.000000 -0.000000  0.108722 )  


     PseudoPot. # 1 for Cr read from file:
     /home/rao/Desktop/pseudo/ONCVPSP/sg15/Cr_ONCV_PBE_sr.upf
     MD5 check sum: 8c25700f94aee329d8014e8d8708abb4
     Pseudo is Norm-conserving, Zval = 14.0
     Generated using ONCVPSP code by D. R. Hamann
     Using radial grid of 1490 points,  6 beta functions with: 
                l(1) =   0
                l(2) =   0
                l(3) =   1
                l(4) =   1
                l(5) =   2
                l(6) =   2

     PseudoPot. # 2 for N  read from file:
     /home/rao/Desktop/pseudo/ONCVPSP/sg15/N_ONCV_PBE_sr.upf
     MD5 check sum: 584dff68b02d160f04ff099e3496afa1
     Pseudo is Norm-conserving, Zval =  5.0
     Generated using ONCVPSP code by D. R. Hamann
     Using radial grid of 1058 points,  4 beta functions with: 
                l(1) =   0
                l(2) =   0
                l(3) =   1
                l(4) =   1

     PseudoPot. # 3 for Si read from file:
     /home/rao/Desktop/pseudo/ONCVPSP/sg15/Si_ONCV_PBE_sr.upf
     MD5 check sum: 8553c464762ac42b85b1eed164b4d029
     Pseudo is Norm-conserving, Zval =  4.0
     Generated using ONCVPSP code by D. R. Hamann
     Using radial grid of 1510 points,  4 beta functions with: 
                l(1) =   0
                l(2) =   0
                l(3) =   1
                l(4) =   1

     atomic species   valence    mass     pseudopotential
     Cr               14.00    51.99610     Cr( 1.00)
     N                 5.00    14.00700     N ( 1.00)
     Si                4.00    28.08500     Si( 1.00)

     No symmetry found


                                    s                        frac. trans.

      isym =  1     identity                                     

 cryst.   s( 1) = (     1          0          0      )
                  (     0          1          0      )
                  (     0          0          1      )

 cart.    s( 1) = (  1.0000000  0.0000000  0.0000000 )
                  (  0.0000000  1.0000000  0.0000000 )
                  (  0.0000000  0.0000000  1.0000000 )


   Cartesian axes

     site n.     atom                  positions (alat units)
         1        Cr     tau(   1) = (   0.7856992   0.1256009   3.9348550  )
         2        N      tau(   2) = (   0.2857045   0.4186696   3.4311846  )
         3        N      tau(   3) = (   0.2857069   0.4186667   4.4450822  )
         4        N      tau(   4) = (   0.7857152   0.1255822   5.4658567  )
         5        N      tau(   5) = (  -0.2142868   0.7117403   2.4197424  )
         6        Si     tau(   6) = (   0.2857130   0.4186691   2.6568070  )
         7        Si     tau(   7) = (   0.2857150   0.4186537   5.2247548  )

   Crystallographic axes

     site n.     atom                  positions (cryst. coord.)
         1        Cr     tau(   1) = (  0.8571272  0.1428560  0.4278050  )
         2        N      tau(   2) = (  0.5237977  0.4761865  0.3730450  )
         3        N      tau(   3) = (  0.5237985  0.4761832  0.4832779  )
         4        N      tau(   4) = (  0.8571325  0.1428347  0.5942585  )
         5        N      tau(   5) = (  0.1904728  0.8095192  0.2630791  )
         6        Si     tau(   6) = (  0.5238059  0.4761860  0.2888532  )
         7        Si     tau(   7) = (  0.5237992  0.4761684  0.5680454  )

     number of k points=   121
                       cart. coord. in units 2pi/alat
        k(    1) = (   0.0000000   0.0000000   0.0000000), wk =   0.0165289
        k(    2) = (   0.0000000   0.1033982   0.0000000), wk =   0.0165289
        k(    3) = (   0.0000000   0.2067964   0.0000000), wk =   0.0165289
        k(    4) = (   0.0000000   0.3101946   0.0000000), wk =   0.0165289
        k(    5) = (   0.0000000   0.4135928   0.0000000), wk =   0.0165289
        k(    6) = (   0.0000000   0.5169910   0.0000000), wk =   0.0165289
        k(    7) = (   0.0000000  -0.5169910   0.0000000), wk =   0.0165289
        k(    8) = (   0.0000000  -0.4135928   0.0000000), wk =   0.0165289
        k(    9) = (   0.0000000  -0.3101946   0.0000000), wk =   0.0165289
        k(   10) = (   0.0000000  -0.2067964   0.0000000), wk =   0.0165289
        k(   11) = (   0.0000000  -0.1033982   0.0000000), wk =   0.0165289
        k(   12) = (   0.0909091   0.0516991   0.0000000), wk =   0.0165289
        k(   13) = (   0.0909091   0.1550973   0.0000000), wk =   0.0165289
        k(   14) = (   0.0909091   0.2584955   0.0000000), wk =   0.0165289
        k(   15) = (   0.0909091   0.3618937   0.0000000), wk =   0.0165289
        k(   16) = (   0.0909091   0.4652919   0.0000000), wk =   0.0165289
        k(   17) = (   0.0909091   0.5686901   0.0000000), wk =   0.0165289
        k(   18) = (   0.0909091  -0.4652919   0.0000000), wk =   0.0165289
        k(   19) = (   0.0909091  -0.3618937   0.0000000), wk =   0.0165289
        k(   20) = (   0.0909091  -0.2584955   0.0000000), wk =   0.0165289
        k(   21) = (   0.0909091  -0.1550973   0.0000000), wk =   0.0165289
        k(   22) = (   0.0909091  -0.0516991   0.0000000), wk =   0.0165289
        k(   23) = (   0.1818182   0.1033982   0.0000000), wk =   0.0165289
        k(   24) = (   0.1818182   0.2067964   0.0000000), wk =   0.0165289
        k(   25) = (   0.1818182   0.3101946   0.0000000), wk =   0.0165289
        k(   26) = (   0.1818182   0.4135928   0.0000000), wk =   0.0165289
        k(   27) = (   0.1818182   0.5169910   0.0000000), wk =   0.0165289
        k(   28) = (   0.1818182   0.6203892   0.0000000), wk =   0.0165289
        k(   29) = (   0.1818182  -0.4135928   0.0000000), wk =   0.0165289
        k(   30) = (   0.1818182  -0.3101946   0.0000000), wk =   0.0165289
        k(   31) = (   0.1818182  -0.2067964   0.0000000), wk =   0.0165289
        k(   32) = (   0.1818182  -0.1033982   0.0000000), wk =   0.0165289
        k(   33) = (   0.1818182  -0.0000000   0.0000000), wk =   0.0165289
        k(   34) = (   0.2727273   0.1550973   0.0000000), wk =   0.0165289
        k(   35) = (   0.2727273   0.2584955   0.0000000), wk =   0.0165289
        k(   36) = (   0.2727273   0.3618937   0.0000000), wk =   0.0165289
        k(   37) = (   0.2727273   0.4652919   0.0000000), wk =   0.0165289
        k(   38) = (   0.2727273   0.5686901   0.0000000), wk =   0.0165289
        k(   39) = (   0.2727273   0.6720883   0.0000000), wk =   0.0165289
        k(   40) = (   0.2727273  -0.3618937   0.0000000), wk =   0.0165289
        k(   41) = (   0.2727273  -0.2584955   0.0000000), wk =   0.0165289
        k(   42) = (   0.2727273  -0.1550973   0.0000000), wk =   0.0165289
        k(   43) = (   0.2727273  -0.0516991   0.0000000), wk =   0.0165289
        k(   44) = (   0.2727273   0.0516991   0.0000000), wk =   0.0165289
        k(   45) = (   0.3636364   0.2067964   0.0000000), wk =   0.0165289
        k(   46) = (   0.3636364   0.3101946   0.0000000), wk =   0.0165289
        k(   47) = (   0.3636364   0.4135928   0.0000000), wk =   0.0165289
        k(   48) = (   0.3636364   0.5169910   0.0000000), wk =   0.0165289
        k(   49) = (   0.3636364   0.6203892   0.0000000), wk =   0.0165289
        k(   50) = (   0.3636364   0.7237874   0.0000000), wk =   0.0165289
        k(   51) = (   0.3636364  -0.3101946   0.0000000), wk =   0.0165289
        k(   52) = (   0.3636364  -0.2067964   0.0000000), wk =   0.0165289
        k(   53) = (   0.3636364  -0.1033982   0.0000000), wk =   0.0165289
        k(   54) = (   0.3636364   0.0000000   0.0000000), wk =   0.0165289
        k(   55) = (   0.3636364   0.1033982   0.0000000), wk =   0.0165289
        k(   56) = (   0.4545455   0.2584955   0.0000000), wk =   0.0165289
        k(   57) = (   0.4545455   0.3618937   0.0000000), wk =   0.0165289
        k(   58) = (   0.4545455   0.4652919   0.0000000), wk =   0.0165289
        k(   59) = (   0.4545455   0.5686901   0.0000000), wk =   0.0165289
        k(   60) = (   0.4545455   0.6720883   0.0000000), wk =   0.0165289
        k(   61) = (   0.4545455   0.7754865   0.0000000), wk =   0.0165289
        k(   62) = (   0.4545455  -0.2584955   0.0000000), wk =   0.0165289
        k(   63) = (   0.4545455  -0.1550973   0.0000000), wk =   0.0165289
        k(   64) = (   0.4545455  -0.0516991   0.0000000), wk =   0.0165289
        k(   65) = (   0.4545455   0.0516991   0.0000000), wk =   0.0165289
        k(   66) = (   0.4545455   0.1550973   0.0000000), wk =   0.0165289
        k(   67) = (  -0.4545455  -0.2584955   0.0000000), wk =   0.0165289
        k(   68) = (  -0.4545455  -0.1550973   0.0000000), wk =   0.0165289
        k(   69) = (  -0.4545455  -0.0516991   0.0000000), wk =   0.0165289
        k(   70) = (  -0.4545455   0.0516991   0.0000000), wk =   0.0165289
        k(   71) = (  -0.4545455   0.1550973   0.0000000), wk =   0.0165289
        k(   72) = (  -0.4545455   0.2584955   0.0000000), wk =   0.0165289
        k(   73) = (  -0.4545455  -0.7754865   0.0000000), wk =   0.0165289
        k(   74) = (  -0.4545455  -0.6720883   0.0000000), wk =   0.0165289
        k(   75) = (  -0.4545455  -0.5686901   0.0000000), wk =   0.0165289
        k(   76) = (  -0.4545455  -0.4652919   0.0000000), wk =   0.0165289
        k(   77) = (  -0.4545455  -0.3618937   0.0000000), wk =   0.0165289
        k(   78) = (  -0.3636364  -0.2067964   0.0000000), wk =   0.0165289
        k(   79) = (  -0.3636364  -0.1033982   0.0000000), wk =   0.0165289
        k(   80) = (  -0.3636364   0.0000000   0.0000000), wk =   0.0165289
        k(   81) = (  -0.3636364   0.1033982   0.0000000), wk =   0.0165289
        k(   82) = (  -0.3636364   0.2067964   0.0000000), wk =   0.0165289
        k(   83) = (  -0.3636364   0.3101946   0.0000000), wk =   0.0165289
        k(   84) = (  -0.3636364  -0.7237874   0.0000000), wk =   0.0165289
        k(   85) = (  -0.3636364  -0.6203892   0.0000000), wk =   0.0165289
        k(   86) = (  -0.3636364  -0.5169910   0.0000000), wk =   0.0165289
        k(   87) = (  -0.3636364  -0.4135928   0.0000000), wk =   0.0165289
        k(   88) = (  -0.3636364  -0.3101946   0.0000000), wk =   0.0165289
        k(   89) = (  -0.2727273  -0.1550973   0.0000000), wk =   0.0165289
        k(   90) = (  -0.2727273  -0.0516991   0.0000000), wk =   0.0165289
        k(   91) = (  -0.2727273   0.0516991   0.0000000), wk =   0.0165289
        k(   92) = (  -0.2727273   0.1550973   0.0000000), wk =   0.0165289
        k(   93) = (  -0.2727273   0.2584955   0.0000000), wk =   0.0165289
        k(   94) = (  -0.2727273   0.3618937   0.0000000), wk =   0.0165289
        k(   95) = (  -0.2727273  -0.6720883   0.0000000), wk =   0.0165289
        k(   96) = (  -0.2727273  -0.5686901   0.0000000), wk =   0.0165289
        k(   97) = (  -0.2727273  -0.4652919   0.0000000), wk =   0.0165289
        k(   98) = (  -0.2727273  -0.3618937   0.0000000), wk =   0.0165289
        k(   99) = (  -0.2727273  -0.2584955   0.0000000), wk =   0.0165289
        k(  100) = (  -0.1818182  -0.1033982   0.0000000), wk =   0.0165289
        k(  101) = (  -0.1818182   0.0000000   0.0000000), wk =   0.0165289
        k(  102) = (  -0.1818182   0.1033982   0.0000000), wk =   0.0165289
        k(  103) = (  -0.1818182   0.2067964   0.0000000), wk =   0.0165289
        k(  104) = (  -0.1818182   0.3101946   0.0000000), wk =   0.0165289
        k(  105) = (  -0.1818182   0.4135928   0.0000000), wk =   0.0165289
        k(  106) = (  -0.1818182  -0.6203892   0.0000000), wk =   0.0165289
        k(  107) = (  -0.1818182  -0.5169910   0.0000000), wk =   0.0165289
        k(  108) = (  -0.1818182  -0.4135928   0.0000000), wk =   0.0165289
        k(  109) = (  -0.1818182  -0.3101946   0.0000000), wk =   0.0165289
        k(  110) = (  -0.1818182  -0.2067964   0.0000000), wk =   0.0165289
        k(  111) = (  -0.0909091  -0.0516991   0.0000000), wk =   0.0165289
        k(  112) = (  -0.0909091   0.0516991   0.0000000), wk =   0.0165289
        k(  113) = (  -0.0909091   0.1550973   0.0000000), wk =   0.0165289
        k(  114) = (  -0.0909091   0.2584955   0.0000000), wk =   0.0165289
        k(  115) = (  -0.0909091   0.3618937   0.0000000), wk =   0.0165289
        k(  116) = (  -0.0909091   0.4652919   0.0000000), wk =   0.0165289
        k(  117) = (  -0.0909091  -0.5686901   0.0000000), wk =   0.0165289
        k(  118) = (  -0.0909091  -0.4652919   0.0000000), wk =   0.0165289
        k(  119) = (  -0.0909091  -0.3618937   0.0000000), wk =   0.0165289
        k(  120) = (  -0.0909091  -0.2584955   0.0000000), wk =   0.0165289
        k(  121) = (  -0.0909091  -0.1550973   0.0000000), wk =   0.0165289

                       cryst. coord.
        k(    1) = (   0.0000000   0.0000000   0.0000000), wk =   0.0165289
        k(    2) = (   0.0000000   0.0909091   0.0000000), wk =   0.0165289
        k(    3) = (   0.0000000   0.1818182   0.0000000), wk =   0.0165289
        k(    4) = (   0.0000000   0.2727273   0.0000000), wk =   0.0165289
        k(    5) = (   0.0000000   0.3636364   0.0000000), wk =   0.0165289
        k(    6) = (   0.0000000   0.4545455   0.0000000), wk =   0.0165289
        k(    7) = (   0.0000000  -0.4545455   0.0000000), wk =   0.0165289
        k(    8) = (   0.0000000  -0.3636364   0.0000000), wk =   0.0165289
        k(    9) = (   0.0000000  -0.2727273   0.0000000), wk =   0.0165289
        k(   10) = (   0.0000000  -0.1818182   0.0000000), wk =   0.0165289
        k(   11) = (   0.0000000  -0.0909091   0.0000000), wk =   0.0165289
        k(   12) = (   0.0909091   0.0000000   0.0000000), wk =   0.0165289
        k(   13) = (   0.0909091   0.0909091   0.0000000), wk =   0.0165289
        k(   14) = (   0.0909091   0.1818182   0.0000000), wk =   0.0165289
        k(   15) = (   0.0909091   0.2727273   0.0000000), wk =   0.0165289
        k(   16) = (   0.0909091   0.3636364   0.0000000), wk =   0.0165289
        k(   17) = (   0.0909091   0.4545455   0.0000000), wk =   0.0165289
        k(   18) = (   0.0909091  -0.4545455   0.0000000), wk =   0.0165289
        k(   19) = (   0.0909091  -0.3636364   0.0000000), wk =   0.0165289
        k(   20) = (   0.0909091  -0.2727273   0.0000000), wk =   0.0165289
        k(   21) = (   0.0909091  -0.1818182   0.0000000), wk =   0.0165289
        k(   22) = (   0.0909091  -0.0909091   0.0000000), wk =   0.0165289
        k(   23) = (   0.1818182   0.0000000   0.0000000), wk =   0.0165289
        k(   24) = (   0.1818182   0.0909091   0.0000000), wk =   0.0165289
        k(   25) = (   0.1818182   0.1818182   0.0000000), wk =   0.0165289
        k(   26) = (   0.1818182   0.2727273   0.0000000), wk =   0.0165289
        k(   27) = (   0.1818182   0.3636364   0.0000000), wk =   0.0165289
        k(   28) = (   0.1818182   0.4545455   0.0000000), wk =   0.0165289
        k(   29) = (   0.1818182  -0.4545455   0.0000000), wk =   0.0165289
        k(   30) = (   0.1818182  -0.3636364   0.0000000), wk =   0.0165289
        k(   31) = (   0.1818182  -0.2727273   0.0000000), wk =   0.0165289
        k(   32) = (   0.1818182  -0.1818182   0.0000000), wk =   0.0165289
        k(   33) = (   0.1818182  -0.0909091   0.0000000), wk =   0.0165289
        k(   34) = (   0.2727273   0.0000000   0.0000000), wk =   0.0165289
        k(   35) = (   0.2727273   0.0909091   0.0000000), wk =   0.0165289
        k(   36) = (   0.2727273   0.1818182   0.0000000), wk =   0.0165289
        k(   37) = (   0.2727273   0.2727273   0.0000000), wk =   0.0165289
        k(   38) = (   0.2727273   0.3636364   0.0000000), wk =   0.0165289
        k(   39) = (   0.2727273   0.4545455   0.0000000), wk =   0.0165289
        k(   40) = (   0.2727273  -0.4545455   0.0000000), wk =   0.0165289
        k(   41) = (   0.2727273  -0.3636364   0.0000000), wk =   0.0165289
        k(   42) = (   0.2727273  -0.2727273   0.0000000), wk =   0.0165289
        k(   43) = (   0.2727273  -0.1818182   0.0000000), wk =   0.0165289
        k(   44) = (   0.2727273  -0.0909091   0.0000000), wk =   0.0165289
        k(   45) = (   0.3636364   0.0000000   0.0000000), wk =   0.0165289
        k(   46) = (   0.3636364   0.0909091   0.0000000), wk =   0.0165289
        k(   47) = (   0.3636364   0.1818182   0.0000000), wk =   0.0165289
        k(   48) = (   0.3636364   0.2727273   0.0000000), wk =   0.0165289
        k(   49) = (   0.3636364   0.3636364   0.0000000), wk =   0.0165289
        k(   50) = (   0.3636364   0.4545455   0.0000000), wk =   0.0165289
        k(   51) = (   0.3636364  -0.4545455   0.0000000), wk =   0.0165289
        k(   52) = (   0.3636364  -0.3636364   0.0000000), wk =   0.0165289
        k(   53) = (   0.3636364  -0.2727273   0.0000000), wk =   0.0165289
        k(   54) = (   0.3636364  -0.1818182   0.0000000), wk =   0.0165289
        k(   55) = (   0.3636364  -0.0909091   0.0000000), wk =   0.0165289
        k(   56) = (   0.4545455   0.0000000   0.0000000), wk =   0.0165289
        k(   57) = (   0.4545455   0.0909091   0.0000000), wk =   0.0165289
        k(   58) = (   0.4545455   0.1818182   0.0000000), wk =   0.0165289
        k(   59) = (   0.4545455   0.2727273   0.0000000), wk =   0.0165289
        k(   60) = (   0.4545455   0.3636364   0.0000000), wk =   0.0165289
        k(   61) = (   0.4545455   0.4545455   0.0000000), wk =   0.0165289
        k(   62) = (   0.4545455  -0.4545455   0.0000000), wk =   0.0165289
        k(   63) = (   0.4545455  -0.3636364   0.0000000), wk =   0.0165289
        k(   64) = (   0.4545455  -0.2727273   0.0000000), wk =   0.0165289
        k(   65) = (   0.4545455  -0.1818182   0.0000000), wk =   0.0165289
        k(   66) = (   0.4545455  -0.0909091   0.0000000), wk =   0.0165289
        k(   67) = (  -0.4545455   0.0000000   0.0000000), wk =   0.0165289
        k(   68) = (  -0.4545455   0.0909091   0.0000000), wk =   0.0165289
        k(   69) = (  -0.4545455   0.1818182   0.0000000), wk =   0.0165289
        k(   70) = (  -0.4545455   0.2727273   0.0000000), wk =   0.0165289
        k(   71) = (  -0.4545455   0.3636364   0.0000000), wk =   0.0165289
        k(   72) = (  -0.4545455   0.4545455   0.0000000), wk =   0.0165289
        k(   73) = (  -0.4545455  -0.4545455   0.0000000), wk =   0.0165289
        k(   74) = (  -0.4545455  -0.3636364   0.0000000), wk =   0.0165289
        k(   75) = (  -0.4545455  -0.2727273   0.0000000), wk =   0.0165289
        k(   76) = (  -0.4545455  -0.1818182   0.0000000), wk =   0.0165289
        k(   77) = (  -0.4545455  -0.0909091   0.0000000), wk =   0.0165289
        k(   78) = (  -0.3636364  -0.0000000   0.0000000), wk =   0.0165289
        k(   79) = (  -0.3636364   0.0909091   0.0000000), wk =   0.0165289
        k(   80) = (  -0.3636364   0.1818182   0.0000000), wk =   0.0165289
        k(   81) = (  -0.3636364   0.2727273   0.0000000), wk =   0.0165289
        k(   82) = (  -0.3636364   0.3636364   0.0000000), wk =   0.0165289
        k(   83) = (  -0.3636364   0.4545455   0.0000000), wk =   0.0165289
        k(   84) = (  -0.3636364  -0.4545455   0.0000000), wk =   0.0165289
        k(   85) = (  -0.3636364  -0.3636364   0.0000000), wk =   0.0165289
        k(   86) = (  -0.3636364  -0.2727273   0.0000000), wk =   0.0165289
        k(   87) = (  -0.3636364  -0.1818182   0.0000000), wk =   0.0165289
        k(   88) = (  -0.3636364  -0.0909091   0.0000000), wk =   0.0165289
        k(   89) = (  -0.2727273  -0.0000000   0.0000000), wk =   0.0165289
        k(   90) = (  -0.2727273   0.0909091   0.0000000), wk =   0.0165289
        k(   91) = (  -0.2727273   0.1818182   0.0000000), wk =   0.0165289
        k(   92) = (  -0.2727273   0.2727273   0.0000000), wk =   0.0165289
        k(   93) = (  -0.2727273   0.3636364   0.0000000), wk =   0.0165289
        k(   94) = (  -0.2727273   0.4545455   0.0000000), wk =   0.0165289
        k(   95) = (  -0.2727273  -0.4545455   0.0000000), wk =   0.0165289
        k(   96) = (  -0.2727273  -0.3636364   0.0000000), wk =   0.0165289
        k(   97) = (  -0.2727273  -0.2727273   0.0000000), wk =   0.0165289
        k(   98) = (  -0.2727273  -0.1818182   0.0000000), wk =   0.0165289
        k(   99) = (  -0.2727273  -0.0909091   0.0000000), wk =   0.0165289
        k(  100) = (  -0.1818182  -0.0000000   0.0000000), wk =   0.0165289
        k(  101) = (  -0.1818182   0.0909091   0.0000000), wk =   0.0165289
        k(  102) = (  -0.1818182   0.1818182   0.0000000), wk =   0.0165289
        k(  103) = (  -0.1818182   0.2727273   0.0000000), wk =   0.0165289
        k(  104) = (  -0.1818182   0.3636364   0.0000000), wk =   0.0165289
        k(  105) = (  -0.1818182   0.4545455   0.0000000), wk =   0.0165289
        k(  106) = (  -0.1818182  -0.4545455   0.0000000), wk =   0.0165289
        k(  107) = (  -0.1818182  -0.3636364   0.0000000), wk =   0.0165289
        k(  108) = (  -0.1818182  -0.2727273   0.0000000), wk =   0.0165289
        k(  109) = (  -0.1818182  -0.1818182   0.0000000), wk =   0.0165289
        k(  110) = (  -0.1818182  -0.0909091   0.0000000), wk =   0.0165289
        k(  111) = (  -0.0909091   0.0000000   0.0000000), wk =   0.0165289
        k(  112) = (  -0.0909091   0.0909091   0.0000000), wk =   0.0165289
        k(  113) = (  -0.0909091   0.1818182   0.0000000), wk =   0.0165289
        k(  114) = (  -0.0909091   0.2727273   0.0000000), wk =   0.0165289
        k(  115) = (  -0.0909091   0.3636364   0.0000000), wk =   0.0165289
        k(  116) = (  -0.0909091   0.4545455   0.0000000), wk =   0.0165289
        k(  117) = (  -0.0909091  -0.4545455   0.0000000), wk =   0.0165289
        k(  118) = (  -0.0909091  -0.3636364   0.0000000), wk =   0.0165289
        k(  119) = (  -0.0909091  -0.2727273   0.0000000), wk =   0.0165289
        k(  120) = (  -0.0909091  -0.1818182   0.0000000), wk =   0.0165289
        k(  121) = (  -0.0909091  -0.0909091   0.0000000), wk =   0.0165289

     Dense  grid:   161881 G-vectors     FFT dimensions: (  36,  36, 320)

     Smooth grid:   115865 G-vectors     FFT dimensions: (  32,  32, 288)

     Dynamical RAM for                 wfc:       4.65 MB

     Dynamical RAM for     wfc (w. buffer):     566.69 MB

     Dynamical RAM for           str. fact:       7.41 MB

     Dynamical RAM for           local pot:       0.00 MB

     Dynamical RAM for          nlocal pot:      14.60 MB

     Dynamical RAM for                qrad:       4.82 MB

     Dynamical RAM for          rho,v,vnew:      16.90 MB

     Dynamical RAM for               rhoin:       5.63 MB

     Dynamical RAM for            rho*nmix:      39.52 MB

     Dynamical RAM for           G-vectors:      10.15 MB

     Dynamical RAM for          h,s,v(r/c):       0.08 MB

     Dynamical RAM for          <psi|beta>:       0.02 MB

     Dynamical RAM for                 psi:       9.29 MB

     Dynamical RAM for                hpsi:       9.29 MB

     Dynamical RAM for      wfcinit/wfcrot:       9.30 MB

     Estimated static dynamical RAM per process >     651.90 MB

     Estimated max dynamical RAM per process >     710.11 MB
 ----2D----2D----2D----2D----2D----2D----2D----2D----2D----2D----2D----2D
  The code is running with the 2D cutoff
  Please refer to:
  Sohier, T., Calandra, M., & Mauri, F. (2017), 
  Density functional perturbation theory for gated two-dimensional heterostructures:
  Theoretical developments and application to flexural phonons in graphene.
  Physical Review B, 96(7), 75448. https://doi.org/10.1103/PhysRevB.96.075448
 ----2D----2D----2D----2D----2D----2D----2D----2D----2D----2D----2D----2D

     Initial potential from superposition of free atoms

     starting charge      41.9980, renormalised to      42.0000

     negative rho (up, down):  1.491E-06 0.000E+00
     Starting wfcs are   34 randomized atomic wfcs

     total cpu time spent up to now is        7.2 secs

     Self-consistent Calculation
[tb_dev] Currently allocated     1.51E+00 Mbytes, locked:    0 /   5
[tb_pin] Currently allocated     0.00E+00 Mbytes, locked:    0 /   0

     iteration #  1     ecut=    80.00 Ry     beta= 0.40
     Davidson diagonalization with overlap

---- Real-time Memory Report at c_bands before calling an iterative solver
          1261 MiB given to the printing process from OS
             0 MiB allocation reported by mallinfo(arena+hblkhd)
         16016 MiB available memory on the node where the printing process lives
     GPU memory used/free/total (MiB): 1191 / 10722 / 11914
------------------
     ethr =  1.00E-02,  avg # of iterations =  2.0

     total cpu time spent up to now is       18.1 secs

     total energy              =    -262.38800884 Ry
     estimated scf accuracy    <       2.05831478 Ry
[tb_dev] Currently allocated     2.67E-05 Mbytes, locked:    0 /   1
[tb_pin] Currently allocated     0.00E+00 Mbytes, locked:    0 /   0

     iteration #  2     ecut=    80.00 Ry     beta= 0.40
     Davidson diagonalization with overlap

---- Real-time Memory Report at c_bands before calling an iterative solver
          1278 MiB given to the printing process from OS
             0 MiB allocation reported by mallinfo(arena+hblkhd)
         15997 MiB available memory on the node where the printing process lives
     GPU memory used/free/total (MiB): 1195 / 10718 / 11914
------------------
     ethr =  4.90E-03,  avg # of iterations =  6.3

     total cpu time spent up to now is       37.3 secs

     total energy              =    -262.60572044 Ry
     estimated scf accuracy    <       2.29328965 Ry
[tb_dev] Currently allocated     2.67E-05 Mbytes, locked:    0 /   1
[tb_pin] Currently allocated     0.00E+00 Mbytes, locked:    0 /   0

     iteration #  3     ecut=    80.00 Ry     beta= 0.40
     Davidson diagonalization with overlap

---- Real-time Memory Report at c_bands before calling an iterative solver
          1300 MiB given to the printing process from OS
             0 MiB allocation reported by mallinfo(arena+hblkhd)
         15992 MiB available memory on the node where the printing process lives
     GPU memory used/free/total (MiB): 1195 / 10718 / 11914
------------------
     ethr =  4.90E-03,  avg # of iterations =  5.2

     total cpu time spent up to now is       53.2 secs

     total energy              =    -262.91544070 Ry
     estimated scf accuracy    <       0.91126959 Ry
[tb_dev] Currently allocated     2.67E-05 Mbytes, locked:    0 /   1
[tb_pin] Currently allocated     0.00E+00 Mbytes, locked:    0 /   0

     iteration #  4     ecut=    80.00 Ry     beta= 0.40
     Davidson diagonalization with overlap

---- Real-time Memory Report at c_bands before calling an iterative solver
          1306 MiB given to the printing process from OS
             0 MiB allocation reported by mallinfo(arena+hblkhd)
         15991 MiB available memory on the node where the printing process lives
     GPU memory used/free/total (MiB): 1195 / 10718 / 11914
------------------
     ethr =  2.17E-03,  avg # of iterations =  3.3

     total cpu time spent up to now is       66.0 secs

     total energy              =    -262.97907279 Ry
     estimated scf accuracy    <       0.16185537 Ry
[tb_dev] Currently allocated     2.67E-05 Mbytes, locked:    0 /   1
[tb_pin] Currently allocated     0.00E+00 Mbytes, locked:    0 /   0

     iteration #  5     ecut=    80.00 Ry     beta= 0.40
     Davidson diagonalization with overlap

---- Real-time Memory Report at c_bands before calling an iterative solver
          1311 MiB given to the printing process from OS
             0 MiB allocation reported by mallinfo(arena+hblkhd)
         15974 MiB available memory on the node where the printing process lives
     GPU memory used/free/total (MiB): 1195 / 10718 / 11914
------------------
     ethr =  3.85E-04,  avg # of iterations =  5.2

     total cpu time spent up to now is       81.7 secs

     total energy              =    -263.02093166 Ry
     estimated scf accuracy    <       0.06987457 Ry
[tb_dev] Currently allocated     2.67E-05 Mbytes, locked:    0 /   1
[tb_pin] Currently allocated     0.00E+00 Mbytes, locked:    0 /   0

     iteration #  6     ecut=    80.00 Ry     beta= 0.40
     Davidson diagonalization with overlap

---- Real-time Memory Report at c_bands before calling an iterative solver
          1317 MiB given to the printing process from OS
             0 MiB allocation reported by mallinfo(arena+hblkhd)
         15970 MiB available memory on the node where the printing process lives
     GPU memory used/free/total (MiB): 1195 / 10718 / 11914
------------------
     ethr =  1.66E-04,  avg # of iterations =  5.2

     total cpu time spent up to now is       97.3 secs

     total energy              =    -263.02087564 Ry
     estimated scf accuracy    <       0.07656184 Ry
[tb_dev] Currently allocated     2.67E-05 Mbytes, locked:    0 /   1
[tb_pin] Currently allocated     0.00E+00 Mbytes, locked:    0 /   0

     iteration #  7     ecut=    80.00 Ry     beta= 0.40
     Davidson diagonalization with overlap

---- Real-time Memory Report at c_bands before calling an iterative solver
          1328 MiB given to the printing process from OS
             0 MiB allocation reported by mallinfo(arena+hblkhd)
         15959 MiB available memory on the node where the printing process lives
     GPU memory used/free/total (MiB): 1195 / 10718 / 11914
------------------
     ethr =  1.66E-04,  avg # of iterations =  4.6

     total cpu time spent up to now is      111.4 secs

     total energy              =    -263.02839757 Ry
     estimated scf accuracy    <       0.00834582 Ry
[tb_dev] Currently allocated     2.67E-05 Mbytes, locked:    0 /   1
[tb_pin] Currently allocated     0.00E+00 Mbytes, locked:    0 /   0

     iteration #  8     ecut=    80.00 Ry     beta= 0.40
     Davidson diagonalization with overlap

---- Real-time Memory Report at c_bands before calling an iterative solver
          1332 MiB given to the printing process from OS
             0 MiB allocation reported by mallinfo(arena+hblkhd)
         15960 MiB available memory on the node where the printing process lives
     GPU memory used/free/total (MiB): 1195 / 10718 / 11914
------------------
     ethr =  1.99E-05,  avg # of iterations =  5.6

     total cpu time spent up to now is      127.5 secs

     total energy              =    -263.02696748 Ry
     estimated scf accuracy    <       0.01235196 Ry
[tb_dev] Currently allocated     2.67E-05 Mbytes, locked:    0 /   1
[tb_pin] Currently allocated     0.00E+00 Mbytes, locked:    0 /   0

     iteration #  9     ecut=    80.00 Ry     beta= 0.40
     Davidson diagonalization with overlap

---- Real-time Memory Report at c_bands before calling an iterative solver
          1336 MiB given to the printing process from OS
             0 MiB allocation reported by mallinfo(arena+hblkhd)
         15955 MiB available memory on the node where the printing process lives
     GPU memory used/free/total (MiB): 1197 / 10716 / 11914
------------------
     ethr =  1.99E-05,  avg # of iterations =  8.0

     total cpu time spent up to now is      148.1 secs

     total energy              =    -263.02830810 Ry
     estimated scf accuracy    <       0.03125728 Ry
[tb_dev] Currently allocated     2.67E-05 Mbytes, locked:    0 /   1
[tb_pin] Currently allocated     0.00E+00 Mbytes, locked:    0 /   0

     iteration # 10     ecut=    80.00 Ry     beta= 0.40
     Davidson diagonalization with overlap

---- Real-time Memory Report at c_bands before calling an iterative solver
          1343 MiB given to the printing process from OS
             0 MiB allocation reported by mallinfo(arena+hblkhd)
         15950 MiB available memory on the node where the printing process lives
     GPU memory used/free/total (MiB): 1197 / 10716 / 11914
------------------
     ethr =  1.99E-05,  avg # of iterations =  5.6

     total cpu time spent up to now is      164.9 secs

     total energy              =    -263.03020413 Ry
     estimated scf accuracy    <       0.00059441 Ry
[tb_dev] Currently allocated     2.67E-05 Mbytes, locked:    0 /   1
[tb_pin] Currently allocated     0.00E+00 Mbytes, locked:    0 /   0

     iteration # 11     ecut=    80.00 Ry     beta= 0.40
     Davidson diagonalization with overlap

---- Real-time Memory Report at c_bands before calling an iterative solver
          1345 MiB given to the printing process from OS
             0 MiB allocation reported by mallinfo(arena+hblkhd)
         15948 MiB available memory on the node where the printing process lives
     GPU memory used/free/total (MiB): 1197 / 10716 / 11914
------------------
     ethr =  1.42E-06,  avg # of iterations =  7.7

     total cpu time spent up to now is      185.5 secs

     total energy              =    -263.03053639 Ry
     estimated scf accuracy    <       0.00099597 Ry
[tb_dev] Currently allocated     2.67E-05 Mbytes, locked:    0 /   1
[tb_pin] Currently allocated     0.00E+00 Mbytes, locked:    0 /   0

     iteration # 12     ecut=    80.00 Ry     beta= 0.40
     Davidson diagonalization with overlap

---- Real-time Memory Report at c_bands before calling an iterative solver
          1346 MiB given to the printing process from OS
             0 MiB allocation reported by mallinfo(arena+hblkhd)
         15945 MiB available memory on the node where the printing process lives
     GPU memory used/free/total (MiB): 1197 / 10716 / 11914
------------------
     ethr =  1.42E-06,  avg # of iterations =  2.4

     total cpu time spent up to now is      196.3 secs

     total energy              =    -263.03048689 Ry
     estimated scf accuracy    <       0.00042371 Ry
[tb_dev] Currently allocated     2.67E-05 Mbytes, locked:    0 /   1
[tb_pin] Currently allocated     0.00E+00 Mbytes, locked:    0 /   0

     iteration # 13     ecut=    80.00 Ry     beta= 0.40
     Davidson diagonalization with overlap

---- Real-time Memory Report at c_bands before calling an iterative solver
          1346 MiB given to the printing process from OS
             0 MiB allocation reported by mallinfo(arena+hblkhd)
         15939 MiB available memory on the node where the printing process lives
     GPU memory used/free/total (MiB): 1197 / 10716 / 11914
------------------
     ethr =  1.01E-06,  avg # of iterations =  5.6

     total cpu time spent up to now is      212.7 secs

     total energy              =    -263.03057041 Ry
     estimated scf accuracy    <       0.00017780 Ry
[tb_dev] Currently allocated     2.67E-05 Mbytes, locked:    0 /   1
[tb_pin] Currently allocated     0.00E+00 Mbytes, locked:    0 /   0

     iteration # 14     ecut=    80.00 Ry     beta= 0.40
     Davidson diagonalization with overlap

---- Real-time Memory Report at c_bands before calling an iterative solver
          1346 MiB given to the printing process from OS
             0 MiB allocation reported by mallinfo(arena+hblkhd)
         15951 MiB available memory on the node where the printing process lives
     GPU memory used/free/total (MiB): 1197 / 10716 / 11914
------------------
     ethr =  4.23E-07,  avg # of iterations =  1.6

     total cpu time spent up to now is      222.4 secs

     total energy              =    -263.03055524 Ry
     estimated scf accuracy    <       0.00011344 Ry
[tb_dev] Currently allocated     2.67E-05 Mbytes, locked:    0 /   1
[tb_pin] Currently allocated     0.00E+00 Mbytes, locked:    0 /   0

     iteration # 15     ecut=    80.00 Ry     beta= 0.40
     Davidson diagonalization with overlap

---- Real-time Memory Report at c_bands before calling an iterative solver
          1347 MiB given to the printing process from OS
             0 MiB allocation reported by mallinfo(arena+hblkhd)
         15948 MiB available memory on the node where the printing process lives
     GPU memory used/free/total (MiB): 1197 / 10716 / 11914
------------------
     ethr =  2.70E-07,  avg # of iterations =  5.5

     total cpu time spent up to now is      237.6 secs

     total energy              =    -263.03057845 Ry
     estimated scf accuracy    <       0.00006272 Ry
[tb_dev] Currently allocated     2.67E-05 Mbytes, locked:    0 /   1
[tb_pin] Currently allocated     0.00E+00 Mbytes, locked:    0 /   0

     iteration # 16     ecut=    80.00 Ry     beta= 0.40
     Davidson diagonalization with overlap

---- Real-time Memory Report at c_bands before calling an iterative solver
          1347 MiB given to the printing process from OS
             0 MiB allocation reported by mallinfo(arena+hblkhd)
         15951 MiB available memory on the node where the printing process lives
     GPU memory used/free/total (MiB): 1197 / 10716 / 11914
------------------
     ethr =  1.49E-07,  avg # of iterations =  2.2

     total cpu time spent up to now is      248.7 secs

     total energy              =    -263.03057675 Ry
     estimated scf accuracy    <       0.00005665 Ry
[tb_dev] Currently allocated     2.67E-05 Mbytes, locked:    0 /   1
[tb_pin] Currently allocated     0.00E+00 Mbytes, locked:    0 /   0

     iteration # 17     ecut=    80.00 Ry     beta= 0.40
     Davidson diagonalization with overlap

---- Real-time Memory Report at c_bands before calling an iterative solver
          1347 MiB given to the printing process from OS
             0 MiB allocation reported by mallinfo(arena+hblkhd)
         15951 MiB available memory on the node where the printing process lives
     GPU memory used/free/total (MiB): 1197 / 10716 / 11914
------------------
     ethr =  1.35E-07,  avg # of iterations =  2.3

     negative rho (up, down):  1.197E-08 0.000E+00

     total cpu time spent up to now is      260.5 secs

     total energy              =    -263.03057145 Ry
     estimated scf accuracy    <       0.00004294 Ry
[tb_dev] Currently allocated     2.67E-05 Mbytes, locked:    0 /   1
[tb_pin] Currently allocated     0.00E+00 Mbytes, locked:    0 /   0

     iteration # 18     ecut=    80.00 Ry     beta= 0.40
     Davidson diagonalization with overlap

---- Real-time Memory Report at c_bands before calling an iterative solver
          1347 MiB given to the printing process from OS
             0 MiB allocation reported by mallinfo(arena+hblkhd)
         15952 MiB available memory on the node where the printing process lives
     GPU memory used/free/total (MiB): 1197 / 10716 / 11914
------------------
     ethr =  1.02E-07,  avg # of iterations =  5.0

     total cpu time spent up to now is      275.4 secs

     total energy              =    -263.03057628 Ry
     estimated scf accuracy    <       0.00001630 Ry
[tb_dev] Currently allocated     2.67E-05 Mbytes, locked:    0 /   1
[tb_pin] Currently allocated     0.00E+00 Mbytes, locked:    0 /   0

     iteration # 19     ecut=    80.00 Ry     beta= 0.40
     Davidson diagonalization with overlap

---- Real-time Memory Report at c_bands before calling an iterative solver
          1347 MiB given to the printing process from OS
             0 MiB allocation reported by mallinfo(arena+hblkhd)
         15954 MiB available memory on the node where the printing process lives
     GPU memory used/free/total (MiB): 1197 / 10716 / 11914
------------------
     ethr =  3.88E-08,  avg # of iterations =  1.4

     total cpu time spent up to now is      284.8 secs

     total energy              =    -263.03057633 Ry
     estimated scf accuracy    <       0.00001345 Ry
[tb_dev] Currently allocated     2.67E-05 Mbytes, locked:    0 /   1
[tb_pin] Currently allocated     0.00E+00 Mbytes, locked:    0 /   0

     iteration # 20     ecut=    80.00 Ry     beta= 0.40
     Davidson diagonalization with overlap

---- Real-time Memory Report at c_bands before calling an iterative solver
          1347 MiB given to the printing process from OS
             0 MiB allocation reported by mallinfo(arena+hblkhd)
         15952 MiB available memory on the node where the printing process lives
     GPU memory used/free/total (MiB): 1197 / 10716 / 11914
------------------
     ethr =  3.20E-08,  avg # of iterations =  1.0

     total cpu time spent up to now is      293.4 secs

     total energy              =    -263.03057615 Ry
     estimated scf accuracy    <       0.00001205 Ry
[tb_dev] Currently allocated     2.67E-05 Mbytes, locked:    0 /   1
[tb_pin] Currently allocated     0.00E+00 Mbytes, locked:    0 /   0

     iteration # 21     ecut=    80.00 Ry     beta= 0.40
     Davidson diagonalization with overlap

---- Real-time Memory Report at c_bands before calling an iterative solver
          1348 MiB given to the printing process from OS
             0 MiB allocation reported by mallinfo(arena+hblkhd)
         15951 MiB available memory on the node where the printing process lives
     GPU memory used/free/total (MiB): 1197 / 10716 / 11914
------------------
     ethr =  2.87E-08,  avg # of iterations =  2.0

     total cpu time spent up to now is      304.1 secs

     total energy              =    -263.03057527 Ry
     estimated scf accuracy    <       0.00000893 Ry
[tb_dev] Currently allocated     2.67E-05 Mbytes, locked:    0 /   1
[tb_pin] Currently allocated     0.00E+00 Mbytes, locked:    0 /   0

     iteration # 22     ecut=    80.00 Ry     beta= 0.40
     Davidson diagonalization with overlap

---- Real-time Memory Report at c_bands before calling an iterative solver
          1348 MiB given to the printing process from OS
             0 MiB allocation reported by mallinfo(arena+hblkhd)
         15951 MiB available memory on the node where the printing process lives
     GPU memory used/free/total (MiB): 1197 / 10716 / 11914
------------------
     ethr =  2.13E-08,  avg # of iterations =  6.0

     total cpu time spent up to now is      320.7 secs

     total energy              =    -263.03057737 Ry
     estimated scf accuracy    <       0.00001178 Ry
[tb_dev] Currently allocated     2.67E-05 Mbytes, locked:    0 /   1
[tb_pin] Currently allocated     0.00E+00 Mbytes, locked:    0 /   0

     iteration # 23     ecut=    80.00 Ry     beta= 0.40
     Davidson diagonalization with overlap

---- Real-time Memory Report at c_bands before calling an iterative solver
          1348 MiB given to the printing process from OS
             0 MiB allocation reported by mallinfo(arena+hblkhd)
         15960 MiB available memory on the node where the printing process lives
     GPU memory used/free/total (MiB): 1197 / 10716 / 11914
------------------
     ethr =  2.13E-08,  avg # of iterations =  1.2

     total cpu time spent up to now is      329.5 secs

     total energy              =    -263.03057690 Ry
     estimated scf accuracy    <       0.00001165 Ry
[tb_dev] Currently allocated     2.67E-05 Mbytes, locked:    0 /   1
[tb_pin] Currently allocated     0.00E+00 Mbytes, locked:    0 /   0

     iteration # 24     ecut=    80.00 Ry     beta= 0.40
     Davidson diagonalization with overlap

---- Real-time Memory Report at c_bands before calling an iterative solver
          1348 MiB given to the printing process from OS
             0 MiB allocation reported by mallinfo(arena+hblkhd)
         15957 MiB available memory on the node where the printing process lives
     GPU memory used/free/total (MiB): 1197 / 10716 / 11914
------------------
     ethr =  2.13E-08,  avg # of iterations =  1.3

     total cpu time spent up to now is      338.8 secs

     total energy              =    -263.03057682 Ry
     estimated scf accuracy    <       0.00000917 Ry
[tb_dev] Currently allocated     2.67E-05 Mbytes, locked:    0 /   1
[tb_pin] Currently allocated     0.00E+00 Mbytes, locked:    0 /   0

     iteration # 25     ecut=    80.00 Ry     beta= 0.40
     Davidson diagonalization with overlap

---- Real-time Memory Report at c_bands before calling an iterative solver
          1348 MiB given to the printing process from OS
             0 MiB allocation reported by mallinfo(arena+hblkhd)
         15958 MiB available memory on the node where the printing process lives
     GPU memory used/free/total (MiB): 1197 / 10716 / 11914
------------------
     ethr =  2.13E-08,  avg # of iterations =  1.6

     total cpu time spent up to now is      348.8 secs

     total energy              =    -263.03057673 Ry
     estimated scf accuracy    <       0.00000803 Ry
[tb_dev] Currently allocated     2.67E-05 Mbytes, locked:    0 /   1
[tb_pin] Currently allocated     0.00E+00 Mbytes, locked:    0 /   0

     iteration # 26     ecut=    80.00 Ry     beta= 0.40
     Davidson diagonalization with overlap

---- Real-time Memory Report at c_bands before calling an iterative solver
          1349 MiB given to the printing process from OS
             0 MiB allocation reported by mallinfo(arena+hblkhd)
         15958 MiB available memory on the node where the printing process lives
     GPU memory used/free/total (MiB): 1197 / 10716 / 11914
------------------
     ethr =  1.91E-08,  avg # of iterations =  1.8

     total cpu time spent up to now is      359.0 secs

     total energy              =    -263.03057573 Ry
     estimated scf accuracy    <       0.00000644 Ry
[tb_dev] Currently allocated     2.67E-05 Mbytes, locked:    0 /   1
[tb_pin] Currently allocated     0.00E+00 Mbytes, locked:    0 /   0

     iteration # 27     ecut=    80.00 Ry     beta= 0.40
     Davidson diagonalization with overlap

---- Real-time Memory Report at c_bands before calling an iterative solver
          1349 MiB given to the printing process from OS
             0 MiB allocation reported by mallinfo(arena+hblkhd)
         15958 MiB available memory on the node where the printing process lives
     GPU memory used/free/total (MiB): 1197 / 10716 / 11914
------------------
     ethr =  1.53E-08,  avg # of iterations =  6.3

     total cpu time spent up to now is      376.3 secs

     total energy              =    -263.03057699 Ry
     estimated scf accuracy    <       0.00000875 Ry
[tb_dev] Currently allocated     2.67E-05 Mbytes, locked:    0 /   1
[tb_pin] Currently allocated     0.00E+00 Mbytes, locked:    0 /   0

     iteration # 28     ecut=    80.00 Ry     beta= 0.40
     Davidson diagonalization with overlap

---- Real-time Memory Report at c_bands before calling an iterative solver
          1349 MiB given to the printing process from OS
             0 MiB allocation reported by mallinfo(arena+hblkhd)
         15963 MiB available memory on the node where the printing process lives
     GPU memory used/free/total (MiB): 1197 / 10716 / 11914
------------------
     ethr =  1.53E-08,  avg # of iterations =  1.0

     total cpu time spent up to now is      384.9 secs

     total energy              =    -263.03057599 Ry
     estimated scf accuracy    <       0.00000714 Ry
[tb_dev] Currently allocated     2.67E-05 Mbytes, locked:    0 /   1
[tb_pin] Currently allocated     0.00E+00 Mbytes, locked:    0 /   0

     iteration # 29     ecut=    80.00 Ry     beta= 0.40
     Davidson diagonalization with overlap

---- Real-time Memory Report at c_bands before calling an iterative solver
          1349 MiB given to the printing process from OS
             0 MiB allocation reported by mallinfo(arena+hblkhd)
         15961 MiB available memory on the node where the printing process lives
     GPU memory used/free/total (MiB): 1197 / 10716 / 11914
------------------
     ethr =  1.53E-08,  avg # of iterations =  5.8

     total cpu time spent up to now is      401.8 secs

     total energy              =    -263.03057724 Ry
     estimated scf accuracy    <       0.00000498 Ry
[tb_dev] Currently allocated     2.67E-05 Mbytes, locked:    0 /   1
[tb_pin] Currently allocated     0.00E+00 Mbytes, locked:    0 /   0

     iteration # 30     ecut=    80.00 Ry     beta= 0.40
     Davidson diagonalization with overlap

---- Real-time Memory Report at c_bands before calling an iterative solver
          1350 MiB given to the printing process from OS
             0 MiB allocation reported by mallinfo(arena+hblkhd)
         15967 MiB available memory on the node where the printing process lives
     GPU memory used/free/total (MiB): 1197 / 10716 / 11914
------------------
     ethr =  1.19E-08,  avg # of iterations =  1.1

     total cpu time spent up to now is      410.7 secs

     total energy              =    -263.03057697 Ry
     estimated scf accuracy    <       0.00000559 Ry
[tb_dev] Currently allocated     2.67E-05 Mbytes, locked:    0 /   1
[tb_pin] Currently allocated     0.00E+00 Mbytes, locked:    0 /   0

     iteration # 31     ecut=    80.00 Ry     beta= 0.40
     Davidson diagonalization with overlap

---- Real-time Memory Report at c_bands before calling an iterative solver
          1350 MiB given to the printing process from OS
             0 MiB allocation reported by mallinfo(arena+hblkhd)
         15961 MiB available memory on the node where the printing process lives
     GPU memory used/free/total (MiB): 1197 / 10716 / 11914
------------------
     ethr =  1.19E-08,  avg # of iterations =  1.0

     total cpu time spent up to now is      419.1 secs

     total energy              =    -263.03057726 Ry
     estimated scf accuracy    <       0.00000490 Ry
[tb_dev] Currently allocated     2.67E-05 Mbytes, locked:    0 /   1
[tb_pin] Currently allocated     0.00E+00 Mbytes, locked:    0 /   0

     iteration # 32     ecut=    80.00 Ry     beta= 0.40
     Davidson diagonalization with overlap

---- Real-time Memory Report at c_bands before calling an iterative solver
          1350 MiB given to the printing process from OS
             0 MiB allocation reported by mallinfo(arena+hblkhd)
         15962 MiB available memory on the node where the printing process lives
     GPU memory used/free/total (MiB): 1197 / 10716 / 11914
------------------
     ethr =  1.17E-08,  avg # of iterations =  1.4

     total cpu time spent up to now is      428.5 secs

     total energy              =    -263.03057760 Ry
     estimated scf accuracy    <       0.00000617 Ry
[tb_dev] Currently allocated     2.67E-05 Mbytes, locked:    0 /   1
[tb_pin] Currently allocated     0.00E+00 Mbytes, locked:    0 /   0

     iteration # 33     ecut=    80.00 Ry     beta= 0.40
     Davidson diagonalization with overlap

---- Real-time Memory Report at c_bands before calling an iterative solver
          1350 MiB given to the printing process from OS
             0 MiB allocation reported by mallinfo(arena+hblkhd)
         15964 MiB available memory on the node where the printing process lives
     GPU memory used/free/total (MiB): 1197 / 10716 / 11914
------------------
     ethr =  1.17E-08,  avg # of iterations =  1.8

     total cpu time spent up to now is      438.8 secs

     total energy              =    -263.03057710 Ry
     estimated scf accuracy    <       0.00000852 Ry
[tb_dev] Currently allocated     2.67E-05 Mbytes, locked:    0 /   1
[tb_pin] Currently allocated     0.00E+00 Mbytes, locked:    0 /   0

     iteration # 34     ecut=    80.00 Ry     beta= 0.40
     Davidson diagonalization with overlap

---- Real-time Memory Report at c_bands before calling an iterative solver
          1350 MiB given to the printing process from OS
             0 MiB allocation reported by mallinfo(arena+hblkhd)
         15963 MiB available memory on the node where the printing process lives
     GPU memory used/free/total (MiB): 1197 / 10716 / 11914
------------------
     ethr =  1.17E-08,  avg # of iterations =  1.9

     total cpu time spent up to now is      448.9 secs

     total energy              =    -263.03057593 Ry
     estimated scf accuracy    <       0.00000723 Ry
[tb_dev] Currently allocated     2.67E-05 Mbytes, locked:    0 /   1
[tb_pin] Currently allocated     0.00E+00 Mbytes, locked:    0 /   0

     iteration # 35     ecut=    80.00 Ry     beta= 0.40
     Davidson diagonalization with overlap

---- Real-time Memory Report at c_bands before calling an iterative solver
          1350 MiB given to the printing process from OS
             0 MiB allocation reported by mallinfo(arena+hblkhd)
         15960 MiB available memory on the node where the printing process lives
     GPU memory used/free/total (MiB): 1197 / 10716 / 11914
------------------
     ethr =  1.17E-08,  avg # of iterations =  5.7

     total cpu time spent up to now is      465.1 secs

     total energy              =    -263.03057664 Ry
     estimated scf accuracy    <       0.00000319 Ry
[tb_dev] Currently allocated     2.67E-05 Mbytes, locked:    0 /   1
[tb_pin] Currently allocated     0.00E+00 Mbytes, locked:    0 /   0

     iteration # 36     ecut=    80.00 Ry     beta= 0.40
     Davidson diagonalization with overlap

---- Real-time Memory Report at c_bands before calling an iterative solver
          1350 MiB given to the printing process from OS
             0 MiB allocation reported by mallinfo(arena+hblkhd)
         15960 MiB available memory on the node where the printing process lives
     GPU memory used/free/total (MiB): 1197 / 10716 / 11914
------------------
     ethr =  7.61E-09,  avg # of iterations =  1.7

     total cpu time spent up to now is      475.2 secs

     total energy              =    -263.03057649 Ry
     estimated scf accuracy    <       0.00000196 Ry
[tb_dev] Currently allocated     2.67E-05 Mbytes, locked:    0 /   1
[tb_pin] Currently allocated     0.00E+00 Mbytes, locked:    0 /   0

     iteration # 37     ecut=    80.00 Ry     beta= 0.40
     Davidson diagonalization with overlap

---- Real-time Memory Report at c_bands before calling an iterative solver
          1351 MiB given to the printing process from OS
             0 MiB allocation reported by mallinfo(arena+hblkhd)
         15955 MiB available memory on the node where the printing process lives
     GPU memory used/free/total (MiB): 1197 / 10716 / 11914
------------------
     ethr =  4.65E-09,  avg # of iterations =  4.8

     total cpu time spent up to now is      489.8 secs

     total energy              =    -263.03057676 Ry
     estimated scf accuracy    <       0.00000090 Ry
[tb_dev] Currently allocated     2.67E-05 Mbytes, locked:    0 /   1
[tb_pin] Currently allocated     0.00E+00 Mbytes, locked:    0 /   0

     iteration # 38     ecut=    80.00 Ry     beta= 0.40
     Davidson diagonalization with overlap

---- Real-time Memory Report at c_bands before calling an iterative solver
          1351 MiB given to the printing process from OS
             0 MiB allocation reported by mallinfo(arena+hblkhd)
         15956 MiB available memory on the node where the printing process lives
     GPU memory used/free/total (MiB): 1197 / 10716 / 11914
------------------
     ethr =  2.14E-09,  avg # of iterations =  1.5

     total cpu time spent up to now is      499.6 secs

     total energy              =    -263.03057674 Ry
     estimated scf accuracy    <       0.00000072 Ry
[tb_dev] Currently allocated     2.67E-05 Mbytes, locked:    0 /   1
[tb_pin] Currently allocated     0.00E+00 Mbytes, locked:    0 /   0

     iteration # 39     ecut=    80.00 Ry     beta= 0.40
     Davidson diagonalization with overlap

---- Real-time Memory Report at c_bands before calling an iterative solver
          1351 MiB given to the printing process from OS
             0 MiB allocation reported by mallinfo(arena+hblkhd)
         15957 MiB available memory on the node where the printing process lives
     GPU memory used/free/total (MiB): 1197 / 10716 / 11914
------------------
     ethr =  1.71E-09,  avg # of iterations =  1.4

     total cpu time spent up to now is      509.1 secs

     total energy              =    -263.03057674 Ry
     estimated scf accuracy    <       0.00000055 Ry
[tb_dev] Currently allocated     2.67E-05 Mbytes, locked:    0 /   1
[tb_pin] Currently allocated     0.00E+00 Mbytes, locked:    0 /   0

     iteration # 40     ecut=    80.00 Ry     beta= 0.40
     Davidson diagonalization with overlap

---- Real-time Memory Report at c_bands before calling an iterative solver
          1351 MiB given to the printing process from OS
             0 MiB allocation reported by mallinfo(arena+hblkhd)
         15958 MiB available memory on the node where the printing process lives
     GPU memory used/free/total (MiB): 1197 / 10716 / 11914
------------------
     ethr =  1.32E-09,  avg # of iterations =  1.9

     total cpu time spent up to now is      519.9 secs

     total energy              =    -263.03057672 Ry
     estimated scf accuracy    <       0.00000034 Ry
[tb_dev] Currently allocated     2.67E-05 Mbytes, locked:    0 /   1
[tb_pin] Currently allocated     0.00E+00 Mbytes, locked:    0 /   0

     iteration # 41     ecut=    80.00 Ry     beta= 0.40
     Davidson diagonalization with overlap

---- Real-time Memory Report at c_bands before calling an iterative solver
          1351 MiB given to the printing process from OS
             0 MiB allocation reported by mallinfo(arena+hblkhd)
         15956 MiB available memory on the node where the printing process lives
     GPU memory used/free/total (MiB): 1197 / 10716 / 11914
------------------
     ethr =  8.02E-10,  avg # of iterations =  6.5

     total cpu time spent up to now is      537.4 secs

     total energy              =    -263.03057673 Ry
     estimated scf accuracy    <       0.00000127 Ry
[tb_dev] Currently allocated     2.67E-05 Mbytes, locked:    0 /   1
[tb_pin] Currently allocated     0.00E+00 Mbytes, locked:    0 /   0

     iteration # 42     ecut=    80.00 Ry     beta= 0.40
     Davidson diagonalization with overlap

---- Real-time Memory Report at c_bands before calling an iterative solver
          1352 MiB given to the printing process from OS
             0 MiB allocation reported by mallinfo(arena+hblkhd)
         15964 MiB available memory on the node where the printing process lives
     GPU memory used/free/total (MiB): 1197 / 10716 / 11914
------------------
     ethr =  8.02E-10,  avg # of iterations =  3.8

     total cpu time spent up to now is      550.4 secs

     total energy              =    -263.03057675 Ry
     estimated scf accuracy    <       0.00000030 Ry
[tb_dev] Currently allocated     2.67E-05 Mbytes, locked:    0 /   1
[tb_pin] Currently allocated     0.00E+00 Mbytes, locked:    0 /   0

     iteration # 43     ecut=    80.00 Ry     beta= 0.40
     Davidson diagonalization with overlap

---- Real-time Memory Report at c_bands before calling an iterative solver
          1352 MiB given to the printing process from OS
             0 MiB allocation reported by mallinfo(arena+hblkhd)
         15963 MiB available memory on the node where the printing process lives
     GPU memory used/free/total (MiB): 1197 / 10716 / 11914
------------------
     ethr =  7.17E-10,  avg # of iterations =  3.1

     total cpu time spent up to now is      563.1 secs

     total energy              =    -263.03057675 Ry
     estimated scf accuracy    <       0.00000010 Ry
[tb_dev] Currently allocated     2.67E-05 Mbytes, locked:    0 /   1
[tb_pin] Currently allocated     0.00E+00 Mbytes, locked:    0 /   0

     iteration # 44     ecut=    80.00 Ry     beta= 0.40
     Davidson diagonalization with overlap

---- Real-time Memory Report at c_bands before calling an iterative solver
          1352 MiB given to the printing process from OS
             0 MiB allocation reported by mallinfo(arena+hblkhd)
         15965 MiB available memory on the node where the printing process lives
     GPU memory used/free/total (MiB): 1197 / 10716 / 11914
------------------
     ethr =  2.31E-10,  avg # of iterations =  6.0

     total cpu time spent up to now is      579.7 secs

     total energy              =    -263.03057678 Ry
     estimated scf accuracy    <       0.00000006 Ry
[tb_dev] Currently allocated     2.67E-05 Mbytes, locked:    0 /   1
[tb_pin] Currently allocated     0.00E+00 Mbytes, locked:    0 /   0

     iteration # 45     ecut=    80.00 Ry     beta= 0.40
     Davidson diagonalization with overlap

---- Real-time Memory Report at c_bands before calling an iterative solver
          1352 MiB given to the printing process from OS
             0 MiB allocation reported by mallinfo(arena+hblkhd)
         15966 MiB available memory on the node where the printing process lives
     GPU memory used/free/total (MiB): 1197 / 10716 / 11914
------------------
     ethr =  1.40E-10,  avg # of iterations =  1.0

     total cpu time spent up to now is      588.2 secs

     total energy              =    -263.03057678 Ry
     estimated scf accuracy    <       0.00000005 Ry
[tb_dev] Currently allocated     2.67E-05 Mbytes, locked:    0 /   1
[tb_pin] Currently allocated     0.00E+00 Mbytes, locked:    0 /   0

     iteration # 46     ecut=    80.00 Ry     beta= 0.40
     Davidson diagonalization with overlap

---- Real-time Memory Report at c_bands before calling an iterative solver
          1353 MiB given to the printing process from OS
             0 MiB allocation reported by mallinfo(arena+hblkhd)
         15967 MiB available memory on the node where the printing process lives
     GPU memory used/free/total (MiB): 1197 / 10716 / 11914
------------------
     ethr =  1.12E-10,  avg # of iterations =  1.9

     total cpu time spent up to now is      598.8 secs

     total energy              =    -263.03057678 Ry
     estimated scf accuracy    <       0.00000002 Ry
[tb_dev] Currently allocated     2.67E-05 Mbytes, locked:    0 /   1
[tb_pin] Currently allocated     0.00E+00 Mbytes, locked:    0 /   0

     iteration # 47     ecut=    80.00 Ry     beta= 0.40
     Davidson diagonalization with overlap

---- Real-time Memory Report at c_bands before calling an iterative solver
          1353 MiB given to the printing process from OS
             0 MiB allocation reported by mallinfo(arena+hblkhd)
         15966 MiB available memory on the node where the printing process lives
     GPU memory used/free/total (MiB): 1197 / 10716 / 11914
------------------
     ethr =  5.55E-11,  avg # of iterations =  5.6

     total cpu time spent up to now is      615.0 secs

     total energy              =    -263.03057678 Ry
     estimated scf accuracy    <          2.8E-09 Ry
[tb_dev] Currently allocated     2.67E-05 Mbytes, locked:    0 /   1
[tb_pin] Currently allocated     0.00E+00 Mbytes, locked:    0 /   0

     iteration # 48     ecut=    80.00 Ry     beta= 0.40
     Davidson diagonalization with overlap

---- Real-time Memory Report at c_bands before calling an iterative solver
          1353 MiB given to the printing process from OS
             0 MiB allocation reported by mallinfo(arena+hblkhd)
         15974 MiB available memory on the node where the printing process lives
     GPU memory used/free/total (MiB): 1197 / 10716 / 11914
------------------
     ethr =  6.62E-12,  avg # of iterations =  5.4

     total cpu time spent up to now is      631.0 secs

     total energy              =    -263.03057678 Ry
     estimated scf accuracy    <          7.1E-09 Ry
[tb_dev] Currently allocated     2.67E-05 Mbytes, locked:    0 /   1
[tb_pin] Currently allocated     0.00E+00 Mbytes, locked:    0 /   0

     iteration # 49     ecut=    80.00 Ry     beta= 0.40
     Davidson diagonalization with overlap

---- Real-time Memory Report at c_bands before calling an iterative solver
          1353 MiB given to the printing process from OS
             0 MiB allocation reported by mallinfo(arena+hblkhd)
         15972 MiB available memory on the node where the printing process lives
     GPU memory used/free/total (MiB): 1197 / 10716 / 11914
------------------
     ethr =  6.62E-12,  avg # of iterations =  1.0

     total cpu time spent up to now is      639.4 secs

     total energy              =    -263.03057678 Ry
     estimated scf accuracy    <          6.9E-09 Ry
[tb_dev] Currently allocated     2.67E-05 Mbytes, locked:    0 /   1
[tb_pin] Currently allocated     0.00E+00 Mbytes, locked:    0 /   0

     iteration # 50     ecut=    80.00 Ry     beta= 0.40
     Davidson diagonalization with overlap

---- Real-time Memory Report at c_bands before calling an iterative solver
          1354 MiB given to the printing process from OS
             0 MiB allocation reported by mallinfo(arena+hblkhd)
         15968 MiB available memory on the node where the printing process lives
     GPU memory used/free/total (MiB): 1197 / 10716 / 11914
------------------
     ethr =  6.62E-12,  avg # of iterations =  2.1

     total cpu time spent up to now is      649.7 secs

     total energy              =    -263.03057678 Ry
     estimated scf accuracy    <          4.2E-09 Ry
[tb_dev] Currently allocated     2.67E-05 Mbytes, locked:    0 /   1
[tb_pin] Currently allocated     0.00E+00 Mbytes, locked:    0 /   0

     iteration # 51     ecut=    80.00 Ry     beta= 0.40
     Davidson diagonalization with overlap

---- Real-time Memory Report at c_bands before calling an iterative solver
          1354 MiB given to the printing process from OS
             0 MiB allocation reported by mallinfo(arena+hblkhd)
         15968 MiB available memory on the node where the printing process lives
     GPU memory used/free/total (MiB): 1197 / 10716 / 11914
------------------
     ethr =  6.62E-12,  avg # of iterations =  1.0

     total cpu time spent up to now is      658.2 secs

     total energy              =    -263.03057678 Ry
     estimated scf accuracy    <          3.7E-09 Ry
[tb_dev] Currently allocated     2.67E-05 Mbytes, locked:    0 /   1
[tb_pin] Currently allocated     0.00E+00 Mbytes, locked:    0 /   0

     iteration # 52     ecut=    80.00 Ry     beta= 0.40
     Davidson diagonalization with overlap

---- Real-time Memory Report at c_bands before calling an iterative solver
          1354 MiB given to the printing process from OS
             0 MiB allocation reported by mallinfo(arena+hblkhd)
         15970 MiB available memory on the node where the printing process lives
     GPU memory used/free/total (MiB): 1197 / 10716 / 11914
------------------
     ethr =  6.62E-12,  avg # of iterations =  1.3

     total cpu time spent up to now is      667.4 secs

     total energy              =    -263.03057678 Ry
     estimated scf accuracy    <          2.4E-09 Ry
[tb_dev] Currently allocated     2.67E-05 Mbytes, locked:    0 /   1
[tb_pin] Currently allocated     0.00E+00 Mbytes, locked:    0 /   0

     iteration # 53     ecut=    80.00 Ry     beta= 0.40
     Davidson diagonalization with overlap

---- Real-time Memory Report at c_bands before calling an iterative solver
          1354 MiB given to the printing process from OS
             0 MiB allocation reported by mallinfo(arena+hblkhd)
         15967 MiB available memory on the node where the printing process lives
     GPU memory used/free/total (MiB): 1197 / 10716 / 11914
------------------
     ethr =  5.80E-12,  avg # of iterations =  6.0

     total cpu time spent up to now is      683.4 secs

     total energy              =    -263.03057678 Ry
     estimated scf accuracy    <          1.2E-09 Ry
[tb_dev] Currently allocated     2.67E-05 Mbytes, locked:    0 /   1
[tb_pin] Currently allocated     0.00E+00 Mbytes, locked:    0 /   0

     iteration # 54     ecut=    80.00 Ry     beta= 0.40
     Davidson diagonalization with overlap

---- Real-time Memory Report at c_bands before calling an iterative solver
          1354 MiB given to the printing process from OS
             0 MiB allocation reported by mallinfo(arena+hblkhd)
         15966 MiB available memory on the node where the printing process lives
     GPU memory used/free/total (MiB): 1197 / 10716 / 11914
------------------
     ethr =  2.96E-12,  avg # of iterations =  1.2

     total cpu time spent up to now is      692.5 secs

     total energy              =    -263.03057678 Ry
     estimated scf accuracy    <          7.9E-10 Ry
[tb_dev] Currently allocated     2.67E-05 Mbytes, locked:    0 /   1
[tb_pin] Currently allocated     0.00E+00 Mbytes, locked:    0 /   0

     iteration # 55     ecut=    80.00 Ry     beta= 0.40
     Davidson diagonalization with overlap

---- Real-time Memory Report at c_bands before calling an iterative solver
          1355 MiB given to the printing process from OS
             0 MiB allocation reported by mallinfo(arena+hblkhd)
         15962 MiB available memory on the node where the printing process lives
     GPU memory used/free/total (MiB): 1197 / 10716 / 11914
------------------
     ethr =  1.87E-12,  avg # of iterations =  3.8

     total cpu time spent up to now is      706.6 secs

     total energy              =    -263.03057678 Ry
     estimated scf accuracy    <          1.3E-10 Ry
[tb_dev] Currently allocated     2.67E-05 Mbytes, locked:    0 /   1
[tb_pin] Currently allocated     0.00E+00 Mbytes, locked:    0 /   0

     iteration # 56     ecut=    80.00 Ry     beta= 0.40
     Davidson diagonalization with overlap

---- Real-time Memory Report at c_bands before calling an iterative solver
          1355 MiB given to the printing process from OS
             0 MiB allocation reported by mallinfo(arena+hblkhd)
         15971 MiB available memory on the node where the printing process lives
     GPU memory used/free/total (MiB): 1197 / 10716 / 11914
------------------
     ethr =  3.17E-13,  avg # of iterations = 11.1

     total cpu time spent up to now is      732.3 secs

     total energy              =    -263.03057678 Ry
     estimated scf accuracy    <          3.8E-09 Ry
[tb_dev] Currently allocated     2.67E-05 Mbytes, locked:    0 /   1
[tb_pin] Currently allocated     0.00E+00 Mbytes, locked:    0 /   0

     iteration # 57     ecut=    80.00 Ry     beta= 0.40
     Davidson diagonalization with overlap

---- Real-time Memory Report at c_bands before calling an iterative solver
          1356 MiB given to the printing process from OS
             0 MiB allocation reported by mallinfo(arena+hblkhd)
         15967 MiB available memory on the node where the printing process lives
     GPU memory used/free/total (MiB): 1197 / 10716 / 11914
------------------
     ethr =  3.17E-13,  avg # of iterations =  7.9

     total cpu time spent up to now is      752.8 secs

     total energy              =    -263.03057678 Ry
     estimated scf accuracy    <          4.2E-10 Ry
[tb_dev] Currently allocated     2.67E-05 Mbytes, locked:    0 /   1
[tb_pin] Currently allocated     0.00E+00 Mbytes, locked:    0 /   0

     iteration # 58     ecut=    80.00 Ry     beta= 0.40
     Davidson diagonalization with overlap

---- Real-time Memory Report at c_bands before calling an iterative solver
          1356 MiB given to the printing process from OS
             0 MiB allocation reported by mallinfo(arena+hblkhd)
         15970 MiB available memory on the node where the printing process lives
     GPU memory used/free/total (MiB): 1197 / 10716 / 11914
------------------
     ethr =  3.17E-13,  avg # of iterations =  5.2

     total cpu time spent up to now is      768.0 secs

     End of self-consistent calculation

          k = 0.0000 0.0000 0.0000 ( 14509 PWs)   bands (ev):

   -76.7103 -47.9338 -47.8198 -47.7905 -24.5265 -24.3222 -19.4924 -18.6792
   -12.8526 -12.2436  -9.5244  -9.1878  -9.0797  -8.9565  -8.8478  -7.6339
    -6.2603  -6.1227  -5.4362  -5.2684  -5.2216

     occupation numbers 
     1.0000   1.0000   1.0000   1.0000   1.0000   1.0000   1.0000   1.0000
     1.0000   1.0000   1.0000   1.0000   1.0000   1.0000   1.0000   1.0000
     1.0000   1.0000   1.0000   1.0000   1.0000

          k = 0.0000 0.1034 0.0000 ( 14525 PWs)   bands (ev):

   -76.7076 -47.9305 -47.8396 -47.7950 -24.3886 -24.1843 -19.3767 -18.5976
   -12.7145 -12.1282  -9.8867  -9.6651  -9.3338  -9.2122  -8.9806  -7.5770
    -6.5011  -6.0307  -5.4183  -5.3553  -5.3368

     occupation numbers 
     1.0000   1.0000   1.0000   1.0000   1.0000   1.0000   1.0000   1.0000
     1.0000   1.0000   1.0000   1.0000   1.0000   1.0000   1.0000   1.0000
     1.0000   1.0000   1.0000   1.0000   1.0000

          k = 0.0000 0.2068 0.0000 ( 14553 PWs)   bands (ev):

   -76.7005 -47.9218 -47.8925 -47.8069 -23.9879 -23.7839 -19.0509 -18.3686
   -12.3894 -11.9005 -11.2398 -11.0210  -9.5423  -9.3116  -9.0808  -7.5975
    -7.1326  -5.9331  -5.7932  -5.6622  -5.2462

     occupation numbers 
     1.0000   1.0000   1.0000   1.0000   1.0000   1.0000   1.0000   1.0000
     1.0000   1.0000   1.0000   1.0000   1.0000   1.0000   1.0000   1.0000
     1.0000   1.0000   1.0000   1.0000   1.0000

          k = 0.0000 0.3102 0.0000 ( 14539 PWs)   bands (ev):

   -76.6912 -47.9614 -47.9102 -47.8224 -23.3722 -23.1686 -18.5845 -18.0447
   -13.2125 -12.9976 -11.4326 -11.0611  -9.9297  -9.6998  -8.7882  -7.9659
    -7.7520  -6.7121  -6.0455  -5.4379  -5.3621

     occupation numbers 
     1.0000   1.0000   1.0000   1.0000   1.0000   1.0000   1.0000   1.0000
     1.0000   1.0000   1.0000   1.0000   1.0000   1.0000   1.0000   1.0000
     1.0000   1.0000   1.0000   1.0000   1.0000

          k = 0.0000 0.4136 0.0000 ( 14485 PWs)   bands (ev):

   -76.6827 -48.0242 -47.8996 -47.8367 -22.6584 -22.4557 -18.1117 -17.7272
   -14.6682 -14.4561 -10.7401 -10.4066 -10.2506 -10.0214  -8.9362  -8.5194
    -8.0955  -7.3137  -6.3374  -5.5128  -5.1367

     occupation numbers 
     1.0000   1.0000   1.0000   1.0000   1.0000   1.0000   1.0000   1.0000
     1.0000   1.0000   1.0000   1.0000   1.0000   1.0000   1.0000   1.0000
     1.0000   1.0000   1.0000   1.0000   1.0000

          k = 0.0000 0.5170 0.0000 ( 14484 PWs)   bands (ev):

   -76.6776 -48.0612 -47.8933 -47.8452 -22.1120 -21.9103 -17.8259 -17.5509
   -15.5826 -15.3750 -10.4284 -10.1995 -10.1822  -9.8826  -9.2690  -8.9299
    -8.2146  -7.6298  -6.4982  -5.5869  -4.9667

     occupation numbers 
     1.0000   1.0000   1.0000   1.0000   1.0000   1.0000   1.0000   1.0000
     1.0000   1.0000   1.0000   1.0000   1.0000   1.0000   1.0000   1.0000
     1.0000   1.0000   1.0000   1.0000   1.0000

          k = 0.0000-0.5170 0.0000 ( 14484 PWs)   bands (ev):

   -76.6776 -48.0612 -47.8933 -47.8452 -22.1120 -21.9103 -17.8259 -17.5509
   -15.5826 -15.3750 -10.4284 -10.1995 -10.1822  -9.8826  -9.2690  -8.9299
    -8.2146  -7.6298  -6.4982  -5.5869  -4.9667

     occupation numbers 
     1.0000   1.0000   1.0000   1.0000   1.0000   1.0000   1.0000   1.0000
     1.0000   1.0000   1.0000   1.0000   1.0000   1.0000   1.0000   1.0000
     1.0000   1.0000   1.0000   1.0000   1.0000

          k = 0.0000-0.4136 0.0000 ( 14485 PWs)   bands (ev):

   -76.6827 -48.0242 -47.8996 -47.8367 -22.6584 -22.4557 -18.1117 -17.7272
   -14.6682 -14.4561 -10.7401 -10.4066 -10.2506 -10.0214  -8.9362  -8.5194
    -8.0955  -7.3137  -6.3374  -5.5128  -5.1367

     occupation numbers 
     1.0000   1.0000   1.0000   1.0000   1.0000   1.0000   1.0000   1.0000
     1.0000   1.0000   1.0000   1.0000   1.0000   1.0000   1.0000   1.0000
     1.0000   1.0000   1.0000   1.0000   1.0000

          k = 0.0000-0.3102 0.0000 ( 14539 PWs)   bands (ev):

   -76.6912 -47.9614 -47.9102 -47.8224 -23.3722 -23.1686 -18.5845 -18.0447
   -13.2125 -12.9976 -11.4326 -11.0611  -9.9297  -9.6998  -8.7882  -7.9659
    -7.7520  -6.7121  -6.0455  -5.4379  -5.3621

     occupation numbers 
     1.0000   1.0000   1.0000   1.0000   1.0000   1.0000   1.0000   1.0000
     1.0000   1.0000   1.0000   1.0000   1.0000   1.0000   1.0000   1.0000
     1.0000   1.0000   1.0000   1.0000   1.0000

          k = 0.0000-0.2068 0.0000 ( 14553 PWs)   bands (ev):

   -76.7005 -47.9218 -47.8925 -47.8069 -23.9879 -23.7839 -19.0509 -18.3686
   -12.3894 -11.9005 -11.2398 -11.0210  -9.5423  -9.3116  -9.0808  -7.5975
    -7.1326  -5.9331  -5.7932  -5.6622  -5.2462

     occupation numbers 
     1.0000   1.0000   1.0000   1.0000   1.0000   1.0000   1.0000   1.0000
     1.0000   1.0000   1.0000   1.0000   1.0000   1.0000   1.0000   1.0000
     1.0000   1.0000   1.0000   1.0000   1.0000

          k = 0.0000-0.1034 0.0000 ( 14525 PWs)   bands (ev):

   -76.7076 -47.9305 -47.8396 -47.7950 -24.3886 -24.1843 -19.3767 -18.5976
   -12.7145 -12.1282  -9.8867  -9.6651  -9.3338  -9.2122  -8.9806  -7.5770
    -6.5011  -6.0307  -5.4183  -5.3553  -5.3368

     occupation numbers 
     1.0000   1.0000   1.0000   1.0000   1.0000   1.0000   1.0000   1.0000
     1.0000   1.0000   1.0000   1.0000   1.0000   1.0000   1.0000   1.0000
     1.0000   1.0000   1.0000   1.0000   1.0000

          k = 0.0909 0.0517 0.0000 ( 14561 PWs)   bands (ev):

   -76.7074 -47.9303 -47.8300 -47.8061 -24.3849 -24.1806 -19.3730 -18.5943
   -12.7095 -12.1234  -9.8108  -9.5924  -9.3173  -9.2951  -9.0705  -7.5729
    -6.4197  -6.1216  -5.4070  -5.3716  -5.3327

     occupation numbers 
     1.0000   1.0000   1.0000   1.0000   1.0000   1.0000   1.0000   1.0000
     1.0000   1.0000   1.0000   1.0000   1.0000   1.0000   1.0000   1.0000
     1.0000   1.0000   1.0000   1.0000   1.0000

          k = 0.0909 0.1551 0.0000 ( 14541 PWs)   bands (ev):

   -76.7026 -47.9243 -47.8700 -47.8105 -24.1153 -23.9112 -19.1521 -18.4387
   -12.4642 -11.9258 -10.7791 -10.5533  -9.5867  -9.3607  -9.1436  -7.5652
    -6.8942  -5.9164  -5.8210  -5.5093  -5.2416

     occupation numbers 
     1.0000   1.0000   1.0000   1.0000   1.0000   1.0000   1.0000   1.0000
     1.0000   1.0000   1.0000   1.0000   1.0000   1.0000   1.0000   1.0000
     1.0000   1.0000   1.0000   1.0000   1.0000

          k = 0.0909 0.2585 0.0000 ( 14530 PWs)   bands (ev):

   -76.6944 -47.9305 -47.9141 -47.8247 -23.6050 -23.4012 -18.7541 -18.1601
   -12.5699 -12.3319 -11.5390 -11.2137 -10.0876  -9.8597  -8.8468  -7.6521
    -7.5778  -6.5642  -5.8052  -5.6649  -5.2462

     occupation numbers 
     1.0000   1.0000   1.0000   1.0000   1.0000   1.0000   1.0000   1.0000
     1.0000   1.0000   1.0000   1.0000   1.0000   1.0000   1.0000   1.0000
     1.0000   1.0000   1.0000   1.0000   1.0000

          k = 0.0909 0.3619 0.0000 ( 14507 PWs)   bands (ev):

   -76.6855 -47.9941 -47.9031 -47.8418 -22.9305 -22.7273 -18.2776 -17.8323
   -13.9511 -13.7382 -11.0166 -10.6835 -10.5450 -10.3257  -8.6809  -8.3083
    -7.8773  -7.2429  -6.1730  -5.6625  -5.1818

     occupation numbers 
     1.0000   1.0000   1.0000   1.0000   1.0000   1.0000   1.0000   1.0000
     1.0000   1.0000   1.0000   1.0000   1.0000   1.0000   1.0000   1.0000
     1.0000   1.0000   1.0000   1.0000   1.0000

          k = 0.0909 0.4653 0.0000 ( 14482 PWs)   bands (ev):

   -76.6786 -48.0419 -47.8947 -47.8552 -22.2707 -22.0686 -17.8878 -17.5767
   -15.1337 -14.9236 -10.9184 -10.6960 -10.2983  -9.9833  -9.0745  -8.6621
    -8.1829  -7.5832  -6.4677  -5.7636  -5.0371

     occupation numbers 
     1.0000   1.0000   1.0000   1.0000   1.0000   1.0000   1.0000   1.0000
     1.0000   1.0000   1.0000   1.0000   1.0000   1.0000   1.0000   1.0000
     1.0000   1.0000   1.0000   1.0000   1.0000

          k = 0.0909 0.5687 0.0000 ( 14530 PWs)   bands (ev):

   -76.6761 -48.0597 -47.8915 -47.8602 -21.9688 -21.7674 -17.7487 -17.4934
   -15.5971 -15.3903 -11.0284 -10.8046  -9.9674  -9.7108  -9.1428  -9.0245
    -8.2000  -7.7506  -6.5683  -5.8046  -4.9950

     occupation numbers 
     1.0000   1.0000   1.0000   1.0000   1.0000   1.0000   1.0000   1.0000
     1.0000   1.0000   1.0000   1.0000   1.0000   1.0000   1.0000   1.0000
     1.0000   1.0000   1.0000   1.0000   1.0000

          k = 0.0909-0.4653 0.0000 ( 14482 PWs)   bands (ev):

   -76.6786 -48.0419 -47.8947 -47.8552 -22.2707 -22.0686 -17.8878 -17.5767
   -15.1337 -14.9236 -10.9184 -10.6960 -10.2984  -9.9833  -9.0745  -8.6621
    -8.1828  -7.5832  -6.4677  -5.7635  -5.0371

     occupation numbers 
     1.0000   1.0000   1.0000   1.0000   1.0000   1.0000   1.0000   1.0000
     1.0000   1.0000   1.0000   1.0000   1.0000   1.0000   1.0000   1.0000
     1.0000   1.0000   1.0000   1.0000   1.0000

          k = 0.0909-0.3619 0.0000 ( 14507 PWs)   bands (ev):

   -76.6855 -47.9941 -47.9031 -47.8418 -22.9305 -22.7274 -18.2776 -17.8323
   -13.9511 -13.7382 -11.0166 -10.6835 -10.5450 -10.3257  -8.6809  -8.3083
    -7.8773  -7.2428  -6.1730  -5.6625  -5.1818

     occupation numbers 
     1.0000   1.0000   1.0000   1.0000   1.0000   1.0000   1.0000   1.0000
     1.0000   1.0000   1.0000   1.0000   1.0000   1.0000   1.0000   1.0000
     1.0000   1.0000   1.0000   1.0000   1.0000

          k = 0.0909-0.2585 0.0000 ( 14530 PWs)   bands (ev):

   -76.6944 -47.9305 -47.9141 -47.8247 -23.6050 -23.4012 -18.7541 -18.1601
   -12.5700 -12.3319 -11.5390 -11.2137 -10.0875  -9.8596  -8.8468  -7.6521
    -7.5778  -6.5642  -5.8052  -5.6648  -5.2463

     occupation numbers 
     1.0000   1.0000   1.0000   1.0000   1.0000   1.0000   1.0000   1.0000
     1.0000   1.0000   1.0000   1.0000   1.0000   1.0000   1.0000   1.0000
     1.0000   1.0000   1.0000   1.0000   1.0000

          k = 0.0909-0.1551 0.0000 ( 14541 PWs)   bands (ev):

   -76.7026 -47.9243 -47.8700 -47.8105 -24.1153 -23.9112 -19.1521 -18.4387
   -12.4642 -11.9258 -10.7791 -10.5534  -9.5866  -9.3606  -9.1436  -7.5652
    -6.8942  -5.9164  -5.8210  -5.5093  -5.2416

     occupation numbers 
     1.0000   1.0000   1.0000   1.0000   1.0000   1.0000   1.0000   1.0000
     1.0000   1.0000   1.0000   1.0000   1.0000   1.0000   1.0000   1.0000
     1.0000   1.0000   1.0000   1.0000   1.0000

          k = 0.0909-0.0517 0.0000 ( 14561 PWs)   bands (ev):

   -76.7074 -47.9303 -47.8300 -47.8061 -24.3849 -24.1806 -19.3730 -18.5943
   -12.7095 -12.1234  -9.8108  -9.5925  -9.3173  -9.2950  -9.0704  -7.5729
    -6.4198  -6.1215  -5.4069  -5.3717  -5.3327

     occupation numbers 
     1.0000   1.0000   1.0000   1.0000   1.0000   1.0000   1.0000   1.0000
     1.0000   1.0000   1.0000   1.0000   1.0000   1.0000   1.0000   1.0000
     1.0000   1.0000   1.0000   1.0000   1.0000

          k = 0.1818 0.1034 0.0000 ( 14557 PWs)   bands (ev):

   -76.6998 -47.9210 -47.8762 -47.8285 -23.9732 -23.7691 -19.0368 -18.3558
   -12.3602 -11.8630 -11.1626 -10.9421  -9.6631  -9.4327  -9.0647  -7.5876
    -7.0664  -5.8866  -5.8820  -5.7344  -5.2262

     occupation numbers 
     1.0000   1.0000   1.0000   1.0000   1.0000   1.0000   1.0000   1.0000
     1.0000   1.0000   1.0000   1.0000   1.0000   1.0000   1.0000   1.0000
     1.0000   1.0000   1.0000   1.0000   1.0000

          k = 0.1818 0.2068 0.0000 ( 14545 PWs)   bands (ev):

   -76.6938 -47.9222 -47.9135 -47.8369 -23.5938 -23.3900 -18.7436 -18.1502
   -12.5109 -12.2682 -11.5149 -11.1980 -10.1823  -9.9546  -8.8382  -7.6367
    -7.5497  -6.5489  -5.8425  -5.7168  -5.2262

     occupation numbers 
     1.0000   1.0000   1.0000   1.0000   1.0000   1.0000   1.0000   1.0000
     1.0000   1.0000   1.0000   1.0000   1.0000   1.0000   1.0000   1.0000
     1.0000   1.0000   1.0000   1.0000   1.0000

          k = 0.1818 0.3102 0.0000 ( 14487 PWs)   bands (ev):

   -76.6860 -47.9722 -47.9039 -47.8577 -23.0182 -22.8149 -18.3303 -17.8621
   -13.4596 -13.2465 -11.0866 -11.0434 -10.8443 -10.6956  -8.5979  -8.0902
    -7.6825  -7.3597  -6.0605  -5.8868  -5.1339

     occupation numbers 
     1.0000   1.0000   1.0000   1.0000   1.0000   1.0000   1.0000   1.0000
     1.0000   1.0000   1.0000   1.0000   1.0000   1.0000   1.0000   1.0000
     1.0000   1.0000   1.0000   1.0000   1.0000

          k = 0.1818 0.4136 0.0000 ( 14478 PWs)   bands (ev):

   -76.6788 -48.0142 -47.8950 -47.8806 -22.3666 -22.1642 -17.9205 -17.5812
   -14.4858 -14.2744 -11.7989 -11.5760 -10.3952 -10.0619  -8.6550  -8.4254
    -8.0934  -7.6910  -6.4282  -6.2514  -4.9703

     occupation numbers 
     1.0000   1.0000   1.0000   1.0000   1.0000   1.0000   1.0000   1.0000
     1.0000   1.0000   1.0000   1.0000   1.0000   1.0000   1.0000   1.0000
     1.0000   1.0000   1.0000   1.0000   1.0000

          k = 0.1818 0.5170 0.0000 ( 14479 PWs)   bands (ev):

   -76.6745 -48.0380 -47.8953 -47.8897 -21.8851 -21.6837 -17.6727 -17.4173
   -15.1767 -14.9680 -12.1862 -11.9648  -9.8133  -9.5214  -8.9995  -8.6986
    -8.2352  -7.8573  -6.6902  -6.4836  -4.8767

     occupation numbers 
     1.0000   1.0000   1.0000   1.0000   1.0000   1.0000   1.0000   1.0000
     1.0000   1.0000   1.0000   1.0000   1.0000   1.0000   1.0000   1.0000
     1.0000   1.0000   1.0000   1.0000   1.0000

          k = 0.1818 0.6204 0.0000 ( 14479 PWs)   bands (ev):

   -76.6745 -48.0380 -47.8953 -47.8897 -21.8851 -21.6837 -17.6727 -17.4173
   -15.1767 -14.9681 -12.1862 -11.9648  -9.8133  -9.5214  -8.9995  -8.6986
    -8.2352  -7.8573  -6.6902  -6.4835  -4.8767

     occupation numbers 
     1.0000   1.0000   1.0000   1.0000   1.0000   1.0000   1.0000   1.0000
     1.0000   1.0000   1.0000   1.0000   1.0000   1.0000   1.0000   1.0000
     1.0000   1.0000   1.0000   1.0000   1.0000

          k = 0.1818-0.4136 0.0000 ( 14478 PWs)   bands (ev):

   -76.6788 -48.0142 -47.8950 -47.8806 -22.3666 -22.1642 -17.9205 -17.5812
   -14.4859 -14.2745 -11.7988 -11.5759 -10.3952 -10.0619  -8.6550  -8.4254
    -8.0934  -7.6910  -6.4282  -6.2514  -4.9703

     occupation numbers 
     1.0000   1.0000   1.0000   1.0000   1.0000   1.0000   1.0000   1.0000
     1.0000   1.0000   1.0000   1.0000   1.0000   1.0000   1.0000   1.0000
     1.0000   1.0000   1.0000   1.0000   1.0000

          k = 0.1818-0.3102 0.0000 ( 14487 PWs)   bands (ev):

   -76.6860 -47.9722 -47.9039 -47.8577 -23.0182 -22.8149 -18.3303 -17.8621
   -13.4597 -13.2466 -11.0866 -11.0434 -10.8442 -10.6956  -8.5979  -8.0902
    -7.6825  -7.3596  -6.0605  -5.8867  -5.1339

     occupation numbers 
     1.0000   1.0000   1.0000   1.0000   1.0000   1.0000   1.0000   1.0000
     1.0000   1.0000   1.0000   1.0000   1.0000   1.0000   1.0000   1.0000
     1.0000   1.0000   1.0000   1.0000   1.0000

          k = 0.1818-0.2068 0.0000 ( 14545 PWs)   bands (ev):

   -76.6938 -47.9222 -47.9135 -47.8369 -23.5938 -23.3900 -18.7436 -18.1502
   -12.5109 -12.2683 -11.5149 -11.1980 -10.1822  -9.9545  -8.8382  -7.6367
    -7.5498  -6.5489  -5.8425  -5.7167  -5.2263

     occupation numbers 
     1.0000   1.0000   1.0000   1.0000   1.0000   1.0000   1.0000   1.0000
     1.0000   1.0000   1.0000   1.0000   1.0000   1.0000   1.0000   1.0000
     1.0000   1.0000   1.0000   1.0000   1.0000

          k = 0.1818-0.1034 0.0000 ( 14557 PWs)   bands (ev):

   -76.6998 -47.9210 -47.8762 -47.8285 -23.9732 -23.7691 -19.0368 -18.3558
   -12.3602 -11.8630 -11.1627 -10.9422  -9.6630  -9.4326  -9.0647  -7.5876
    -7.0664  -5.8866  -5.8821  -5.7343  -5.2262

     occupation numbers 
     1.0000   1.0000   1.0000   1.0000   1.0000   1.0000   1.0000   1.0000
     1.0000   1.0000   1.0000   1.0000   1.0000   1.0000   1.0000   1.0000
     1.0000   1.0000   1.0000   1.0000   1.0000

          k = 0.1818-0.0000 0.0000 ( 14573 PWs)   bands (ev):

   -76.7020 -47.9238 -47.8509 -47.8335 -24.1044 -23.9003 -19.1416 -18.4295
   -12.4487 -11.9099 -10.7399 -10.5137  -9.6335  -9.4066  -9.1331  -7.5613
    -6.8383  -5.9910  -5.8313  -5.5115  -5.2327

     occupation numbers 
     1.0000   1.0000   1.0000   1.0000   1.0000   1.0000   1.0000   1.0000
     1.0000   1.0000   1.0000   1.0000   1.0000   1.0000   1.0000   1.0000
     1.0000   1.0000   1.0000   1.0000   1.0000

          k = 0.2727 0.1551 0.0000 ( 14551 PWs)   bands (ev):

   -76.6898 -47.9466 -47.9088 -47.8474 -23.3397 -23.1361 -18.5546 -18.0170
   -13.1132 -12.8976 -11.4055 -11.0354 -10.0801  -9.8506  -8.7634  -7.9157
    -7.7373  -6.6677  -6.1388  -5.5335  -5.3204

     occupation numbers 
     1.0000   1.0000   1.0000   1.0000   1.0000   1.0000   1.0000   1.0000
     1.0000   1.0000   1.0000   1.0000   1.0000   1.0000   1.0000   1.0000
     1.0000   1.0000   1.0000   1.0000   1.0000

          k = 0.2727 0.2585 0.0000 ( 14499 PWs)   bands (ev):

   -76.6842 -47.9827 -47.9019 -47.8619 -22.9010 -22.6979 -18.2508 -17.8067
   -13.8567 -13.6432 -11.0044 -10.7327 -10.6322 -10.4542  -8.6584  -8.2620
    -7.8670  -7.2151  -6.2498  -5.7145  -5.1760

     occupation numbers 
     1.0000   1.0000   1.0000   1.0000   1.0000   1.0000   1.0000   1.0000
     1.0000   1.0000   1.0000   1.0000   1.0000   1.0000   1.0000   1.0000
     1.0000   1.0000   1.0000   1.0000   1.0000

          k = 0.2727 0.3619 0.0000 ( 14446 PWs)   bands (ev):

   -76.6781 -48.0074 -47.8945 -47.8922 -22.3477 -22.1453 -17.9039 -17.5650
   -14.4263 -14.2145 -11.8908 -11.6681 -10.3809 -10.0458  -8.6341  -8.3993
    -8.0972  -7.6796  -6.4662  -6.2894  -4.9639

     occupation numbers 
     1.0000   1.0000   1.0000   1.0000   1.0000   1.0000   1.0000   1.0000
     1.0000   1.0000   1.0000   1.0000   1.0000   1.0000   1.0000   1.0000
     1.0000   1.0000   1.0000   1.0000   1.0000

          k = 0.2727 0.4653 0.0000 ( 14474 PWs)   bands (ev):

   -76.6734 -48.0149 -47.9269 -47.8886 -21.8470 -21.6456 -17.6302 -17.3717
   -14.7194 -14.5097 -12.9649 -12.7436  -9.7707  -9.4429  -8.7398  -8.4510
    -8.2829  -7.9307  -7.0527  -6.7107  -4.7552

     occupation numbers 
     1.0000   1.0000   1.0000   1.0000   1.0000   1.0000   1.0000   1.0000
     1.0000   1.0000   1.0000   1.0000   1.0000   1.0000   1.0000   1.0000
     1.0000   1.0000   1.0000   1.0000   1.0000

          k = 0.2727 0.5687 0.0000 ( 14432 PWs)   bands (ev):

   -76.6717 -48.0131 -47.9444 -47.8864 -21.6358 -21.4349 -17.5273 -17.2977
   -14.7784 -14.5696 -13.4265 -13.2058  -9.3511  -9.1398  -8.9644  -8.4253
    -8.3485  -8.0166  -7.4498  -6.8269  -4.6598

     occupation numbers 
     1.0000   1.0000   1.0000   1.0000   1.0000   1.0000   1.0000   1.0000
     1.0000   1.0000   1.0000   1.0000   1.0000   1.0000   1.0000   1.0000
     1.0000   1.0000   1.0000   1.0000   1.0000

          k = 0.2727 0.6721 0.0000 ( 14474 PWs)   bands (ev):

   -76.6734 -48.0149 -47.9269 -47.8886 -21.8470 -21.6456 -17.6302 -17.3717
   -14.7195 -14.5097 -12.9648 -12.7435  -9.7707  -9.4429  -8.7399  -8.4510
    -8.2829  -7.9307  -7.0527  -6.7107  -4.7552

     occupation numbers 
     1.0000   1.0000   1.0000   1.0000   1.0000   1.0000   1.0000   1.0000
     1.0000   1.0000   1.0000   1.0000   1.0000   1.0000   1.0000   1.0000
     1.0000   1.0000   1.0000   1.0000   1.0000

          k = 0.2727-0.3619 0.0000 ( 14446 PWs)   bands (ev):

   -76.6781 -48.0074 -47.8945 -47.8922 -22.3477 -22.1453 -17.9039 -17.5651
   -14.4264 -14.2146 -11.8907 -11.6680 -10.3809 -10.0458  -8.6341  -8.3993
    -8.0972  -7.6796  -6.4662  -6.2894  -4.9639

     occupation numbers 
     1.0000   1.0000   1.0000   1.0000   1.0000   1.0000   1.0000   1.0000
     1.0000   1.0000   1.0000   1.0000   1.0000   1.0000   1.0000   1.0000
     1.0000   1.0000   1.0000   1.0000   1.0000

          k = 0.2727-0.2585 0.0000 ( 14499 PWs)   bands (ev):

   -76.6842 -47.9827 -47.9019 -47.8619 -22.9010 -22.6979 -18.2508 -17.8067
   -13.8568 -13.6433 -11.0044 -10.7327 -10.6322 -10.4541  -8.6585  -8.2620
    -7.8670  -7.2151  -6.2497  -5.7144  -5.1760

     occupation numbers 
     1.0000   1.0000   1.0000   1.0000   1.0000   1.0000   1.0000   1.0000
     1.0000   1.0000   1.0000   1.0000   1.0000   1.0000   1.0000   1.0000
     1.0000   1.0000   1.0000   1.0000   1.0000

          k = 0.2727-0.1551 0.0000 ( 14551 PWs)   bands (ev):

   -76.6898 -47.9466 -47.9088 -47.8474 -23.3397 -23.1362 -18.5546 -18.0170
   -13.1133 -12.8977 -11.4055 -11.0354 -10.0800  -9.8505  -8.7634  -7.9157
    -7.7373  -6.6678  -6.1387  -5.5334  -5.3204

     occupation numbers 
     1.0000   1.0000   1.0000   1.0000   1.0000   1.0000   1.0000   1.0000
     1.0000   1.0000   1.0000   1.0000   1.0000   1.0000   1.0000   1.0000
     1.0000   1.0000   1.0000   1.0000   1.0000

          k = 0.2727-0.0517 0.0000 ( 14554 PWs)   bands (ev):

   -76.6931 -47.9148 -47.9128 -47.8493 -23.5769 -23.3731 -18.7283 -18.1370
   -12.5097 -12.2703 -11.5156 -11.1945 -10.1634  -9.9359  -8.8246  -7.6390
    -7.5520  -6.5708  -5.8318  -5.7137  -5.2426

     occupation numbers 
     1.0000   1.0000   1.0000   1.0000   1.0000   1.0000   1.0000   1.0000
     1.0000   1.0000   1.0000   1.0000   1.0000   1.0000   1.0000   1.0000
     1.0000   1.0000   1.0000   1.0000   1.0000

          k = 0.2727 0.0517 0.0000 ( 14554 PWs)   bands (ev):

   -76.6931 -47.9148 -47.9128 -47.8493 -23.5769 -23.3731 -18.7283 -18.1370
   -12.5097 -12.2702 -11.5156 -11.1945 -10.1635  -9.9360  -8.8246  -7.6390
    -7.5519  -6.5708  -5.8318  -5.7137  -5.2426

     occupation numbers 
     1.0000   1.0000   1.0000   1.0000   1.0000   1.0000   1.0000   1.0000
     1.0000   1.0000   1.0000   1.0000   1.0000   1.0000   1.0000   1.0000
     1.0000   1.0000   1.0000   1.0000   1.0000

          k = 0.3636 0.2068 0.0000 ( 14479 PWs)   bands (ev):

   -76.6806 -48.0119 -47.8976 -47.8636 -22.6036 -22.4009 -18.0641 -17.6821
   -14.5816 -14.3687 -10.7001 -10.4238 -10.3637 -10.1938  -8.8959  -8.4854
    -8.0865  -7.2717  -6.4484  -5.4715  -5.2317

     occupation numbers 
     1.0000   1.0000   1.0000   1.0000   1.0000   1.0000   1.0000   1.0000
     1.0000   1.0000   1.0000   1.0000   1.0000   1.0000   1.0000   1.0000
     1.0000   1.0000   1.0000   1.0000   1.0000

          k = 0.3636 0.3102 0.0000 ( 14484 PWs)   bands (ev):

   -76.6767 -48.0307 -47.8928 -47.8797 -22.2176 -22.0156 -17.8427 -17.5330
   -15.0503 -14.8392 -11.0869 -10.8641 -10.2644  -9.9435  -9.0352  -8.6276
    -8.1770  -7.5481  -6.5675  -5.7956  -5.0623

     occupation numbers 
     1.0000   1.0000   1.0000   1.0000   1.0000   1.0000   1.0000   1.0000
     1.0000   1.0000   1.0000   1.0000   1.0000   1.0000   1.0000   1.0000
     1.0000   1.0000   1.0000   1.0000   1.0000

          k = 0.3636 0.4136 0.0000 ( 14456 PWs)   bands (ev):

   -76.6732 -48.0279 -47.9149 -47.8884 -21.8416 -21.6403 -17.6380 -17.3840
   -15.1112 -14.9016 -12.3128 -12.0919  -9.7812  -9.4846  -8.9845  -8.6638
    -8.2385  -7.8419  -6.7499  -6.5299  -4.8758

     occupation numbers 
     1.0000   1.0000   1.0000   1.0000   1.0000   1.0000   1.0000   1.0000
     1.0000   1.0000   1.0000   1.0000   1.0000   1.0000   1.0000   1.0000
     1.0000   1.0000   1.0000   1.0000   1.0000

          k = 0.3636 0.5170 0.0000 ( 14455 PWs)   bands (ev):

   -76.6711 -48.0032 -47.9588 -47.8858 -21.6112 -21.4103 -17.5097 -17.2815
   -14.7422 -14.5329 -13.4897 -13.2694  -9.3191  -9.1151  -8.9745  -8.4421
    -8.3273  -8.0269  -7.4608  -6.8419  -4.6664

     occupation numbers 
     1.0000   1.0000   1.0000   1.0000   1.0000   1.0000   1.0000   1.0000
     1.0000   1.0000   1.0000   1.0000   1.0000   1.0000   1.0000   1.0000
     1.0000   1.0000   1.0000   1.0000   1.0000

          k = 0.3636 0.6204 0.0000 ( 14455 PWs)   bands (ev):

   -76.6711 -48.0032 -47.9588 -47.8858 -21.6112 -21.4103 -17.5097 -17.2815
   -14.7423 -14.5329 -13.4897 -13.2694  -9.3191  -9.1151  -8.9745  -8.4421
    -8.3274  -8.0269  -7.4607  -6.8419  -4.6664

     occupation numbers 
     1.0000   1.0000   1.0000   1.0000   1.0000   1.0000   1.0000   1.0000
     1.0000   1.0000   1.0000   1.0000   1.0000   1.0000   1.0000   1.0000
     1.0000   1.0000   1.0000   1.0000   1.0000

          k = 0.3636 0.7238 0.0000 ( 14456 PWs)   bands (ev):

   -76.6732 -48.0279 -47.9149 -47.8884 -21.8416 -21.6403 -17.6380 -17.3840
   -15.1113 -14.9017 -12.3128 -12.0919  -9.7812  -9.4846  -8.9845  -8.6638
    -8.2385  -7.8420  -6.7499  -6.5299  -4.8758

     occupation numbers 
     1.0000   1.0000   1.0000   1.0000   1.0000   1.0000   1.0000   1.0000
     1.0000   1.0000   1.0000   1.0000   1.0000   1.0000   1.0000   1.0000
     1.0000   1.0000   1.0000   1.0000   1.0000

          k = 0.3636-0.3102 0.0000 ( 14484 PWs)   bands (ev):

   -76.6767 -48.0307 -47.8928 -47.8797 -22.2176 -22.0156 -17.8427 -17.5330
   -15.0503 -14.8393 -11.0869 -10.8640 -10.2644  -9.9436  -9.0353  -8.6276
    -8.1769  -7.5482  -6.5675  -5.7956  -5.0623

     occupation numbers 
     1.0000   1.0000   1.0000   1.0000   1.0000   1.0000   1.0000   1.0000
     1.0000   1.0000   1.0000   1.0000   1.0000   1.0000   1.0000   1.0000
     1.0000   1.0000   1.0000   1.0000   1.0000

          k = 0.3636-0.2068 0.0000 ( 14479 PWs)   bands (ev):

   -76.6806 -48.0119 -47.8976 -47.8636 -22.6036 -22.4010 -18.0641 -17.6822
   -14.5817 -14.3688 -10.7001 -10.4237 -10.3637 -10.1937  -8.8960  -8.4853
    -8.0865  -7.2718  -6.4483  -5.4716  -5.2317

     occupation numbers 
     1.0000   1.0000   1.0000   1.0000   1.0000   1.0000   1.0000   1.0000
     1.0000   1.0000   1.0000   1.0000   1.0000   1.0000   1.0000   1.0000
     1.0000   1.0000   1.0000   1.0000   1.0000

          k = 0.3636-0.1034 0.0000 ( 14506 PWs)   bands (ev):

   -76.6835 -47.9817 -47.9013 -47.8674 -22.8810 -22.6779 -18.2346 -17.7933
   -13.8879 -13.6741 -10.9813 -10.7021 -10.6086 -10.4284  -8.6537  -8.2858
    -7.8751  -7.2422  -6.2247  -5.6506  -5.2358

     occupation numbers 
     1.0000   1.0000   1.0000   1.0000   1.0000   1.0000   1.0000   1.0000
     1.0000   1.0000   1.0000   1.0000   1.0000   1.0000   1.0000   1.0000
     1.0000   1.0000   1.0000   1.0000   1.0000

          k = 0.3636 0.0000 0.0000 ( 14493 PWs)   bands (ev):

   -76.6846 -47.9640 -47.9026 -47.8753 -22.9807 -22.7775 -18.2984 -17.8345
   -13.4656 -13.2518 -11.0861 -11.0223 -10.8503 -10.6652  -8.5771  -8.1124
    -7.6854  -7.3880  -6.0565  -5.8499  -5.1826

     occupation numbers 
     1.0000   1.0000   1.0000   1.0000   1.0000   1.0000   1.0000   1.0000
     1.0000   1.0000   1.0000   1.0000   1.0000   1.0000   1.0000   1.0000
     1.0000   1.0000   1.0000   1.0000   1.0000

          k = 0.3636 0.1034 0.0000 ( 14506 PWs)   bands (ev):

   -76.6835 -47.9817 -47.9013 -47.8674 -22.8810 -22.6779 -18.2347 -17.7933
   -13.8878 -13.6741 -10.9813 -10.7021 -10.6086 -10.4285  -8.6537  -8.2858
    -7.8751  -7.2421  -6.2247  -5.6506  -5.2358

     occupation numbers 
     1.0000   1.0000   1.0000   1.0000   1.0000   1.0000   1.0000   1.0000
     1.0000   1.0000   1.0000   1.0000   1.0000   1.0000   1.0000   1.0000
     1.0000   1.0000   1.0000   1.0000   1.0000

          k = 0.4545 0.2585 0.0000 ( 14447 PWs)   bands (ev):

   -76.6751 -48.0506 -47.8909 -47.8731 -22.0376 -21.8361 -17.7655 -17.4932
   -15.5129 -15.3042 -10.6129 -10.3845 -10.1341  -9.8301  -9.2334  -8.8942
    -8.1991  -7.5899  -6.6185  -5.5350  -5.0775

     occupation numbers 
     1.0000   1.0000   1.0000   1.0000   1.0000   1.0000   1.0000   1.0000
     1.0000   1.0000   1.0000   1.0000   1.0000   1.0000   1.0000   1.0000
     1.0000   1.0000   1.0000   1.0000   1.0000

          k = 0.4545 0.3619 0.0000 ( 14473 PWs)   bands (ev):

   -76.6738 -48.0493 -47.8895 -47.8864 -21.8969 -21.6957 -17.6919 -17.4392
   -15.5332 -15.3253 -11.1935 -10.9700  -9.9225  -9.6621  -9.1289  -8.9744
    -8.1887  -7.7228  -6.6682  -5.8145  -5.0426

     occupation numbers 
     1.0000   1.0000   1.0000   1.0000   1.0000   1.0000   1.0000   1.0000
     1.0000   1.0000   1.0000   1.0000   1.0000   1.0000   1.0000   1.0000
     1.0000   1.0000   1.0000   1.0000   1.0000

          k = 0.4545 0.4653 0.0000 ( 14430 PWs)   bands (ev):

   -76.6728 -48.0279 -47.9175 -47.8880 -21.8245 -21.6232 -17.6277 -17.3759
   -15.1352 -14.9255 -12.2960 -12.0752  -9.7677  -9.4727  -8.9919  -8.6850
    -8.2442  -7.8477  -6.7386  -6.5065  -4.8932

     occupation numbers 
     1.0000   1.0000   1.0000   1.0000   1.0000   1.0000   1.0000   1.0000
     1.0000   1.0000   1.0000   1.0000   1.0000   1.0000   1.0000   1.0000
     1.0000   1.0000   1.0000   1.0000   1.0000

          k = 0.4545 0.5687 0.0000 ( 14406 PWs)   bands (ev):

   -76.6724 -48.0083 -47.9407 -47.8876 -21.8063 -21.6050 -17.6026 -17.3478
   -14.7366 -14.5262 -12.9801 -12.7594  -9.7358  -9.4060  -8.7573  -8.4819
    -8.2992  -7.9302  -7.0231  -6.7136  -4.7816

     occupation numbers 
     1.0000   1.0000   1.0000   1.0000   1.0000   1.0000   1.0000   1.0000
     1.0000   1.0000   1.0000   1.0000   1.0000   1.0000   1.0000   1.0000
     1.0000   1.0000   1.0000   1.0000   1.0000

          k = 0.4545 0.6721 0.0000 ( 14430 PWs)   bands (ev):

   -76.6728 -48.0279 -47.9175 -47.8880 -21.8245 -21.6232 -17.6277 -17.3759
   -15.1352 -14.9256 -12.2960 -12.0751  -9.7677  -9.4727  -8.9919  -8.6850
    -8.2441  -7.8477  -6.7386  -6.5065  -4.8932

     occupation numbers 
     1.0000   1.0000   1.0000   1.0000   1.0000   1.0000   1.0000   1.0000
     1.0000   1.0000   1.0000   1.0000   1.0000   1.0000   1.0000   1.0000
     1.0000   1.0000   1.0000   1.0000   1.0000

          k = 0.4545 0.7755 0.0000 ( 14473 PWs)   bands (ev):

   -76.6738 -48.0493 -47.8895 -47.8864 -21.8969 -21.6957 -17.6919 -17.4392
   -15.5332 -15.3253 -11.1935 -10.9699  -9.9225  -9.6621  -9.1289  -8.9744
    -8.1886  -7.7229  -6.6681  -5.8145  -5.0426

     occupation numbers 
     1.0000   1.0000   1.0000   1.0000   1.0000   1.0000   1.0000   1.0000
     1.0000   1.0000   1.0000   1.0000   1.0000   1.0000   1.0000   1.0000
     1.0000   1.0000   1.0000   1.0000   1.0000

          k = 0.4545-0.2585 0.0000 ( 14447 PWs)   bands (ev):

   -76.6751 -48.0506 -47.8909 -47.8731 -22.0376 -21.8361 -17.7655 -17.4932
   -15.5129 -15.3042 -10.6128 -10.3843 -10.1341  -9.8301  -9.2335  -8.8942
    -8.1991  -7.5900  -6.6184  -5.5351  -5.0774

     occupation numbers 
     1.0000   1.0000   1.0000   1.0000   1.0000   1.0000   1.0000   1.0000
     1.0000   1.0000   1.0000   1.0000   1.0000   1.0000   1.0000   1.0000
     1.0000   1.0000   1.0000   1.0000   1.0000

          k = 0.4545-0.1551 0.0000 ( 14436 PWs)   bands (ev):

   -76.6763 -48.0314 -47.8925 -47.8816 -22.2019 -21.9999 -17.8324 -17.5251
   -15.0748 -14.8637 -11.0591 -10.8356 -10.2579  -9.9348  -9.0458  -8.6404
    -8.1817  -7.5617  -6.5500  -5.7546  -5.0961

     occupation numbers 
     1.0000   1.0000   1.0000   1.0000   1.0000   1.0000   1.0000   1.0000
     1.0000   1.0000   1.0000   1.0000   1.0000   1.0000   1.0000   1.0000
     1.0000   1.0000   1.0000   1.0000   1.0000

          k = 0.4545-0.0517 0.0000 ( 14468 PWs)   bands (ev):

   -76.6771 -48.0054 -47.9016 -47.8932 -22.3107 -22.1084 -17.8768 -17.5425
   -14.4713 -14.2590 -11.8595 -11.6369 -10.3530 -10.0167  -8.6532  -8.4216
    -8.1237  -7.6892  -6.4475  -6.2353  -5.0092

     occupation numbers 
     1.0000   1.0000   1.0000   1.0000   1.0000   1.0000   1.0000   1.0000
     1.0000   1.0000   1.0000   1.0000   1.0000   1.0000   1.0000   1.0000
     1.0000   1.0000   1.0000   1.0000   1.0000

          k = 0.4545 0.0517 0.0000 ( 14468 PWs)   bands (ev):

   -76.6771 -48.0054 -47.9016 -47.8932 -22.3107 -22.1084 -17.8768 -17.5425
   -14.4713 -14.2590 -11.8595 -11.6370 -10.3530 -10.0167  -8.6531  -8.4217
    -8.1237  -7.6891  -6.4475  -6.2353  -5.0092

     occupation numbers 
     1.0000   1.0000   1.0000   1.0000   1.0000   1.0000   1.0000   1.0000
     1.0000   1.0000   1.0000   1.0000   1.0000   1.0000   1.0000   1.0000
     1.0000   1.0000   1.0000   1.0000   1.0000

          k = 0.4545 0.1551 0.0000 ( 14436 PWs)   bands (ev):

   -76.6763 -48.0314 -47.8925 -47.8816 -22.2019 -21.9999 -17.8324 -17.5251
   -15.0748 -14.8637 -11.0591 -10.8356 -10.2579  -9.9348  -9.0457  -8.6404
    -8.1818  -7.5616  -6.5501  -5.7546  -5.0962

     occupation numbers 
     1.0000   1.0000   1.0000   1.0000   1.0000   1.0000   1.0000   1.0000
     1.0000   1.0000   1.0000   1.0000   1.0000   1.0000   1.0000   1.0000
     1.0000   1.0000   1.0000   1.0000   1.0000

          k =-0.4545-0.2585 0.0000 ( 14447 PWs)   bands (ev):

   -76.6751 -48.0506 -47.8909 -47.8731 -22.0376 -21.8361 -17.7655 -17.4932
   -15.5129 -15.3042 -10.6129 -10.3845 -10.1341  -9.8301  -9.2334  -8.8942
    -8.1991  -7.5899  -6.6185  -5.5350  -5.0775

     occupation numbers 
     1.0000   1.0000   1.0000   1.0000   1.0000   1.0000   1.0000   1.0000
     1.0000   1.0000   1.0000   1.0000   1.0000   1.0000   1.0000   1.0000
     1.0000   1.0000   1.0000   1.0000   1.0000

          k =-0.4545-0.1551 0.0000 ( 14436 PWs)   bands (ev):

   -76.6763 -48.0314 -47.8925 -47.8816 -22.2019 -21.9999 -17.8324 -17.5251
   -15.0748 -14.8637 -11.0591 -10.8356 -10.2579  -9.9348  -9.0457  -8.6404
    -8.1818  -7.5616  -6.5501  -5.7546  -5.0962

     occupation numbers 
     1.0000   1.0000   1.0000   1.0000   1.0000   1.0000   1.0000   1.0000
     1.0000   1.0000   1.0000   1.0000   1.0000   1.0000   1.0000   1.0000
     1.0000   1.0000   1.0000   1.0000   1.0000

          k =-0.4545-0.0517 0.0000 ( 14468 PWs)   bands (ev):

   -76.6771 -48.0054 -47.9016 -47.8932 -22.3107 -22.1084 -17.8768 -17.5425
   -14.4713 -14.2590 -11.8595 -11.6370 -10.3530 -10.0167  -8.6531  -8.4217
    -8.1237  -7.6891  -6.4475  -6.2353  -5.0092

     occupation numbers 
     1.0000   1.0000   1.0000   1.0000   1.0000   1.0000   1.0000   1.0000
     1.0000   1.0000   1.0000   1.0000   1.0000   1.0000   1.0000   1.0000
     1.0000   1.0000   1.0000   1.0000   1.0000

          k =-0.4545 0.0517 0.0000 ( 14468 PWs)   bands (ev):

   -76.6771 -48.0054 -47.9016 -47.8932 -22.3107 -22.1084 -17.8768 -17.5425
   -14.4713 -14.2590 -11.8595 -11.6369 -10.3530 -10.0167  -8.6532  -8.4216
    -8.1237  -7.6892  -6.4475  -6.2353  -5.0092

     occupation numbers 
     1.0000   1.0000   1.0000   1.0000   1.0000   1.0000   1.0000   1.0000
     1.0000   1.0000   1.0000   1.0000   1.0000   1.0000   1.0000   1.0000
     1.0000   1.0000   1.0000   1.0000   1.0000

          k =-0.4545 0.1551 0.0000 ( 14436 PWs)   bands (ev):

   -76.6763 -48.0314 -47.8925 -47.8816 -22.2019 -21.9999 -17.8324 -17.5251
   -15.0748 -14.8637 -11.0591 -10.8356 -10.2579  -9.9348  -9.0458  -8.6404
    -8.1817  -7.5617  -6.5500  -5.7546  -5.0961

     occupation numbers 
     1.0000   1.0000   1.0000   1.0000   1.0000   1.0000   1.0000   1.0000
     1.0000   1.0000   1.0000   1.0000   1.0000   1.0000   1.0000   1.0000
     1.0000   1.0000   1.0000   1.0000   1.0000

          k =-0.4545 0.2585 0.0000 ( 14447 PWs)   bands (ev):

   -76.6751 -48.0506 -47.8909 -47.8731 -22.0376 -21.8361 -17.7655 -17.4932
   -15.5129 -15.3042 -10.6128 -10.3843 -10.1341  -9.8301  -9.2335  -8.8942
    -8.1991  -7.5900  -6.6184  -5.5351  -5.0774

     occupation numbers 
     1.0000   1.0000   1.0000   1.0000   1.0000   1.0000   1.0000   1.0000
     1.0000   1.0000   1.0000   1.0000   1.0000   1.0000   1.0000   1.0000
     1.0000   1.0000   1.0000   1.0000   1.0000

          k =-0.4545-0.7755 0.0000 ( 14473 PWs)   bands (ev):

   -76.6738 -48.0493 -47.8895 -47.8864 -21.8969 -21.6957 -17.6919 -17.4392
   -15.5332 -15.3253 -11.1935 -10.9699  -9.9225  -9.6621  -9.1289  -8.9744
    -8.1886  -7.7229  -6.6681  -5.8145  -5.0426

     occupation numbers 
     1.0000   1.0000   1.0000   1.0000   1.0000   1.0000   1.0000   1.0000
     1.0000   1.0000   1.0000   1.0000   1.0000   1.0000   1.0000   1.0000
     1.0000   1.0000   1.0000   1.0000   1.0000

          k =-0.4545-0.6721 0.0000 ( 14430 PWs)   bands (ev):

   -76.6728 -48.0279 -47.9175 -47.8880 -21.8245 -21.6232 -17.6277 -17.3759
   -15.1352 -14.9256 -12.2960 -12.0751  -9.7677  -9.4727  -8.9919  -8.6850
    -8.2441  -7.8477  -6.7386  -6.5065  -4.8932

     occupation numbers 
     1.0000   1.0000   1.0000   1.0000   1.0000   1.0000   1.0000   1.0000
     1.0000   1.0000   1.0000   1.0000   1.0000   1.0000   1.0000   1.0000
     1.0000   1.0000   1.0000   1.0000   1.0000

          k =-0.4545-0.5687 0.0000 ( 14406 PWs)   bands (ev):

   -76.6724 -48.0083 -47.9407 -47.8876 -21.8063 -21.6050 -17.6026 -17.3478
   -14.7366 -14.5262 -12.9801 -12.7594  -9.7358  -9.4060  -8.7573  -8.4819
    -8.2992  -7.9302  -7.0231  -6.7136  -4.7816

     occupation numbers 
     1.0000   1.0000   1.0000   1.0000   1.0000   1.0000   1.0000   1.0000
     1.0000   1.0000   1.0000   1.0000   1.0000   1.0000   1.0000   1.0000
     1.0000   1.0000   1.0000   1.0000   1.0000

          k =-0.4545-0.4653 0.0000 ( 14430 PWs)   bands (ev):

   -76.6728 -48.0279 -47.9175 -47.8880 -21.8245 -21.6232 -17.6277 -17.3759
   -15.1352 -14.9255 -12.2960 -12.0752  -9.7677  -9.4727  -8.9919  -8.6850
    -8.2442  -7.8477  -6.7386  -6.5065  -4.8932

     occupation numbers 
     1.0000   1.0000   1.0000   1.0000   1.0000   1.0000   1.0000   1.0000
     1.0000   1.0000   1.0000   1.0000   1.0000   1.0000   1.0000   1.0000
     1.0000   1.0000   1.0000   1.0000   1.0000

          k =-0.4545-0.3619 0.0000 ( 14473 PWs)   bands (ev):

   -76.6738 -48.0493 -47.8895 -47.8864 -21.8969 -21.6957 -17.6919 -17.4392
   -15.5332 -15.3253 -11.1935 -10.9700  -9.9225  -9.6621  -9.1289  -8.9744
    -8.1887  -7.7228  -6.6682  -5.8145  -5.0426

     occupation numbers 
     1.0000   1.0000   1.0000   1.0000   1.0000   1.0000   1.0000   1.0000
     1.0000   1.0000   1.0000   1.0000   1.0000   1.0000   1.0000   1.0000
     1.0000   1.0000   1.0000   1.0000   1.0000

          k =-0.3636-0.2068 0.0000 ( 14479 PWs)   bands (ev):

   -76.6806 -48.0119 -47.8976 -47.8636 -22.6036 -22.4009 -18.0641 -17.6821
   -14.5816 -14.3687 -10.7001 -10.4238 -10.3637 -10.1938  -8.8959  -8.4854
    -8.0865  -7.2717  -6.4484  -5.4715  -5.2317

     occupation numbers 
     1.0000   1.0000   1.0000   1.0000   1.0000   1.0000   1.0000   1.0000
     1.0000   1.0000   1.0000   1.0000   1.0000   1.0000   1.0000   1.0000
     1.0000   1.0000   1.0000   1.0000   1.0000

          k =-0.3636-0.1034 0.0000 ( 14506 PWs)   bands (ev):

   -76.6835 -47.9817 -47.9013 -47.8674 -22.8810 -22.6779 -18.2347 -17.7933
   -13.8878 -13.6741 -10.9813 -10.7021 -10.6086 -10.4285  -8.6537  -8.2858
    -7.8751  -7.2421  -6.2247  -5.6506  -5.2358

     occupation numbers 
     1.0000   1.0000   1.0000   1.0000   1.0000   1.0000   1.0000   1.0000
     1.0000   1.0000   1.0000   1.0000   1.0000   1.0000   1.0000   1.0000
     1.0000   1.0000   1.0000   1.0000   1.0000

          k =-0.3636 0.0000 0.0000 ( 14493 PWs)   bands (ev):

   -76.6846 -47.9640 -47.9026 -47.8753 -22.9807 -22.7775 -18.2984 -17.8345
   -13.4656 -13.2518 -11.0861 -11.0223 -10.8503 -10.6652  -8.5771  -8.1124
    -7.6854  -7.3880  -6.0565  -5.8499  -5.1826

     occupation numbers 
     1.0000   1.0000   1.0000   1.0000   1.0000   1.0000   1.0000   1.0000
     1.0000   1.0000   1.0000   1.0000   1.0000   1.0000   1.0000   1.0000
     1.0000   1.0000   1.0000   1.0000   1.0000

          k =-0.3636 0.1034 0.0000 ( 14506 PWs)   bands (ev):

   -76.6835 -47.9817 -47.9013 -47.8674 -22.8810 -22.6779 -18.2346 -17.7933
   -13.8879 -13.6741 -10.9813 -10.7021 -10.6086 -10.4284  -8.6537  -8.2858
    -7.8751  -7.2422  -6.2247  -5.6506  -5.2358

     occupation numbers 
     1.0000   1.0000   1.0000   1.0000   1.0000   1.0000   1.0000   1.0000
     1.0000   1.0000   1.0000   1.0000   1.0000   1.0000   1.0000   1.0000
     1.0000   1.0000   1.0000   1.0000   1.0000

          k =-0.3636 0.2068 0.0000 ( 14479 PWs)   bands (ev):

   -76.6806 -48.0119 -47.8976 -47.8636 -22.6036 -22.4010 -18.0641 -17.6822
   -14.5817 -14.3688 -10.7001 -10.4237 -10.3637 -10.1937  -8.8960  -8.4853
    -8.0865  -7.2718  -6.4483  -5.4716  -5.2317

     occupation numbers 
     1.0000   1.0000   1.0000   1.0000   1.0000   1.0000   1.0000   1.0000
     1.0000   1.0000   1.0000   1.0000   1.0000   1.0000   1.0000   1.0000
     1.0000   1.0000   1.0000   1.0000   1.0000

          k =-0.3636 0.3102 0.0000 ( 14484 PWs)   bands (ev):

   -76.6767 -48.0307 -47.8928 -47.8797 -22.2176 -22.0156 -17.8427 -17.5330
   -15.0503 -14.8393 -11.0869 -10.8640 -10.2644  -9.9436  -9.0353  -8.6276
    -8.1769  -7.5482  -6.5675  -5.7956  -5.0623

     occupation numbers 
     1.0000   1.0000   1.0000   1.0000   1.0000   1.0000   1.0000   1.0000
     1.0000   1.0000   1.0000   1.0000   1.0000   1.0000   1.0000   1.0000
     1.0000   1.0000   1.0000   1.0000   1.0000

          k =-0.3636-0.7238 0.0000 ( 14456 PWs)   bands (ev):

   -76.6732 -48.0279 -47.9149 -47.8884 -21.8416 -21.6403 -17.6380 -17.3840
   -15.1113 -14.9017 -12.3128 -12.0919  -9.7812  -9.4846  -8.9845  -8.6638
    -8.2385  -7.8420  -6.7499  -6.5299  -4.8758

     occupation numbers 
     1.0000   1.0000   1.0000   1.0000   1.0000   1.0000   1.0000   1.0000
     1.0000   1.0000   1.0000   1.0000   1.0000   1.0000   1.0000   1.0000
     1.0000   1.0000   1.0000   1.0000   1.0000

          k =-0.3636-0.6204 0.0000 ( 14455 PWs)   bands (ev):

   -76.6711 -48.0032 -47.9588 -47.8858 -21.6112 -21.4103 -17.5097 -17.2815
   -14.7423 -14.5329 -13.4897 -13.2694  -9.3191  -9.1151  -8.9745  -8.4421
    -8.3274  -8.0269  -7.4607  -6.8419  -4.6664

     occupation numbers 
     1.0000   1.0000   1.0000   1.0000   1.0000   1.0000   1.0000   1.0000
     1.0000   1.0000   1.0000   1.0000   1.0000   1.0000   1.0000   1.0000
     1.0000   1.0000   1.0000   1.0000   1.0000

          k =-0.3636-0.5170 0.0000 ( 14455 PWs)   bands (ev):

   -76.6711 -48.0032 -47.9588 -47.8858 -21.6112 -21.4103 -17.5097 -17.2815
   -14.7422 -14.5329 -13.4897 -13.2694  -9.3191  -9.1151  -8.9745  -8.4421
    -8.3273  -8.0269  -7.4608  -6.8419  -4.6664

     occupation numbers 
     1.0000   1.0000   1.0000   1.0000   1.0000   1.0000   1.0000   1.0000
     1.0000   1.0000   1.0000   1.0000   1.0000   1.0000   1.0000   1.0000
     1.0000   1.0000   1.0000   1.0000   1.0000

          k =-0.3636-0.4136 0.0000 ( 14456 PWs)   bands (ev):

   -76.6732 -48.0279 -47.9149 -47.8884 -21.8416 -21.6403 -17.6380 -17.3840
   -15.1112 -14.9016 -12.3128 -12.0919  -9.7812  -9.4846  -8.9845  -8.6638
    -8.2385  -7.8419  -6.7499  -6.5299  -4.8758

     occupation numbers 
     1.0000   1.0000   1.0000   1.0000   1.0000   1.0000   1.0000   1.0000
     1.0000   1.0000   1.0000   1.0000   1.0000   1.0000   1.0000   1.0000
     1.0000   1.0000   1.0000   1.0000   1.0000

          k =-0.3636-0.3102 0.0000 ( 14484 PWs)   bands (ev):

   -76.6767 -48.0307 -47.8928 -47.8797 -22.2176 -22.0156 -17.8427 -17.5330
   -15.0503 -14.8392 -11.0869 -10.8641 -10.2644  -9.9435  -9.0352  -8.6276
    -8.1770  -7.5481  -6.5675  -5.7956  -5.0623

     occupation numbers 
     1.0000   1.0000   1.0000   1.0000   1.0000   1.0000   1.0000   1.0000
     1.0000   1.0000   1.0000   1.0000   1.0000   1.0000   1.0000   1.0000
     1.0000   1.0000   1.0000   1.0000   1.0000

          k =-0.2727-0.1551 0.0000 ( 14551 PWs)   bands (ev):

   -76.6898 -47.9466 -47.9088 -47.8474 -23.3397 -23.1361 -18.5546 -18.0170
   -13.1132 -12.8976 -11.4055 -11.0354 -10.0801  -9.8506  -8.7634  -7.9157
    -7.7373  -6.6677  -6.1388  -5.5335  -5.3204

     occupation numbers 
     1.0000   1.0000   1.0000   1.0000   1.0000   1.0000   1.0000   1.0000
     1.0000   1.0000   1.0000   1.0000   1.0000   1.0000   1.0000   1.0000
     1.0000   1.0000   1.0000   1.0000   1.0000

          k =-0.2727-0.0517 0.0000 ( 14554 PWs)   bands (ev):

   -76.6931 -47.9148 -47.9128 -47.8493 -23.5769 -23.3731 -18.7283 -18.1370
   -12.5097 -12.2702 -11.5156 -11.1945 -10.1635  -9.9360  -8.8246  -7.6390
    -7.5519  -6.5708  -5.8318  -5.7137  -5.2426

     occupation numbers 
     1.0000   1.0000   1.0000   1.0000   1.0000   1.0000   1.0000   1.0000
     1.0000   1.0000   1.0000   1.0000   1.0000   1.0000   1.0000   1.0000
     1.0000   1.0000   1.0000   1.0000   1.0000

          k =-0.2727 0.0517 0.0000 ( 14554 PWs)   bands (ev):

   -76.6931 -47.9148 -47.9128 -47.8493 -23.5769 -23.3731 -18.7283 -18.1370
   -12.5097 -12.2703 -11.5156 -11.1945 -10.1634  -9.9359  -8.8246  -7.6390
    -7.5520  -6.5708  -5.8318  -5.7137  -5.2426

     occupation numbers 
     1.0000   1.0000   1.0000   1.0000   1.0000   1.0000   1.0000   1.0000
     1.0000   1.0000   1.0000   1.0000   1.0000   1.0000   1.0000   1.0000
     1.0000   1.0000   1.0000   1.0000   1.0000

          k =-0.2727 0.1551 0.0000 ( 14551 PWs)   bands (ev):

   -76.6898 -47.9466 -47.9088 -47.8474 -23.3397 -23.1362 -18.5546 -18.0170
   -13.1133 -12.8977 -11.4055 -11.0354 -10.0800  -9.8505  -8.7634  -7.9157
    -7.7373  -6.6678  -6.1387  -5.5334  -5.3204

     occupation numbers 
     1.0000   1.0000   1.0000   1.0000   1.0000   1.0000   1.0000   1.0000
     1.0000   1.0000   1.0000   1.0000   1.0000   1.0000   1.0000   1.0000
     1.0000   1.0000   1.0000   1.0000   1.0000

          k =-0.2727 0.2585 0.0000 ( 14499 PWs)   bands (ev):

   -76.6842 -47.9827 -47.9019 -47.8619 -22.9010 -22.6979 -18.2508 -17.8067
   -13.8568 -13.6433 -11.0044 -10.7327 -10.6322 -10.4541  -8.6585  -8.2620
    -7.8670  -7.2151  -6.2497  -5.7144  -5.1760

     occupation numbers 
     1.0000   1.0000   1.0000   1.0000   1.0000   1.0000   1.0000   1.0000
     1.0000   1.0000   1.0000   1.0000   1.0000   1.0000   1.0000   1.0000
     1.0000   1.0000   1.0000   1.0000   1.0000

          k =-0.2727 0.3619 0.0000 ( 14446 PWs)   bands (ev):

   -76.6781 -48.0074 -47.8945 -47.8922 -22.3477 -22.1453 -17.9039 -17.5651
   -14.4264 -14.2146 -11.8907 -11.6680 -10.3809 -10.0458  -8.6341  -8.3993
    -8.0972  -7.6796  -6.4662  -6.2894  -4.9639

     occupation numbers 
     1.0000   1.0000   1.0000   1.0000   1.0000   1.0000   1.0000   1.0000
     1.0000   1.0000   1.0000   1.0000   1.0000   1.0000   1.0000   1.0000
     1.0000   1.0000   1.0000   1.0000   1.0000

          k =-0.2727-0.6721 0.0000 ( 14474 PWs)   bands (ev):

   -76.6734 -48.0149 -47.9269 -47.8886 -21.8470 -21.6456 -17.6302 -17.3717
   -14.7195 -14.5097 -12.9648 -12.7435  -9.7707  -9.4429  -8.7399  -8.4510
    -8.2829  -7.9307  -7.0527  -6.7107  -4.7552

     occupation numbers 
     1.0000   1.0000   1.0000   1.0000   1.0000   1.0000   1.0000   1.0000
     1.0000   1.0000   1.0000   1.0000   1.0000   1.0000   1.0000   1.0000
     1.0000   1.0000   1.0000   1.0000   1.0000

          k =-0.2727-0.5687 0.0000 ( 14432 PWs)   bands (ev):

   -76.6717 -48.0131 -47.9444 -47.8864 -21.6358 -21.4349 -17.5273 -17.2977
   -14.7784 -14.5696 -13.4265 -13.2058  -9.3511  -9.1398  -8.9644  -8.4253
    -8.3485  -8.0166  -7.4498  -6.8269  -4.6598

     occupation numbers 
     1.0000   1.0000   1.0000   1.0000   1.0000   1.0000   1.0000   1.0000
     1.0000   1.0000   1.0000   1.0000   1.0000   1.0000   1.0000   1.0000
     1.0000   1.0000   1.0000   1.0000   1.0000

          k =-0.2727-0.4653 0.0000 ( 14474 PWs)   bands (ev):

   -76.6734 -48.0149 -47.9269 -47.8886 -21.8470 -21.6456 -17.6302 -17.3717
   -14.7194 -14.5097 -12.9649 -12.7436  -9.7707  -9.4429  -8.7398  -8.4510
    -8.2829  -7.9307  -7.0527  -6.7107  -4.7552

     occupation numbers 
     1.0000   1.0000   1.0000   1.0000   1.0000   1.0000   1.0000   1.0000
     1.0000   1.0000   1.0000   1.0000   1.0000   1.0000   1.0000   1.0000
     1.0000   1.0000   1.0000   1.0000   1.0000

          k =-0.2727-0.3619 0.0000 ( 14446 PWs)   bands (ev):

   -76.6781 -48.0074 -47.8945 -47.8922 -22.3477 -22.1453 -17.9039 -17.5650
   -14.4263 -14.2145 -11.8908 -11.6681 -10.3809 -10.0458  -8.6341  -8.3993
    -8.0972  -7.6796  -6.4662  -6.2894  -4.9639

     occupation numbers 
     1.0000   1.0000   1.0000   1.0000   1.0000   1.0000   1.0000   1.0000
     1.0000   1.0000   1.0000   1.0000   1.0000   1.0000   1.0000   1.0000
     1.0000   1.0000   1.0000   1.0000   1.0000

          k =-0.2727-0.2585 0.0000 ( 14499 PWs)   bands (ev):

   -76.6842 -47.9827 -47.9019 -47.8619 -22.9010 -22.6979 -18.2508 -17.8067
   -13.8567 -13.6432 -11.0044 -10.7327 -10.6322 -10.4542  -8.6584  -8.2620
    -7.8670  -7.2151  -6.2498  -5.7145  -5.1760

     occupation numbers 
     1.0000   1.0000   1.0000   1.0000   1.0000   1.0000   1.0000   1.0000
     1.0000   1.0000   1.0000   1.0000   1.0000   1.0000   1.0000   1.0000
     1.0000   1.0000   1.0000   1.0000   1.0000

          k =-0.1818-0.1034 0.0000 ( 14557 PWs)   bands (ev):

   -76.6998 -47.9210 -47.8762 -47.8285 -23.9732 -23.7691 -19.0368 -18.3558
   -12.3602 -11.8630 -11.1626 -10.9421  -9.6631  -9.4327  -9.0647  -7.5876
    -7.0664  -5.8866  -5.8820  -5.7344  -5.2262

     occupation numbers 
     1.0000   1.0000   1.0000   1.0000   1.0000   1.0000   1.0000   1.0000
     1.0000   1.0000   1.0000   1.0000   1.0000   1.0000   1.0000   1.0000
     1.0000   1.0000   1.0000   1.0000   1.0000

          k =-0.1818 0.0000 0.0000 ( 14573 PWs)   bands (ev):

   -76.7020 -47.9238 -47.8509 -47.8335 -24.1044 -23.9003 -19.1416 -18.4295
   -12.4487 -11.9099 -10.7399 -10.5137  -9.6335  -9.4066  -9.1331  -7.5613
    -6.8383  -5.9910  -5.8313  -5.5115  -5.2327

     occupation numbers 
     1.0000   1.0000   1.0000   1.0000   1.0000   1.0000   1.0000   1.0000
     1.0000   1.0000   1.0000   1.0000   1.0000   1.0000   1.0000   1.0000
     1.0000   1.0000   1.0000   1.0000   1.0000

          k =-0.1818 0.1034 0.0000 ( 14557 PWs)   bands (ev):

   -76.6998 -47.9210 -47.8762 -47.8285 -23.9732 -23.7691 -19.0368 -18.3558
   -12.3602 -11.8630 -11.1627 -10.9422  -9.6630  -9.4326  -9.0647  -7.5876
    -7.0664  -5.8866  -5.8821  -5.7343  -5.2262

     occupation numbers 
     1.0000   1.0000   1.0000   1.0000   1.0000   1.0000   1.0000   1.0000
     1.0000   1.0000   1.0000   1.0000   1.0000   1.0000   1.0000   1.0000
     1.0000   1.0000   1.0000   1.0000   1.0000

          k =-0.1818 0.2068 0.0000 ( 14545 PWs)   bands (ev):

   -76.6938 -47.9222 -47.9135 -47.8369 -23.5938 -23.3900 -18.7436 -18.1502
   -12.5109 -12.2683 -11.5149 -11.1980 -10.1822  -9.9545  -8.8382  -7.6367
    -7.5498  -6.5489  -5.8425  -5.7167  -5.2263

     occupation numbers 
     1.0000   1.0000   1.0000   1.0000   1.0000   1.0000   1.0000   1.0000
     1.0000   1.0000   1.0000   1.0000   1.0000   1.0000   1.0000   1.0000
     1.0000   1.0000   1.0000   1.0000   1.0000

          k =-0.1818 0.3102 0.0000 ( 14487 PWs)   bands (ev):

   -76.6860 -47.9722 -47.9039 -47.8577 -23.0182 -22.8149 -18.3303 -17.8621
   -13.4597 -13.2466 -11.0866 -11.0434 -10.8442 -10.6956  -8.5979  -8.0902
    -7.6825  -7.3596  -6.0605  -5.8867  -5.1339

     occupation numbers 
     1.0000   1.0000   1.0000   1.0000   1.0000   1.0000   1.0000   1.0000
     1.0000   1.0000   1.0000   1.0000   1.0000   1.0000   1.0000   1.0000
     1.0000   1.0000   1.0000   1.0000   1.0000

          k =-0.1818 0.4136 0.0000 ( 14478 PWs)   bands (ev):

   -76.6788 -48.0142 -47.8950 -47.8806 -22.3666 -22.1642 -17.9205 -17.5812
   -14.4859 -14.2745 -11.7988 -11.5759 -10.3952 -10.0619  -8.6550  -8.4254
    -8.0934  -7.6910  -6.4282  -6.2514  -4.9703

     occupation numbers 
     1.0000   1.0000   1.0000   1.0000   1.0000   1.0000   1.0000   1.0000
     1.0000   1.0000   1.0000   1.0000   1.0000   1.0000   1.0000   1.0000
     1.0000   1.0000   1.0000   1.0000   1.0000

          k =-0.1818-0.6204 0.0000 ( 14479 PWs)   bands (ev):

   -76.6745 -48.0380 -47.8953 -47.8897 -21.8851 -21.6837 -17.6727 -17.4173
   -15.1767 -14.9681 -12.1862 -11.9648  -9.8133  -9.5214  -8.9995  -8.6986
    -8.2352  -7.8573  -6.6902  -6.4835  -4.8767

     occupation numbers 
     1.0000   1.0000   1.0000   1.0000   1.0000   1.0000   1.0000   1.0000
     1.0000   1.0000   1.0000   1.0000   1.0000   1.0000   1.0000   1.0000
     1.0000   1.0000   1.0000   1.0000   1.0000

          k =-0.1818-0.5170 0.0000 ( 14479 PWs)   bands (ev):

   -76.6745 -48.0380 -47.8953 -47.8897 -21.8851 -21.6837 -17.6727 -17.4173
   -15.1767 -14.9680 -12.1862 -11.9648  -9.8133  -9.5214  -8.9995  -8.6986
    -8.2352  -7.8573  -6.6902  -6.4836  -4.8767

     occupation numbers 
     1.0000   1.0000   1.0000   1.0000   1.0000   1.0000   1.0000   1.0000
     1.0000   1.0000   1.0000   1.0000   1.0000   1.0000   1.0000   1.0000
     1.0000   1.0000   1.0000   1.0000   1.0000

          k =-0.1818-0.4136 0.0000 ( 14478 PWs)   bands (ev):

   -76.6788 -48.0142 -47.8950 -47.8806 -22.3666 -22.1642 -17.9205 -17.5812
   -14.4858 -14.2744 -11.7989 -11.5760 -10.3952 -10.0619  -8.6550  -8.4254
    -8.0934  -7.6910  -6.4282  -6.2514  -4.9703

     occupation numbers 
     1.0000   1.0000   1.0000   1.0000   1.0000   1.0000   1.0000   1.0000
     1.0000   1.0000   1.0000   1.0000   1.0000   1.0000   1.0000   1.0000
     1.0000   1.0000   1.0000   1.0000   1.0000

          k =-0.1818-0.3102 0.0000 ( 14487 PWs)   bands (ev):

   -76.6860 -47.9722 -47.9039 -47.8577 -23.0182 -22.8149 -18.3303 -17.8621
   -13.4596 -13.2465 -11.0866 -11.0434 -10.8443 -10.6956  -8.5979  -8.0902
    -7.6825  -7.3597  -6.0605  -5.8868  -5.1339

     occupation numbers 
     1.0000   1.0000   1.0000   1.0000   1.0000   1.0000   1.0000   1.0000
     1.0000   1.0000   1.0000   1.0000   1.0000   1.0000   1.0000   1.0000
     1.0000   1.0000   1.0000   1.0000   1.0000

          k =-0.1818-0.2068 0.0000 ( 14545 PWs)   bands (ev):

   -76.6938 -47.9222 -47.9135 -47.8369 -23.5938 -23.3900 -18.7436 -18.1502
   -12.5109 -12.2682 -11.5149 -11.1980 -10.1823  -9.9546  -8.8382  -7.6367
    -7.5497  -6.5489  -5.8425  -5.7168  -5.2262

     occupation numbers 
     1.0000   1.0000   1.0000   1.0000   1.0000   1.0000   1.0000   1.0000
     1.0000   1.0000   1.0000   1.0000   1.0000   1.0000   1.0000   1.0000
     1.0000   1.0000   1.0000   1.0000   1.0000

          k =-0.0909-0.0517 0.0000 ( 14561 PWs)   bands (ev):

   -76.7074 -47.9303 -47.8300 -47.8061 -24.3849 -24.1806 -19.3730 -18.5943
   -12.7095 -12.1234  -9.8108  -9.5924  -9.3173  -9.2951  -9.0705  -7.5729
    -6.4197  -6.1216  -5.4070  -5.3716  -5.3327

     occupation numbers 
     1.0000   1.0000   1.0000   1.0000   1.0000   1.0000   1.0000   1.0000
     1.0000   1.0000   1.0000   1.0000   1.0000   1.0000   1.0000   1.0000
     1.0000   1.0000   1.0000   1.0000   1.0000

          k =-0.0909 0.0517 0.0000 ( 14561 PWs)   bands (ev):

   -76.7074 -47.9303 -47.8300 -47.8061 -24.3849 -24.1806 -19.3730 -18.5943
   -12.7095 -12.1234  -9.8108  -9.5925  -9.3173  -9.2950  -9.0704  -7.5729
    -6.4198  -6.1215  -5.4069  -5.3717  -5.3327

     occupation numbers 
     1.0000   1.0000   1.0000   1.0000   1.0000   1.0000   1.0000   1.0000
     1.0000   1.0000   1.0000   1.0000   1.0000   1.0000   1.0000   1.0000
     1.0000   1.0000   1.0000   1.0000   1.0000

          k =-0.0909 0.1551 0.0000 ( 14541 PWs)   bands (ev):

   -76.7026 -47.9243 -47.8700 -47.8105 -24.1153 -23.9112 -19.1521 -18.4387
   -12.4642 -11.9258 -10.7791 -10.5534  -9.5866  -9.3606  -9.1436  -7.5652
    -6.8942  -5.9164  -5.8210  -5.5093  -5.2416

     occupation numbers 
     1.0000   1.0000   1.0000   1.0000   1.0000   1.0000   1.0000   1.0000
     1.0000   1.0000   1.0000   1.0000   1.0000   1.0000   1.0000   1.0000
     1.0000   1.0000   1.0000   1.0000   1.0000

          k =-0.0909 0.2585 0.0000 ( 14530 PWs)   bands (ev):

   -76.6944 -47.9305 -47.9141 -47.8247 -23.6050 -23.4012 -18.7541 -18.1601
   -12.5700 -12.3319 -11.5390 -11.2137 -10.0875  -9.8596  -8.8468  -7.6521
    -7.5778  -6.5642  -5.8052  -5.6648  -5.2463

     occupation numbers 
     1.0000   1.0000   1.0000   1.0000   1.0000   1.0000   1.0000   1.0000
     1.0000   1.0000   1.0000   1.0000   1.0000   1.0000   1.0000   1.0000
     1.0000   1.0000   1.0000   1.0000   1.0000

          k =-0.0909 0.3619 0.0000 ( 14507 PWs)   bands (ev):

   -76.6855 -47.9941 -47.9031 -47.8418 -22.9305 -22.7274 -18.2776 -17.8323
   -13.9511 -13.7382 -11.0166 -10.6835 -10.5450 -10.3257  -8.6809  -8.3083
    -7.8773  -7.2428  -6.1730  -5.6625  -5.1818

     occupation numbers 
     1.0000   1.0000   1.0000   1.0000   1.0000   1.0000   1.0000   1.0000
     1.0000   1.0000   1.0000   1.0000   1.0000   1.0000   1.0000   1.0000
     1.0000   1.0000   1.0000   1.0000   1.0000

          k =-0.0909 0.4653 0.0000 ( 14482 PWs)   bands (ev):

   -76.6786 -48.0419 -47.8947 -47.8552 -22.2707 -22.0686 -17.8878 -17.5767
   -15.1337 -14.9236 -10.9184 -10.6960 -10.2984  -9.9833  -9.0745  -8.6621
    -8.1828  -7.5832  -6.4677  -5.7635  -5.0371

     occupation numbers 
     1.0000   1.0000   1.0000   1.0000   1.0000   1.0000   1.0000   1.0000
     1.0000   1.0000   1.0000   1.0000   1.0000   1.0000   1.0000   1.0000
     1.0000   1.0000   1.0000   1.0000   1.0000

          k =-0.0909-0.5687 0.0000 ( 14530 PWs)   bands (ev):

   -76.6761 -48.0597 -47.8915 -47.8602 -21.9688 -21.7674 -17.7487 -17.4934
   -15.5971 -15.3903 -11.0284 -10.8046  -9.9674  -9.7108  -9.1428  -9.0245
    -8.2000  -7.7506  -6.5683  -5.8046  -4.9950

     occupation numbers 
     1.0000   1.0000   1.0000   1.0000   1.0000   1.0000   1.0000   1.0000
     1.0000   1.0000   1.0000   1.0000   1.0000   1.0000   1.0000   1.0000
     1.0000   1.0000   1.0000   1.0000   1.0000

          k =-0.0909-0.4653 0.0000 ( 14482 PWs)   bands (ev):

   -76.6786 -48.0419 -47.8947 -47.8552 -22.2707 -22.0686 -17.8878 -17.5767
   -15.1337 -14.9236 -10.9184 -10.6960 -10.2983  -9.9833  -9.0745  -8.6621
    -8.1829  -7.5832  -6.4677  -5.7636  -5.0371

     occupation numbers 
     1.0000   1.0000   1.0000   1.0000   1.0000   1.0000   1.0000   1.0000
     1.0000   1.0000   1.0000   1.0000   1.0000   1.0000   1.0000   1.0000
     1.0000   1.0000   1.0000   1.0000   1.0000

          k =-0.0909-0.3619 0.0000 ( 14507 PWs)   bands (ev):

   -76.6855 -47.9941 -47.9031 -47.8418 -22.9305 -22.7273 -18.2776 -17.8323
   -13.9511 -13.7382 -11.0166 -10.6835 -10.5450 -10.3257  -8.6809  -8.3083
    -7.8773  -7.2429  -6.1730  -5.6625  -5.1818

     occupation numbers 
     1.0000   1.0000   1.0000   1.0000   1.0000   1.0000   1.0000   1.0000
     1.0000   1.0000   1.0000   1.0000   1.0000   1.0000   1.0000   1.0000
     1.0000   1.0000   1.0000   1.0000   1.0000

          k =-0.0909-0.2585 0.0000 ( 14530 PWs)   bands (ev):

   -76.6944 -47.9305 -47.9141 -47.8247 -23.6050 -23.4012 -18.7541 -18.1601
   -12.5699 -12.3319 -11.5390 -11.2137 -10.0876  -9.8597  -8.8468  -7.6521
    -7.5778  -6.5642  -5.8052  -5.6649  -5.2462

     occupation numbers 
     1.0000   1.0000   1.0000   1.0000   1.0000   1.0000   1.0000   1.0000
     1.0000   1.0000   1.0000   1.0000   1.0000   1.0000   1.0000   1.0000
     1.0000   1.0000   1.0000   1.0000   1.0000

          k =-0.0909-0.1551 0.0000 ( 14541 PWs)   bands (ev):

   -76.7026 -47.9243 -47.8700 -47.8105 -24.1153 -23.9112 -19.1521 -18.4387
   -12.4642 -11.9258 -10.7791 -10.5533  -9.5867  -9.3607  -9.1436  -7.5652
    -6.8942  -5.9164  -5.8210  -5.5093  -5.2416

     occupation numbers 
     1.0000   1.0000   1.0000   1.0000   1.0000   1.0000   1.0000   1.0000
     1.0000   1.0000   1.0000   1.0000   1.0000   1.0000   1.0000   1.0000
     1.0000   1.0000   1.0000   1.0000   1.0000

     highest occupied level (ev):    -4.6598

!    total energy              =    -263.03057678 Ry
     estimated scf accuracy    <          6.9E-11 Ry

     The total energy is the sum of the following terms:
     one-electron contribution =   -5730.99737856 Ry
     hartree contribution      =    2863.06309127 Ry
     xc contribution           =     -43.85951759 Ry
     ewald contribution        =    2648.76322809 Ry

     convergence has been achieved in  58 iterations

     Forces acting on atoms (cartesian axes, Ry/au):

     atom    1 type  1   force =     0.00015117    0.00272015    0.00469396
     atom    2 type  2   force =    -0.00007703   -0.00174665    0.03961285
     atom    3 type  2   force =    -0.00008329   -0.00093934   -0.04973470
     atom    4 type  2   force =    -0.00019243   -0.00596057   -0.07365775
     atom    5 type  2   force =    -0.00006623    0.00639312    0.06932693
     atom    6 type  3   force =     0.00013491   -0.00585751    0.08839652
     atom    7 type  3   force =     0.00013290    0.00539079   -0.07863781
     The non-local contrib.  to forces
     atom    1 type  1   force =     0.00000681   -0.00236746   -0.00105254
     atom    2 type  2   force =    -0.00033782   -0.01061536   -0.09191184
     atom    3 type  2   force =    -0.00034586   -0.00565899    0.06174074
     atom    4 type  2   force =    -0.00048135    0.00965003   -1.12980185
     atom    5 type  2   force =    -0.00030281   -0.00936493    1.09217910
     atom    6 type  3   force =    -0.00000878   -0.03679610    0.23989749
     atom    7 type  3   force =    -0.00000825    0.03725233   -0.24994042
     The ionic contribution  to forces
     atom    1 type  1   force =     0.00010699   -0.16409217   -0.11407307
     atom    2 type  2   force =    -0.00005112    0.08154921  -45.75839280
     atom    3 type  2   force =    -0.00006753    0.08149980   45.87361931
     atom    4 type  2   force =    -0.00000211   -0.07997040   90.73989085
     atom    5 type  2   force =    -0.00000345    0.08100525  -90.65420616
     atom    6 type  3   force =     0.00000940   -0.07913674  -61.02157431
     atom    7 type  3   force =     0.00000782    0.07914505   60.93473618
     The local contribution  to forces
     atom    1 type  1   force =    -0.00010149    0.16925980    0.11994202
     atom    2 type  2   force =     0.00017306   -0.07260054   45.88999904
     atom    3 type  2   force =     0.00019125   -0.07670013  -45.98502714
     atom    4 type  2   force =     0.00015219    0.06443982  -89.68368617
     atom    5 type  2   force =     0.00010119   -0.06516718   89.63141592
     atom    6 type  3   force =    -0.00000456    0.11015534   60.87013665
     atom    7 type  3   force =    -0.00000552   -0.11092658  -60.76337253
     The core correction contribution to forces
     atom    1 type  1   force =     0.00000000    0.00000000    0.00000000
     atom    2 type  2   force =     0.00000000    0.00000000    0.00000000
     atom    3 type  2   force =     0.00000000    0.00000000    0.00000000
     atom    4 type  2   force =     0.00000000    0.00000000    0.00000000
     atom    5 type  2   force =     0.00000000    0.00000000    0.00000000
     atom    6 type  3   force =     0.00000000    0.00000000    0.00000000
     atom    7 type  3   force =     0.00000000    0.00000000    0.00000000
     The Hubbard contrib.    to forces
     atom    1 type  1   force =     0.00000000    0.00000000    0.00000000
     atom    2 type  2   force =     0.00000000    0.00000000    0.00000000
     atom    3 type  2   force =     0.00000000    0.00000000    0.00000000
     atom    4 type  2   force =     0.00000000    0.00000000    0.00000000
     atom    5 type  2   force =     0.00000000    0.00000000    0.00000000
     atom    6 type  3   force =     0.00000000    0.00000000    0.00000000
     atom    7 type  3   force =     0.00000000    0.00000000    0.00000000
     The SCF correction term to forces
     atom    1 type  1   force =     0.00000002   -0.00000000   -0.00006257
     atom    2 type  2   force =    -0.00000001    0.00000005   -0.00002167
     atom    3 type  2   force =    -0.00000000   -0.00000000   -0.00000773
     atom    4 type  2   force =     0.00000000    0.00000000   -0.00000071
     atom    5 type  2   force =    -0.00000000    0.00000000   -0.00000206
     atom    6 type  3   force =     0.00000000    0.00000000   -0.00000344
     atom    7 type  3   force =     0.00000000    0.00000000   -0.00000117

     Total force =     0.168658     Total SCF correction =     0.000067

     BFGS Geometry Optimization
     Energy error            =      2.8E-02 Ry
     Gradient error          =      8.8E-02 Ry/Bohr

     number of scf cycles    =   1
     number of bfgs steps    =   0

     energy             new  =    -263.0305767807 Ry

     new trust radius        =       0.0885904773 bohr
     new conv_thr            =            1.0E-10 Ry


ATOMIC_POSITIONS (angstrom)
Cr               2.2010906569        0.3532903098       11.0253506604
N                0.8003146572        1.1719115177        9.6328769313
N                0.8003181634        1.1723308235       12.4258681361
N                2.2009535012        0.3486442233       15.2727449088
N               -0.6003251657        1.9972095363        6.8152074682
Si               0.8004505468        1.1697349200        7.4893972477
Si               0.8004551959        1.1756441130       14.5947013106



     Writing config-only to output data dir ./tmp/crsi2n4.save/ :
     XML data file
     NEW-OLD atomic charge density approx. for the potential

     negative rho (up, down):  1.927E-05 0.000E+00

     total cpu time spent up to now is      769.9 secs

     Self-consistent Calculation
[tb_dev] Currently allocated     0.00E+00 Mbytes, locked:    0 /   0
[tb_pin] Currently allocated     0.00E+00 Mbytes, locked:    0 /   0

     iteration #  1     ecut=    80.00 Ry     beta= 0.40
     Davidson diagonalization with overlap

---- Real-time Memory Report at c_bands before calling an iterative solver
          1360 MiB given to the printing process from OS
             0 MiB allocation reported by mallinfo(arena+hblkhd)
         15961 MiB available memory on the node where the printing process lives
     GPU memory used/free/total (MiB): 1213 / 10700 / 11914
------------------
     ethr =  1.00E-06,  avg # of iterations = 10.5

     negative rho (up, down):  6.354E-06 0.000E+00

     total cpu time spent up to now is      804.9 secs

     total energy              =    -263.05823303 Ry
     estimated scf accuracy    <       0.00191165 Ry
[tb_dev] Currently allocated     2.67E-05 Mbytes, locked:    0 /   1
[tb_pin] Currently allocated     0.00E+00 Mbytes, locked:    0 /   0

     iteration #  2     ecut=    80.00 Ry     beta= 0.40
     Davidson diagonalization with overlap

---- Real-time Memory Report at c_bands before calling an iterative solver
          1361 MiB given to the printing process from OS
             0 MiB allocation reported by mallinfo(arena+hblkhd)
         15963 MiB available memory on the node where the printing process lives
     GPU memory used/free/total (MiB): 1213 / 10700 / 11914
------------------
     ethr =  4.55E-06,  avg # of iterations =  3.9

     negative rho (up, down):  3.353E-06 0.000E+00

     total cpu time spent up to now is      819.6 secs

     total energy              =    -263.05808618 Ry
     estimated scf accuracy    <       0.00116479 Ry
[tb_dev] Currently allocated     2.67E-05 Mbytes, locked:    0 /   1
[tb_pin] Currently allocated     0.00E+00 Mbytes, locked:    0 /   0

     iteration #  3     ecut=    80.00 Ry     beta= 0.40
     Davidson diagonalization with overlap

---- Real-time Memory Report at c_bands before calling an iterative solver
          1361 MiB given to the printing process from OS
             0 MiB allocation reported by mallinfo(arena+hblkhd)
         15960 MiB available memory on the node where the printing process lives
     GPU memory used/free/total (MiB): 1213 / 10700 / 11914
------------------
     ethr =  2.77E-06,  avg # of iterations =  6.2

     negative rho (up, down):  7.266E-07 0.000E+00

     total cpu time spent up to now is      837.0 secs

     total energy              =    -263.05803232 Ry
     estimated scf accuracy    <       0.00298899 Ry
[tb_dev] Currently allocated     2.67E-05 Mbytes, locked:    0 /   1
[tb_pin] Currently allocated     0.00E+00 Mbytes, locked:    0 /   0

     iteration #  4     ecut=    80.00 Ry     beta= 0.40
     Davidson diagonalization with overlap

---- Real-time Memory Report at c_bands before calling an iterative solver
          1362 MiB given to the printing process from OS
             0 MiB allocation reported by mallinfo(arena+hblkhd)
         15955 MiB available memory on the node where the printing process lives
     GPU memory used/free/total (MiB): 1213 / 10700 / 11914
------------------
     ethr =  2.77E-06,  avg # of iterations =  6.0

     negative rho (up, down):  3.615E-07 0.000E+00

     total cpu time spent up to now is      853.3 secs

     total energy              =    -263.05837065 Ry
     estimated scf accuracy    <       0.00085446 Ry
[tb_dev] Currently allocated     2.67E-05 Mbytes, locked:    0 /   1
[tb_pin] Currently allocated     0.00E+00 Mbytes, locked:    0 /   0

     iteration #  5     ecut=    80.00 Ry     beta= 0.40
     Davidson diagonalization with overlap

---- Real-time Memory Report at c_bands before calling an iterative solver
          1362 MiB given to the printing process from OS
             0 MiB allocation reported by mallinfo(arena+hblkhd)
         15958 MiB available memory on the node where the printing process lives
     GPU memory used/free/total (MiB): 1213 / 10700 / 11914
------------------
     ethr =  2.03E-06,  avg # of iterations =  3.1

     negative rho (up, down):  1.027E-07 0.000E+00

     total cpu time spent up to now is      866.1 secs

     total energy              =    -263.05840450 Ry
     estimated scf accuracy    <       0.00022893 Ry
[tb_dev] Currently allocated     2.67E-05 Mbytes, locked:    0 /   1
[tb_pin] Currently allocated     0.00E+00 Mbytes, locked:    0 /   0

     iteration #  6     ecut=    80.00 Ry     beta= 0.40
     Davidson diagonalization with overlap

---- Real-time Memory Report at c_bands before calling an iterative solver
          1362 MiB given to the printing process from OS
             0 MiB allocation reported by mallinfo(arena+hblkhd)
         15955 MiB available memory on the node where the printing process lives
     GPU memory used/free/total (MiB): 1213 / 10700 / 11914
------------------
     ethr =  5.45E-07,  avg # of iterations =  6.2

     negative rho (up, down):  6.405E-08 0.000E+00

     total cpu time spent up to now is      882.6 secs

     total energy              =    -263.05844660 Ry
     estimated scf accuracy    <       0.00010690 Ry
[tb_dev] Currently allocated     2.67E-05 Mbytes, locked:    0 /   1
[tb_pin] Currently allocated     0.00E+00 Mbytes, locked:    0 /   0

     iteration #  7     ecut=    80.00 Ry     beta= 0.40
     Davidson diagonalization with overlap

---- Real-time Memory Report at c_bands before calling an iterative solver
          1362 MiB given to the printing process from OS
             0 MiB allocation reported by mallinfo(arena+hblkhd)
         15959 MiB available memory on the node where the printing process lives
     GPU memory used/free/total (MiB): 1213 / 10700 / 11914
------------------
     ethr =  2.55E-07,  avg # of iterations =  3.1

     negative rho (up, down):  1.599E-08 0.000E+00

     total cpu time spent up to now is      895.0 secs

     total energy              =    -263.05844587 Ry
     estimated scf accuracy    <       0.00004109 Ry
[tb_dev] Currently allocated     2.67E-05 Mbytes, locked:    0 /   1
[tb_pin] Currently allocated     0.00E+00 Mbytes, locked:    0 /   0

     iteration #  8     ecut=    80.00 Ry     beta= 0.40
     Davidson diagonalization with overlap

---- Real-time Memory Report at c_bands before calling an iterative solver
          1362 MiB given to the printing process from OS
             0 MiB allocation reported by mallinfo(arena+hblkhd)
         15956 MiB available memory on the node where the printing process lives
     GPU memory used/free/total (MiB): 1213 / 10700 / 11914
------------------
     ethr =  9.78E-08,  avg # of iterations =  5.9

     negative rho (up, down):  3.690E-08 0.000E+00

     total cpu time spent up to now is      910.8 secs

     total energy              =    -263.05844952 Ry
     estimated scf accuracy    <       0.00001818 Ry
[tb_dev] Currently allocated     2.67E-05 Mbytes, locked:    0 /   1
[tb_pin] Currently allocated     0.00E+00 Mbytes, locked:    0 /   0

     iteration #  9     ecut=    80.00 Ry     beta= 0.40
     Davidson diagonalization with overlap

---- Real-time Memory Report at c_bands before calling an iterative solver
          1367 MiB given to the printing process from OS
             0 MiB allocation reported by mallinfo(arena+hblkhd)
         15944 MiB available memory on the node where the printing process lives
     GPU memory used/free/total (MiB): 1213 / 10700 / 11914
------------------
     ethr =  4.33E-08,  avg # of iterations =  7.8

     negative rho (up, down):  2.329E-08 0.000E+00

     total cpu time spent up to now is      930.5 secs

     total energy              =    -263.05844965 Ry
     estimated scf accuracy    <       0.00007515 Ry
[tb_dev] Currently allocated     2.67E-05 Mbytes, locked:    0 /   1
[tb_pin] Currently allocated     0.00E+00 Mbytes, locked:    0 /   0

     iteration # 10     ecut=    80.00 Ry     beta= 0.40
     Davidson diagonalization with overlap

---- Real-time Memory Report at c_bands before calling an iterative solver
          1370 MiB given to the printing process from OS
             0 MiB allocation reported by mallinfo(arena+hblkhd)
         15945 MiB available memory on the node where the printing process lives
     GPU memory used/free/total (MiB): 1213 / 10700 / 11914
------------------
     ethr =  4.33E-08,  avg # of iterations =  6.0

     total cpu time spent up to now is      946.8 secs

     total energy              =    -263.05845585 Ry
     estimated scf accuracy    <       0.00000011 Ry
[tb_dev] Currently allocated     2.67E-05 Mbytes, locked:    0 /   1
[tb_pin] Currently allocated     0.00E+00 Mbytes, locked:    0 /   0

     iteration # 11     ecut=    80.00 Ry     beta= 0.40
     Davidson diagonalization with overlap

---- Real-time Memory Report at c_bands before calling an iterative solver
          1370 MiB given to the printing process from OS
             0 MiB allocation reported by mallinfo(arena+hblkhd)
         15953 MiB available memory on the node where the printing process lives
     GPU memory used/free/total (MiB): 1213 / 10700 / 11914
------------------
     ethr =  2.65E-10,  avg # of iterations = 11.5

     total cpu time spent up to now is      977.5 secs

     total energy              =    -263.05845589 Ry
     estimated scf accuracy    <       0.00000483 Ry
[tb_dev] Currently allocated     2.67E-05 Mbytes, locked:    0 /   1
[tb_pin] Currently allocated     0.00E+00 Mbytes, locked:    0 /   0

     iteration # 12     ecut=    80.00 Ry     beta= 0.40
     Davidson diagonalization with overlap

---- Real-time Memory Report at c_bands before calling an iterative solver
          1371 MiB given to the printing process from OS
             0 MiB allocation reported by mallinfo(arena+hblkhd)
         15952 MiB available memory on the node where the printing process lives
     GPU memory used/free/total (MiB): 1213 / 10700 / 11914
------------------
     ethr =  2.65E-10,  avg # of iterations = 11.5

     total cpu time spent up to now is     1005.8 secs

     total energy              =    -263.05845623 Ry
     estimated scf accuracy    <          8.1E-09 Ry
[tb_dev] Currently allocated     2.67E-05 Mbytes, locked:    0 /   1
[tb_pin] Currently allocated     0.00E+00 Mbytes, locked:    0 /   0

     iteration # 13     ecut=    80.00 Ry     beta= 0.40
     Davidson diagonalization with overlap

---- Real-time Memory Report at c_bands before calling an iterative solver
          1371 MiB given to the printing process from OS
             0 MiB allocation reported by mallinfo(arena+hblkhd)
         15958 MiB available memory on the node where the printing process lives
     GPU memory used/free/total (MiB): 1213 / 10700 / 11914
------------------
     ethr =  1.93E-11,  avg # of iterations =  9.4

     total cpu time spent up to now is     1029.1 secs

     total energy              =    -263.05845622 Ry
     estimated scf accuracy    <       0.00000012 Ry
[tb_dev] Currently allocated     2.67E-05 Mbytes, locked:    0 /   1
[tb_pin] Currently allocated     0.00E+00 Mbytes, locked:    0 /   0

     iteration # 14     ecut=    80.00 Ry     beta= 0.40
     Davidson diagonalization with overlap

---- Real-time Memory Report at c_bands before calling an iterative solver
          1376 MiB given to the printing process from OS
             0 MiB allocation reported by mallinfo(arena+hblkhd)
         15958 MiB available memory on the node where the printing process lives
     GPU memory used/free/total (MiB): 1213 / 10700 / 11914
------------------
     ethr =  1.93E-11,  avg # of iterations =  9.2

     total cpu time spent up to now is     1051.9 secs

     total energy              =    -263.05845623 Ry
     estimated scf accuracy    <          3.8E-09 Ry
[tb_dev] Currently allocated     2.67E-05 Mbytes, locked:    0 /   1
[tb_pin] Currently allocated     0.00E+00 Mbytes, locked:    0 /   0

     iteration # 15     ecut=    80.00 Ry     beta= 0.40
     Davidson diagonalization with overlap

---- Real-time Memory Report at c_bands before calling an iterative solver
          1376 MiB given to the printing process from OS
             0 MiB allocation reported by mallinfo(arena+hblkhd)
         15957 MiB available memory on the node where the printing process lives
     GPU memory used/free/total (MiB): 1213 / 10700 / 11914
------------------
     ethr =  9.00E-12,  avg # of iterations =  4.5

     total cpu time spent up to now is     1066.7 secs

     total energy              =    -263.05845623 Ry
     estimated scf accuracy    <          1.7E-09 Ry
[tb_dev] Currently allocated     2.67E-05 Mbytes, locked:    0 /   1
[tb_pin] Currently allocated     0.00E+00 Mbytes, locked:    0 /   0

     iteration # 16     ecut=    80.00 Ry     beta= 0.40
     Davidson diagonalization with overlap

---- Real-time Memory Report at c_bands before calling an iterative solver
          1376 MiB given to the printing process from OS
             0 MiB allocation reported by mallinfo(arena+hblkhd)
         15965 MiB available memory on the node where the printing process lives
     GPU memory used/free/total (MiB): 1213 / 10700 / 11914
------------------
     ethr =  3.96E-12,  avg # of iterations =  2.9

     total cpu time spent up to now is     1078.5 secs

     total energy              =    -263.05845623 Ry
     estimated scf accuracy    <          8.7E-10 Ry
[tb_dev] Currently allocated     2.67E-05 Mbytes, locked:    0 /   1
[tb_pin] Currently allocated     0.00E+00 Mbytes, locked:    0 /   0

     iteration # 17     ecut=    80.00 Ry     beta= 0.40
     Davidson diagonalization with overlap

---- Real-time Memory Report at c_bands before calling an iterative solver
          1376 MiB given to the printing process from OS
             0 MiB allocation reported by mallinfo(arena+hblkhd)
         15961 MiB available memory on the node where the printing process lives
     GPU memory used/free/total (MiB): 1213 / 10700 / 11914
------------------
     ethr =  2.07E-12,  avg # of iterations =  8.1

     total cpu time spent up to now is     1098.6 secs

     total energy              =    -263.05845623 Ry
     estimated scf accuracy    <          4.2E-09 Ry
[tb_dev] Currently allocated     2.67E-05 Mbytes, locked:    0 /   1
[tb_pin] Currently allocated     0.00E+00 Mbytes, locked:    0 /   0

     iteration # 18     ecut=    80.00 Ry     beta= 0.40
     Davidson diagonalization with overlap

---- Real-time Memory Report at c_bands before calling an iterative solver
          1376 MiB given to the printing process from OS
             0 MiB allocation reported by mallinfo(arena+hblkhd)
         15973 MiB available memory on the node where the printing process lives
     GPU memory used/free/total (MiB): 1213 / 10700 / 11914
------------------
     ethr =  2.07E-12,  avg # of iterations =  6.1

     total cpu time spent up to now is     1114.9 secs

     total energy              =    -263.05845623 Ry
     estimated scf accuracy    <          1.2E-10 Ry
[tb_dev] Currently allocated     2.67E-05 Mbytes, locked:    0 /   1
[tb_pin] Currently allocated     0.00E+00 Mbytes, locked:    0 /   0

     iteration # 19     ecut=    80.00 Ry     beta= 0.40
     Davidson diagonalization with overlap

---- Real-time Memory Report at c_bands before calling an iterative solver
          1376 MiB given to the printing process from OS
             0 MiB allocation reported by mallinfo(arena+hblkhd)
         15978 MiB available memory on the node where the printing process lives
     GPU memory used/free/total (MiB): 1213 / 10700 / 11914
------------------
     ethr =  2.87E-13,  avg # of iterations =  6.1

     total cpu time spent up to now is     1131.9 secs

     End of self-consistent calculation

          k = 0.0000 0.0000 0.0000 ( 14509 PWs)   bands (ev):

   -76.8363 -48.0543 -47.9522 -47.9221 -24.4887 -24.3848 -19.7075 -18.8468
   -12.9557 -12.2837  -9.6208  -9.1418  -9.0307  -8.9841  -8.8762  -7.7043
    -6.4895  -6.3489  -5.4825  -5.4688  -5.4400

     occupation numbers 
     1.0000   1.0000   1.0000   1.0000   1.0000   1.0000   1.0000   1.0000
     1.0000   1.0000   1.0000   1.0000   1.0000   1.0000   1.0000   1.0000
     1.0000   1.0000   1.0000   1.0000   1.0000

          k = 0.0000 0.1034 0.0000 ( 14525 PWs)   bands (ev):

   -76.8337 -48.0510 -47.9721 -47.9266 -24.3505 -24.2468 -19.5916 -18.7664
   -12.8181 -12.1708  -9.8529  -9.7365  -9.4221  -9.1181  -9.0101  -7.6524
    -6.7313  -6.2565  -5.6159  -5.5752  -5.3903

     occupation numbers 
     1.0000   1.0000   1.0000   1.0000   1.0000   1.0000   1.0000   1.0000
     1.0000   1.0000   1.0000   1.0000   1.0000   1.0000   1.0000   1.0000
     1.0000   1.0000   1.0000   1.0000   1.0000

          k = 0.0000 0.2068 0.0000 ( 14553 PWs)   bands (ev):

   -76.8265 -48.0421 -48.0254 -47.9386 -23.9489 -23.8457 -19.2654 -18.5410
   -12.4897 -11.9487 -11.2007 -11.0914  -9.4516  -9.3432  -9.1853  -7.6881
    -7.3620  -6.1186  -6.0096  -5.8939  -5.3227

     occupation numbers 
     1.0000   1.0000   1.0000   1.0000   1.0000   1.0000   1.0000   1.0000
     1.0000   1.0000   1.0000   1.0000   1.0000   1.0000   1.0000   1.0000
     1.0000   1.0000   1.0000   1.0000   1.0000

          k = 0.0000 0.3102 0.0000 ( 14539 PWs)   bands (ev):

   -76.8172 -48.0948 -48.0303 -47.9542 -23.3313 -23.2292 -18.7989 -18.2230
   -13.1944 -13.0668 -11.5195 -11.1201  -9.8423  -9.7336  -8.9027  -8.1723
    -7.8768  -6.8712  -6.2673  -5.6656  -5.4601

     occupation numbers 
     1.0000   1.0000   1.0000   1.0000   1.0000   1.0000   1.0000   1.0000
     1.0000   1.0000   1.0000   1.0000   1.0000   1.0000   1.0000   1.0000
     1.0000   1.0000   1.0000   1.0000   1.0000

          k = 0.0000 0.4136 0.0000 ( 14485 PWs)   bands (ev):

   -76.8086 -48.1581 -48.0196 -47.9685 -22.6147 -22.5144 -18.3264 -17.9127
   -14.6374 -14.5276 -10.8548 -10.4854 -10.1657 -10.0568  -9.1154  -8.6507
    -8.2421  -7.4352  -6.5629  -5.6125  -5.3580

     occupation numbers 
     1.0000   1.0000   1.0000   1.0000   1.0000   1.0000   1.0000   1.0000
     1.0000   1.0000   1.0000   1.0000   1.0000   1.0000   1.0000   1.0000
     1.0000   1.0000   1.0000   1.0000   1.0000

          k = 0.0000 0.5170 0.0000 ( 14484 PWs)   bands (ev):

   -76.8035 -48.1954 -48.0132 -47.9770 -22.0650 -21.9667 -18.0392 -17.7414
   -15.5548 -15.4479 -10.3448 -10.3245 -10.2358 -10.0055  -9.4396  -9.0457
    -8.3374  -7.7336  -6.7252  -5.6815  -5.1818

     occupation numbers 
     1.0000   1.0000   1.0000   1.0000   1.0000   1.0000   1.0000   1.0000
     1.0000   1.0000   1.0000   1.0000   1.0000   1.0000   1.0000   1.0000
     1.0000   1.0000   1.0000   1.0000   1.0000

          k = 0.0000-0.5170 0.0000 ( 14484 PWs)   bands (ev):

   -76.8035 -48.1954 -48.0132 -47.9770 -22.0650 -21.9667 -18.0392 -17.7414
   -15.5548 -15.4479 -10.3448 -10.3245 -10.2358 -10.0055  -9.4396  -9.0457
    -8.3374  -7.7336  -6.7252  -5.6815  -5.1818

     occupation numbers 
     1.0000   1.0000   1.0000   1.0000   1.0000   1.0000   1.0000   1.0000
     1.0000   1.0000   1.0000   1.0000   1.0000   1.0000   1.0000   1.0000
     1.0000   1.0000   1.0000   1.0000   1.0000

          k = 0.0000-0.4136 0.0000 ( 14485 PWs)   bands (ev):

   -76.8086 -48.1581 -48.0196 -47.9685 -22.6147 -22.5144 -18.3264 -17.9127
   -14.6374 -14.5276 -10.8548 -10.4854 -10.1657 -10.0568  -9.1154  -8.6507
    -8.2421  -7.4352  -6.5629  -5.6125  -5.3580

     occupation numbers 
     1.0000   1.0000   1.0000   1.0000   1.0000   1.0000   1.0000   1.0000
     1.0000   1.0000   1.0000   1.0000   1.0000   1.0000   1.0000   1.0000
     1.0000   1.0000   1.0000   1.0000   1.0000

          k = 0.0000-0.3102 0.0000 ( 14539 PWs)   bands (ev):

   -76.8172 -48.0948 -48.0303 -47.9542 -23.3313 -23.2292 -18.7989 -18.2230
   -13.1944 -13.0668 -11.5195 -11.1201  -9.8423  -9.7336  -8.9027  -8.1723
    -7.8768  -6.8712  -6.2673  -5.6656  -5.4601

     occupation numbers 
     1.0000   1.0000   1.0000   1.0000   1.0000   1.0000   1.0000   1.0000
     1.0000   1.0000   1.0000   1.0000   1.0000   1.0000   1.0000   1.0000
     1.0000   1.0000   1.0000   1.0000   1.0000

          k = 0.0000-0.2068 0.0000 ( 14553 PWs)   bands (ev):

   -76.8265 -48.0421 -48.0254 -47.9386 -23.9489 -23.8457 -19.2654 -18.5410
   -12.4897 -11.9487 -11.2007 -11.0914  -9.4516  -9.3432  -9.1853  -7.6881
    -7.3620  -6.1186  -6.0096  -5.8939  -5.3227

     occupation numbers 
     1.0000   1.0000   1.0000   1.0000   1.0000   1.0000   1.0000   1.0000
     1.0000   1.0000   1.0000   1.0000   1.0000   1.0000   1.0000   1.0000
     1.0000   1.0000   1.0000   1.0000   1.0000

          k = 0.0000-0.1034 0.0000 ( 14525 PWs)   bands (ev):

   -76.8337 -48.0510 -47.9721 -47.9266 -24.3505 -24.2468 -19.5916 -18.7664
   -12.8181 -12.1708  -9.8529  -9.7365  -9.4221  -9.1181  -9.0101  -7.6524
    -6.7313  -6.2565  -5.6159  -5.5752  -5.3903

     occupation numbers 
     1.0000   1.0000   1.0000   1.0000   1.0000   1.0000   1.0000   1.0000
     1.0000   1.0000   1.0000   1.0000   1.0000   1.0000   1.0000   1.0000
     1.0000   1.0000   1.0000   1.0000   1.0000

          k = 0.0909 0.0517 0.0000 ( 14561 PWs)   bands (ev):

   -76.8334 -48.0508 -47.9624 -47.9378 -24.3469 -24.2432 -19.5878 -18.7632
   -12.8132 -12.1663  -9.7615  -9.6361  -9.3886  -9.2379  -9.1296  -7.6482
    -6.6482  -6.3492  -5.6111  -5.5838  -5.3861

     occupation numbers 
     1.0000   1.0000   1.0000   1.0000   1.0000   1.0000   1.0000   1.0000
     1.0000   1.0000   1.0000   1.0000   1.0000   1.0000   1.0000   1.0000
     1.0000   1.0000   1.0000   1.0000   1.0000

          k = 0.0909 0.1551 0.0000 ( 14541 PWs)   bands (ev):

   -76.8286 -48.0447 -48.0027 -47.9423 -24.0767 -23.9734 -19.3666 -18.6100
   -12.5681 -11.9735 -10.7267 -10.6172  -9.5100  -9.4046  -9.2374  -7.6507
    -7.1237  -6.1375  -6.0352  -5.7112  -5.3113

     occupation numbers 
     1.0000   1.0000   1.0000   1.0000   1.0000   1.0000   1.0000   1.0000
     1.0000   1.0000   1.0000   1.0000   1.0000   1.0000   1.0000   1.0000
     1.0000   1.0000   1.0000   1.0000   1.0000

          k = 0.0909 0.2585 0.0000 ( 14530 PWs)   bands (ev):

   -76.8203 -48.0637 -48.0343 -47.9566 -23.5651 -23.4625 -18.9684 -18.3361
   -12.5945 -12.3865 -11.5909 -11.2674 -10.0062  -9.8975  -8.9539  -7.8215
    -7.7318  -6.7626  -5.9978  -5.8916  -5.3469

     occupation numbers 
     1.0000   1.0000   1.0000   1.0000   1.0000   1.0000   1.0000   1.0000
     1.0000   1.0000   1.0000   1.0000   1.0000   1.0000   1.0000   1.0000
     1.0000   1.0000   1.0000   1.0000   1.0000

          k = 0.0909 0.3619 0.0000 ( 14507 PWs)   bands (ev):

   -76.8114 -48.1277 -48.0231 -47.9737 -22.8882 -22.7871 -18.4921 -18.0150
   -13.9219 -13.8090 -11.1175 -10.7454 -10.4738 -10.3649  -8.8153  -8.4902
    -8.0169  -7.3982  -6.3750  -5.8344  -5.3391

     occupation numbers 
     1.0000   1.0000   1.0000   1.0000   1.0000   1.0000   1.0000   1.0000
     1.0000   1.0000   1.0000   1.0000   1.0000   1.0000   1.0000   1.0000
     1.0000   1.0000   1.0000   1.0000   1.0000

          k = 0.0909 0.4653 0.0000 ( 14482 PWs)   bands (ev):

   -76.8045 -48.1760 -48.0145 -47.9872 -22.2252 -22.1261 -18.1024 -17.7661
   -15.1035 -14.9957 -10.8544 -10.7425 -10.4112 -10.0714  -9.2594  -8.7864
    -8.3236  -7.7023  -6.6749  -5.9117  -5.2054

     occupation numbers 
     1.0000   1.0000   1.0000   1.0000   1.0000   1.0000   1.0000   1.0000
     1.0000   1.0000   1.0000   1.0000   1.0000   1.0000   1.0000   1.0000
     1.0000   1.0000   1.0000   1.0000   1.0000

          k = 0.0909 0.5687 0.0000 ( 14530 PWs)   bands (ev):

   -76.8020 -48.1938 -48.0113 -47.9922 -21.9213 -21.8235 -17.9616 -17.6853
   -15.5699 -15.4637 -10.9589 -10.8484 -10.1017  -9.8489  -9.3298  -9.1129
    -8.3217  -7.8629  -6.7757  -5.9475  -5.1592

     occupation numbers 
     1.0000   1.0000   1.0000   1.0000   1.0000   1.0000   1.0000   1.0000
     1.0000   1.0000   1.0000   1.0000   1.0000   1.0000   1.0000   1.0000
     1.0000   1.0000   1.0000   1.0000   1.0000

          k = 0.0909-0.4653 0.0000 ( 14482 PWs)   bands (ev):

   -76.8045 -48.1760 -48.0145 -47.9872 -22.2252 -22.1261 -18.1024 -17.7661
   -15.1034 -14.9958 -10.8545 -10.7423 -10.4112 -10.0715  -9.2594  -8.7864
    -8.3236  -7.7023  -6.6750  -5.9118  -5.2052

     occupation numbers 
     1.0000   1.0000   1.0000   1.0000   1.0000   1.0000   1.0000   1.0000
     1.0000   1.0000   1.0000   1.0000   1.0000   1.0000   1.0000   1.0000
     1.0000   1.0000   1.0000   1.0000   1.0000

          k = 0.0909-0.3619 0.0000 ( 14507 PWs)   bands (ev):

   -76.8114 -48.1278 -48.0231 -47.9737 -22.8882 -22.7871 -18.4922 -18.0150
   -13.9218 -13.8092 -11.1175 -10.7453 -10.4739 -10.3647  -8.8153  -8.4903
    -8.0169  -7.3981  -6.3751  -5.8346  -5.3388

     occupation numbers 
     1.0000   1.0000   1.0000   1.0000   1.0000   1.0000   1.0000   1.0000
     1.0000   1.0000   1.0000   1.0000   1.0000   1.0000   1.0000   1.0000
     1.0000   1.0000   1.0000   1.0000   1.0000

          k = 0.0909-0.2585 0.0000 ( 14530 PWs)   bands (ev):

   -76.8203 -48.0637 -48.0343 -47.9565 -23.5651 -23.4625 -18.9684 -18.3361
   -12.5944 -12.3866 -11.5909 -11.2674 -10.0064  -9.8969  -8.9539  -7.8216
    -7.7317  -6.7627  -5.9978  -5.8916  -5.3467

     occupation numbers 
     1.0000   1.0000   1.0000   1.0000   1.0000   1.0000   1.0000   1.0000
     1.0000   1.0000   1.0000   1.0000   1.0000   1.0000   1.0000   1.0000
     1.0000   1.0000   1.0000   1.0000   1.0000

          k = 0.0909-0.1551 0.0000 ( 14541 PWs)   bands (ev):

   -76.8286 -48.0447 -48.0027 -47.9423 -24.0767 -23.9734 -19.3666 -18.6100
   -12.5681 -11.9735 -10.7263 -10.6180  -9.5104  -9.4037  -9.2373  -7.6506
    -7.1238  -6.1374  -6.0354  -5.7111  -5.3112

     occupation numbers 
     1.0000   1.0000   1.0000   1.0000   1.0000   1.0000   1.0000   1.0000
     1.0000   1.0000   1.0000   1.0000   1.0000   1.0000   1.0000   1.0000
     1.0000   1.0000   1.0000   1.0000   1.0000

          k = 0.0909-0.0517 0.0000 ( 14561 PWs)   bands (ev):

   -76.8334 -48.0508 -47.9624 -47.9378 -24.3469 -24.2432 -19.5878 -18.7632
   -12.8132 -12.1663  -9.7612  -9.6368  -9.3888  -9.2385  -9.1283  -7.6482
    -6.6483  -6.3490  -5.6115  -5.5835  -5.3861

     occupation numbers 
     1.0000   1.0000   1.0000   1.0000   1.0000   1.0000   1.0000   1.0000
     1.0000   1.0000   1.0000   1.0000   1.0000   1.0000   1.0000   1.0000
     1.0000   1.0000   1.0000   1.0000   1.0000

          k = 0.1818 0.1034 0.0000 ( 14557 PWs)   bands (ev):

   -76.8258 -48.0413 -48.0087 -47.9607 -23.9345 -23.8314 -19.2510 -18.5286
   -12.4608 -11.9105 -11.0969 -10.9896  -9.6051  -9.4953  -9.1688  -7.6805
    -7.2940  -6.1039  -6.0748  -5.9553  -5.3043

     occupation numbers 
     1.0000   1.0000   1.0000   1.0000   1.0000   1.0000   1.0000   1.0000
     1.0000   1.0000   1.0000   1.0000   1.0000   1.0000   1.0000   1.0000
     1.0000   1.0000   1.0000   1.0000   1.0000

          k = 0.1818 0.2068 0.0000 ( 14545 PWs)   bands (ev):

   -76.8198 -48.0551 -48.0338 -47.9690 -23.5543 -23.4517 -18.9576 -18.3265
   -12.5338 -12.3131 -11.5571 -11.2486 -10.1169 -10.0075  -8.9453  -7.7837
    -7.7272  -6.7493  -6.0300  -5.9450  -5.3276

     occupation numbers 
     1.0000   1.0000   1.0000   1.0000   1.0000   1.0000   1.0000   1.0000
     1.0000   1.0000   1.0000   1.0000   1.0000   1.0000   1.0000   1.0000
     1.0000   1.0000   1.0000   1.0000   1.0000

          k = 0.1818 0.3102 0.0000 ( 14487 PWs)   bands (ev):

   -76.8119 -48.1057 -48.0239 -47.9898 -22.9768 -22.8754 -18.5445 -18.0440
   -13.4296 -13.3121 -11.1655 -10.9960 -10.8928 -10.7548  -8.7089  -8.3010
    -7.7881  -7.5630  -6.2418  -6.0848  -5.2741

     occupation numbers 
     1.0000   1.0000   1.0000   1.0000   1.0000   1.0000   1.0000   1.0000
     1.0000   1.0000   1.0000   1.0000   1.0000   1.0000   1.0000   1.0000
     1.0000   1.0000   1.0000   1.0000   1.0000

          k = 0.1818 0.4136 0.0000 ( 14478 PWs)   bands (ev):

   -76.8047 -48.1480 -48.0149 -48.0128 -22.3225 -22.2229 -18.1353 -17.7697
   -14.4536 -14.3448 -11.7319 -11.6222 -10.5128 -10.1404  -8.8314  -8.5593
    -8.2730  -7.8113  -6.6064  -6.4383  -5.1160

     occupation numbers 
     1.0000   1.0000   1.0000   1.0000   1.0000   1.0000   1.0000   1.0000
     1.0000   1.0000   1.0000   1.0000   1.0000   1.0000   1.0000   1.0000
     1.0000   1.0000   1.0000   1.0000   1.0000

          k = 0.1818 0.5170 0.0000 ( 14479 PWs)   bands (ev):

   -76.8004 -48.1720 -48.0275 -48.0095 -21.8382 -21.7405 -17.8870 -17.6108
   -15.1472 -15.0410 -12.1195 -12.0104  -9.9482  -9.6304  -9.1878  -8.8281
    -8.3727  -7.9753  -6.8643  -6.6673  -5.0089

     occupation numbers 
     1.0000   1.0000   1.0000   1.0000   1.0000   1.0000   1.0000   1.0000
     1.0000   1.0000   1.0000   1.0000   1.0000   1.0000   1.0000   1.0000
     1.0000   1.0000   1.0000   1.0000   1.0000

          k = 0.1818 0.6204 0.0000 ( 14479 PWs)   bands (ev):

   -76.8004 -48.1720 -48.0275 -48.0095 -21.8382 -21.7404 -17.8870 -17.6108
   -15.1471 -15.0411 -12.1196 -12.0103  -9.9482  -9.6304  -9.1878  -8.8280
    -8.3727  -7.9754  -6.8643  -6.6674  -5.0088

     occupation numbers 
     1.0000   1.0000   1.0000   1.0000   1.0000   1.0000   1.0000   1.0000
     1.0000   1.0000   1.0000   1.0000   1.0000   1.0000   1.0000   1.0000
     1.0000   1.0000   1.0000   1.0000   1.0000

          k = 0.1818-0.4136 0.0000 ( 14478 PWs)   bands (ev):

   -76.8047 -48.1480 -48.0149 -48.0128 -22.3225 -22.2229 -18.1353 -17.7697
   -14.4534 -14.3452 -11.7321 -11.6216 -10.5128 -10.1404  -8.8315  -8.5593
    -8.2730  -7.8112  -6.6066  -6.4383  -5.1158

     occupation numbers 
     1.0000   1.0000   1.0000   1.0000   1.0000   1.0000   1.0000   1.0000
     1.0000   1.0000   1.0000   1.0000   1.0000   1.0000   1.0000   1.0000
     1.0000   1.0000   1.0000   1.0000   1.0000

          k = 0.1818-0.3102 0.0000 ( 14487 PWs)   bands (ev):

   -76.8119 -48.1057 -48.0239 -47.9898 -22.9768 -22.8754 -18.5446 -18.0440
   -13.4294 -13.3127 -11.1655 -10.9964 -10.8920 -10.7547  -8.7089  -8.3011
    -7.7879  -7.5632  -6.2420  -6.0848  -5.2738

     occupation numbers 
     1.0000   1.0000   1.0000   1.0000   1.0000   1.0000   1.0000   1.0000
     1.0000   1.0000   1.0000   1.0000   1.0000   1.0000   1.0000   1.0000
     1.0000   1.0000   1.0000   1.0000   1.0000

          k = 0.1818-0.2068 0.0000 ( 14545 PWs)   bands (ev):

   -76.8198 -48.0552 -48.0338 -47.9689 -23.5543 -23.4517 -18.9576 -18.3265
   -12.5338 -12.3134 -11.5572 -11.2487 -10.1174 -10.0064  -8.9453  -7.7838
    -7.7270  -6.7495  -6.0301  -5.9449  -5.3274

     occupation numbers 
     1.0000   1.0000   1.0000   1.0000   1.0000   1.0000   1.0000   1.0000
     1.0000   1.0000   1.0000   1.0000   1.0000   1.0000   1.0000   1.0000
     1.0000   1.0000   1.0000   1.0000   1.0000

          k = 0.1818-0.1034 0.0000 ( 14557 PWs)   bands (ev):

   -76.8258 -48.0413 -48.0087 -47.9606 -23.9345 -23.8314 -19.2510 -18.5286
   -12.4608 -11.9105 -11.0965 -10.9904  -9.6056  -9.4943  -9.1688  -7.6804
    -7.2941  -6.1038  -6.0747  -5.9556  -5.3042

     occupation numbers 
     1.0000   1.0000   1.0000   1.0000   1.0000   1.0000   1.0000   1.0000
     1.0000   1.0000   1.0000   1.0000   1.0000   1.0000   1.0000   1.0000
     1.0000   1.0000   1.0000   1.0000   1.0000

          k = 0.1818-0.0000 0.0000 ( 14573 PWs)   bands (ev):

   -76.8280 -48.0441 -47.9830 -47.9660 -24.0661 -23.9628 -19.3560 -18.6011
   -12.5525 -11.9579 -10.6562 -10.5491  -9.5920  -9.4819  -9.2313  -7.6486
    -7.0656  -6.2161  -6.0423  -5.7117  -5.3032

     occupation numbers 
     1.0000   1.0000   1.0000   1.0000   1.0000   1.0000   1.0000   1.0000
     1.0000   1.0000   1.0000   1.0000   1.0000   1.0000   1.0000   1.0000
     1.0000   1.0000   1.0000   1.0000   1.0000

          k = 0.2727 0.1551 0.0000 ( 14551 PWs)   bands (ev):

   -76.8157 -48.0796 -48.0289 -47.9798 -23.3000 -23.1979 -18.7684 -18.1961
   -13.0767 -12.9479 -11.4890 -11.0936 -10.0237  -9.9135  -8.8764  -8.1201
    -7.8671  -6.8269  -6.3530  -5.7607  -5.4242

     occupation numbers 
     1.0000   1.0000   1.0000   1.0000   1.0000   1.0000   1.0000   1.0000
     1.0000   1.0000   1.0000   1.0000   1.0000   1.0000   1.0000   1.0000
     1.0000   1.0000   1.0000   1.0000   1.0000

          k = 0.2727 0.2585 0.0000 ( 14499 PWs)   bands (ev):

   -76.8101 -48.1161 -48.0218 -47.9943 -22.8600 -22.7588 -18.4648 -17.9900
   -13.8125 -13.6996 -11.0992 -10.7527 -10.6270 -10.5178  -8.7879  -8.4467
    -8.0092  -7.3704  -6.4461  -5.9015  -5.3219

     occupation numbers 
     1.0000   1.0000   1.0000   1.0000   1.0000   1.0000   1.0000   1.0000
     1.0000   1.0000   1.0000   1.0000   1.0000   1.0000   1.0000   1.0000
     1.0000   1.0000   1.0000   1.0000   1.0000

          k = 0.2727 0.3619 0.0000 ( 14446 PWs)   bands (ev):

   -76.8040 -48.1410 -48.0248 -48.0141 -22.3046 -22.2049 -18.1183 -17.7539
   -14.3843 -14.2756 -11.8348 -11.7247 -10.5009 -10.1265  -8.8049  -8.5361
    -8.2778  -7.7991  -6.6429  -6.4794  -5.1072

     occupation numbers 
     1.0000   1.0000   1.0000   1.0000   1.0000   1.0000   1.0000   1.0000
     1.0000   1.0000   1.0000   1.0000   1.0000   1.0000   1.0000   1.0000
     1.0000   1.0000   1.0000   1.0000   1.0000

          k = 0.2727 0.4653 0.0000 ( 14474 PWs)   bands (ev):

   -76.7993 -48.1487 -48.0595 -48.0083 -21.8015 -21.7036 -17.8448 -17.5659
   -14.6836 -14.5770 -12.9055 -12.7956  -9.9101  -9.5355  -8.9115  -8.6526
    -8.3917  -8.0515  -7.2332  -6.8793  -4.8903

     occupation numbers 
     1.0000   1.0000   1.0000   1.0000   1.0000   1.0000   1.0000   1.0000
     1.0000   1.0000   1.0000   1.0000   1.0000   1.0000   1.0000   1.0000
     1.0000   1.0000   1.0000   1.0000   1.0000

          k = 0.2727 0.5687 0.0000 ( 14432 PWs)   bands (ev):

   -76.7976 -48.1470 -48.0770 -48.0061 -21.5889 -21.4920 -17.7420 -17.4944
   -14.7476 -14.6419 -13.3633 -13.2535  -9.4879  -9.2694  -9.1314  -8.5541
    -8.5177  -8.1347  -7.6297  -6.9843  -4.7891

     occupation numbers 
     1.0000   1.0000   1.0000   1.0000   1.0000   1.0000   1.0000   1.0000
     1.0000   1.0000   1.0000   1.0000   1.0000   1.0000   1.0000   1.0000
     1.0000   1.0000   1.0000   1.0000   1.0000

          k = 0.2727 0.6721 0.0000 ( 14474 PWs)   bands (ev):

   -76.7993 -48.1487 -48.0595 -48.0083 -21.8015 -21.7036 -17.8448 -17.5659
   -14.6833 -14.5775 -12.9058 -12.7949  -9.9101  -9.5355  -8.9115  -8.6525
    -8.3917  -8.0516  -7.2332  -6.8793  -4.8903

     occupation numbers 
     1.0000   1.0000   1.0000   1.0000   1.0000   1.0000   1.0000   1.0000
     1.0000   1.0000   1.0000   1.0000   1.0000   1.0000   1.0000   1.0000
     1.0000   1.0000   1.0000   1.0000   1.0000

          k = 0.2727-0.3619 0.0000 ( 14446 PWs)   bands (ev):

   -76.8040 -48.1411 -48.0248 -48.0141 -22.3046 -22.2049 -18.1183 -17.7538
   -14.3839 -14.2763 -11.8352 -11.7238 -10.5009 -10.1264  -8.8050  -8.5361
    -8.2778  -7.7991  -6.6431  -6.4794  -5.1071

     occupation numbers 
     1.0000   1.0000   1.0000   1.0000   1.0000   1.0000   1.0000   1.0000
     1.0000   1.0000   1.0000   1.0000   1.0000   1.0000   1.0000   1.0000
     1.0000   1.0000   1.0000   1.0000   1.0000

          k = 0.2727-0.2585 0.0000 ( 14499 PWs)   bands (ev):

   -76.8101 -48.1161 -48.0218 -47.9942 -22.8600 -22.7588 -18.4648 -17.9899
   -13.8121 -13.7003 -11.0992 -10.7527 -10.6273 -10.5169  -8.7880  -8.4467
    -8.0091  -7.3705  -6.4463  -5.9015  -5.3216

     occupation numbers 
     1.0000   1.0000   1.0000   1.0000   1.0000   1.0000   1.0000   1.0000
     1.0000   1.0000   1.0000   1.0000   1.0000   1.0000   1.0000   1.0000
     1.0000   1.0000   1.0000   1.0000   1.0000

          k = 0.2727-0.1551 0.0000 ( 14551 PWs)   bands (ev):

   -76.8157 -48.0796 -48.0289 -47.9797 -23.3001 -23.1979 -18.7685 -18.1960
   -13.0765 -12.9484 -11.4890 -11.0936 -10.0241  -9.9126  -8.8765  -8.1201
    -7.8670  -6.8270  -6.3533  -5.7607  -5.4240

     occupation numbers 
     1.0000   1.0000   1.0000   1.0000   1.0000   1.0000   1.0000   1.0000
     1.0000   1.0000   1.0000   1.0000   1.0000   1.0000   1.0000   1.0000
     1.0000   1.0000   1.0000   1.0000   1.0000

          k = 0.2727-0.0517 0.0000 ( 14554 PWs)   bands (ev):

   -76.8191 -48.0473 -48.0331 -47.9818 -23.5378 -23.4353 -18.9421 -18.3137
   -12.5192 -12.3033 -11.5536 -11.2429 -10.1197 -10.0078  -8.9320  -7.7877
    -7.7289  -6.7687  -6.0177  -5.9459  -5.3438

     occupation numbers 
     1.0000   1.0000   1.0000   1.0000   1.0000   1.0000   1.0000   1.0000
     1.0000   1.0000   1.0000   1.0000   1.0000   1.0000   1.0000   1.0000
     1.0000   1.0000   1.0000   1.0000   1.0000

          k = 0.2727 0.0517 0.0000 ( 14554 PWs)   bands (ev):

   -76.8191 -48.0473 -48.0331 -47.9818 -23.5378 -23.4353 -18.9421 -18.3137
   -12.5192 -12.3032 -11.5536 -11.2429 -10.1195 -10.0083  -8.9320  -7.7877
    -7.7290  -6.7686  -6.0176  -5.9459  -5.3438

     occupation numbers 
     1.0000   1.0000   1.0000   1.0000   1.0000   1.0000   1.0000   1.0000
     1.0000   1.0000   1.0000   1.0000   1.0000   1.0000   1.0000   1.0000
     1.0000   1.0000   1.0000   1.0000   1.0000

          k = 0.3636 0.2068 0.0000 ( 14479 PWs)   bands (ev):

   -76.8065 -48.1454 -48.0175 -47.9961 -22.5624 -22.4620 -18.2777 -17.8686
   -14.5310 -14.4215 -10.8171 -10.4468 -10.3670 -10.2569  -9.0705  -8.6169
    -8.2340  -7.3928  -6.6675  -5.5813  -5.4465

     occupation numbers 
     1.0000   1.0000   1.0000   1.0000   1.0000   1.0000   1.0000   1.0000
     1.0000   1.0000   1.0000   1.0000   1.0000   1.0000   1.0000   1.0000
     1.0000   1.0000   1.0000   1.0000   1.0000

          k = 0.3636 0.3102 0.0000 ( 14484 PWs)   bands (ev):

   -76.8026 -48.1643 -48.0133 -48.0116 -22.1749 -22.0757 -18.0559 -17.7230
   -15.0022 -14.8946 -11.0397 -10.9289 -10.3904 -10.0390  -9.2157  -8.7514
    -8.3161  -7.6667  -6.7698  -5.9591  -5.2163

     occupation numbers 
     1.0000   1.0000   1.0000   1.0000   1.0000   1.0000   1.0000   1.0000
     1.0000   1.0000   1.0000   1.0000   1.0000   1.0000   1.0000   1.0000
     1.0000   1.0000   1.0000   1.0000   1.0000

          k = 0.3636 0.4136 0.0000 ( 14456 PWs)   bands (ev):

   -76.7990 -48.1615 -48.0476 -48.0081 -21.7972 -21.6994 -17.8510 -17.5777
   -15.0647 -14.9585 -12.2656 -12.1559  -9.9229  -9.5998  -9.1658  -8.7943
    -8.3737  -7.9567  -6.9236  -6.7156  -5.0047

     occupation numbers 
     1.0000   1.0000   1.0000   1.0000   1.0000   1.0000   1.0000   1.0000
     1.0000   1.0000   1.0000   1.0000   1.0000   1.0000   1.0000   1.0000
     1.0000   1.0000   1.0000   1.0000   1.0000

          k = 0.3636 0.5170 0.0000 ( 14455 PWs)   bands (ev):

   -76.7969 -48.1368 -48.0918 -48.0054 -21.5656 -21.4687 -17.7238 -17.4783
   -14.6937 -14.5882 -13.4454 -13.3351  -9.4634  -9.2512  -9.1335  -8.5716
    -8.4940  -8.1421  -7.6395  -6.9994  -4.7951

     occupation numbers 
     1.0000   1.0000   1.0000   1.0000   1.0000   1.0000   1.0000   1.0000
     1.0000   1.0000   1.0000   1.0000   1.0000   1.0000   1.0000   1.0000
     1.0000   1.0000   1.0000   1.0000   1.0000

          k = 0.3636 0.6204 0.0000 ( 14455 PWs)   bands (ev):

   -76.7969 -48.1368 -48.0918 -48.0054 -21.5656 -21.4686 -17.7238 -17.4783
   -14.6934 -14.5887 -13.4457 -13.3345  -9.4635  -9.2512  -9.1335  -8.5716
    -8.4940  -8.1422  -7.6395  -6.9994  -4.7951

     occupation numbers 
     1.0000   1.0000   1.0000   1.0000   1.0000   1.0000   1.0000   1.0000
     1.0000   1.0000   1.0000   1.0000   1.0000   1.0000   1.0000   1.0000
     1.0000   1.0000   1.0000   1.0000   1.0000

          k = 0.3636 0.7238 0.0000 ( 14456 PWs)   bands (ev):

   -76.7990 -48.1615 -48.0476 -48.0081 -21.7972 -21.6993 -17.8511 -17.5777
   -15.0643 -14.9591 -12.2659 -12.1552  -9.9229  -9.5997  -9.1659  -8.7943
    -8.3737  -7.9569  -6.9236  -6.7155  -5.0047

     occupation numbers 
     1.0000   1.0000   1.0000   1.0000   1.0000   1.0000   1.0000   1.0000
     1.0000   1.0000   1.0000   1.0000   1.0000   1.0000   1.0000   1.0000
     1.0000   1.0000   1.0000   1.0000   1.0000

          k = 0.3636-0.3102 0.0000 ( 14484 PWs)   bands (ev):

   -76.8026 -48.1644 -48.0133 -48.0115 -22.1749 -22.0756 -18.0559 -17.7230
   -15.0019 -14.8952 -11.0401 -10.9281 -10.3905 -10.0389  -9.2157  -8.7514
    -8.3161  -7.6667  -6.7700  -5.9591  -5.2162

     occupation numbers 
     1.0000   1.0000   1.0000   1.0000   1.0000   1.0000   1.0000   1.0000
     1.0000   1.0000   1.0000   1.0000   1.0000   1.0000   1.0000   1.0000
     1.0000   1.0000   1.0000   1.0000   1.0000

          k = 0.3636-0.2068 0.0000 ( 14479 PWs)   bands (ev):

   -76.8065 -48.1454 -48.0175 -47.9961 -22.5624 -22.4619 -18.2777 -17.8686
   -14.5307 -14.4221 -10.8172 -10.4467 -10.3674 -10.2560  -9.0706  -8.6169
    -8.2340  -7.3929  -6.6678  -5.5813  -5.4464

     occupation numbers 
     1.0000   1.0000   1.0000   1.0000   1.0000   1.0000   1.0000   1.0000
     1.0000   1.0000   1.0000   1.0000   1.0000   1.0000   1.0000   1.0000
     1.0000   1.0000   1.0000   1.0000   1.0000

          k = 0.3636-0.1034 0.0000 ( 14506 PWs)   bands (ev):

   -76.8094 -48.1149 -48.0212 -48.0000 -22.8407 -22.7395 -18.4484 -17.9771
   -13.8344 -13.7231 -11.0819 -10.7350 -10.6049 -10.4949  -8.7861  -8.4670
    -8.0178  -7.3978  -6.4184  -5.8362  -5.3853

     occupation numbers 
     1.0000   1.0000   1.0000   1.0000   1.0000   1.0000   1.0000   1.0000
     1.0000   1.0000   1.0000   1.0000   1.0000   1.0000   1.0000   1.0000
     1.0000   1.0000   1.0000   1.0000   1.0000

          k = 0.3636 0.0000 0.0000 ( 14493 PWs)   bands (ev):

   -76.8106 -48.0970 -48.0226 -48.0080 -22.9406 -22.8392 -18.5121 -18.0172
   -13.4112 -13.2959 -11.1413 -11.0287 -10.9241 -10.7284  -8.6872  -8.3218
    -7.7959  -7.5868  -6.2343  -6.0514  -5.3245

     occupation numbers 
     1.0000   1.0000   1.0000   1.0000   1.0000   1.0000   1.0000   1.0000
     1.0000   1.0000   1.0000   1.0000   1.0000   1.0000   1.0000   1.0000
     1.0000   1.0000   1.0000   1.0000   1.0000

          k = 0.3636 0.1034 0.0000 ( 14506 PWs)   bands (ev):

   -76.8094 -48.1149 -48.0212 -48.0000 -22.8407 -22.7395 -18.4484 -17.9771
   -13.8346 -13.7227 -11.0819 -10.7350 -10.6046 -10.4956  -8.7860  -8.4671
    -8.0179  -7.3976  -6.4183  -5.8364  -5.3853

     occupation numbers 
     1.0000   1.0000   1.0000   1.0000   1.0000   1.0000   1.0000   1.0000
     1.0000   1.0000   1.0000   1.0000   1.0000   1.0000   1.0000   1.0000
     1.0000   1.0000   1.0000   1.0000   1.0000

          k = 0.4545 0.2585 0.0000 ( 14447 PWs)   bands (ev):

   -76.8010 -48.1844 -48.0108 -48.0055 -21.9947 -21.8963 -17.9767 -17.6840
   -15.4658 -15.3590 -10.5577 -10.4473 -10.2832  -9.9607  -9.4006  -9.0064
    -8.3184  -7.6916  -6.8399  -5.6337  -5.2882

     occupation numbers 
     1.0000   1.0000   1.0000   1.0000   1.0000   1.0000   1.0000   1.0000
     1.0000   1.0000   1.0000   1.0000   1.0000   1.0000   1.0000   1.0000
     1.0000   1.0000   1.0000   1.0000   1.0000

          k = 0.4545 0.3619 0.0000 ( 14473 PWs)   bands (ev):

   -76.7996 -48.1830 -48.0193 -48.0089 -21.8534 -21.7555 -17.9026 -17.6313
   -15.4867 -15.3806 -11.1473 -11.0367 -10.0679  -9.8097  -9.3075  -9.0638
    -8.3073  -7.8318  -6.8705  -5.9695  -5.1944

     occupation numbers 
     1.0000   1.0000   1.0000   1.0000   1.0000   1.0000   1.0000   1.0000
     1.0000   1.0000   1.0000   1.0000   1.0000   1.0000   1.0000   1.0000
     1.0000   1.0000   1.0000   1.0000   1.0000

          k = 0.4545 0.4653 0.0000 ( 14430 PWs)   bands (ev):

   -76.7986 -48.1615 -48.0504 -48.0077 -21.7807 -21.6829 -17.8404 -17.5697
   -15.0836 -14.9778 -12.2548 -12.1447  -9.9108  -9.5901  -9.1740  -8.8154
    -8.3771  -7.9600  -6.9121  -6.6913  -5.0240

     occupation numbers 
     1.0000   1.0000   1.0000   1.0000   1.0000   1.0000   1.0000   1.0000
     1.0000   1.0000   1.0000   1.0000   1.0000   1.0000   1.0000   1.0000
     1.0000   1.0000   1.0000   1.0000   1.0000

          k = 0.4545 0.5687 0.0000 ( 14406 PWs)   bands (ev):

   -76.7982 -48.1417 -48.0738 -48.0072 -21.7625 -21.6646 -17.8162 -17.5423
   -14.6786 -14.5733 -12.9450 -12.8334  -9.8799  -9.5016  -8.9302  -8.6838
    -8.4025  -8.0463  -7.2032  -6.8825  -4.9178

     occupation numbers 
     1.0000   1.0000   1.0000   1.0000   1.0000   1.0000   1.0000   1.0000
     1.0000   1.0000   1.0000   1.0000   1.0000   1.0000   1.0000   1.0000
     1.0000   1.0000   1.0000   1.0000   1.0000

          k = 0.4545 0.6721 0.0000 ( 14430 PWs)   bands (ev):

   -76.7986 -48.1615 -48.0504 -48.0077 -21.7808 -21.6829 -17.8404 -17.5697
   -15.0834 -14.9783 -12.2551 -12.1441  -9.9109  -9.5899  -9.1739  -8.8154
    -8.3772  -7.9601  -6.9121  -6.6913  -5.0239

     occupation numbers 
     1.0000   1.0000   1.0000   1.0000   1.0000   1.0000   1.0000   1.0000
     1.0000   1.0000   1.0000   1.0000   1.0000   1.0000   1.0000   1.0000
     1.0000   1.0000   1.0000   1.0000   1.0000

          k = 0.4545 0.7755 0.0000 ( 14473 PWs)   bands (ev):

   -76.7996 -48.1830 -48.0193 -48.0089 -21.8534 -21.7554 -17.9026 -17.6312
   -15.4864 -15.3811 -11.1477 -11.0360 -10.0681  -9.8095  -9.3074  -9.0639
    -8.3074  -7.8319  -6.8706  -5.9694  -5.1944

     occupation numbers 
     1.0000   1.0000   1.0000   1.0000   1.0000   1.0000   1.0000   1.0000
     1.0000   1.0000   1.0000   1.0000   1.0000   1.0000   1.0000   1.0000
     1.0000   1.0000   1.0000   1.0000   1.0000

          k = 0.4545-0.2585 0.0000 ( 14447 PWs)   bands (ev):

   -76.8010 -48.1844 -48.0108 -48.0055 -21.9947 -21.8962 -17.9767 -17.6840
   -15.4655 -15.3595 -10.5581 -10.4464 -10.2834  -9.9605  -9.4006  -9.0064
    -8.3184  -7.6917  -6.8401  -5.6336  -5.2882

     occupation numbers 
     1.0000   1.0000   1.0000   1.0000   1.0000   1.0000   1.0000   1.0000
     1.0000   1.0000   1.0000   1.0000   1.0000   1.0000   1.0000   1.0000
     1.0000   1.0000   1.0000   1.0000   1.0000

          k = 0.4545-0.1551 0.0000 ( 14436 PWs)   bands (ev):

   -76.8022 -48.1650 -48.0146 -48.0118 -22.1598 -22.0605 -18.0453 -17.7152
   -15.0228 -14.9162 -11.0176 -10.9052 -10.3847 -10.0300  -9.2271  -8.7638
    -8.3202  -7.6799  -6.7510  -5.9127  -5.2567

     occupation numbers 
     1.0000   1.0000   1.0000   1.0000   1.0000   1.0000   1.0000   1.0000
     1.0000   1.0000   1.0000   1.0000   1.0000   1.0000   1.0000   1.0000
     1.0000   1.0000   1.0000   1.0000   1.0000

          k = 0.4545-0.0517 0.0000 ( 14468 PWs)   bands (ev):

   -76.8029 -48.1387 -48.0344 -48.0130 -22.2690 -22.1693 -18.0905 -17.7319
   -14.4134 -14.3062 -11.8227 -11.7106 -10.4750 -10.0989  -8.8310  -8.5511
    -8.3020  -7.8075  -6.6231  -6.4235  -5.1564

     occupation numbers 
     1.0000   1.0000   1.0000   1.0000   1.0000   1.0000   1.0000   1.0000
     1.0000   1.0000   1.0000   1.0000   1.0000   1.0000   1.0000   1.0000
     1.0000   1.0000   1.0000   1.0000   1.0000

          k = 0.4545 0.0517 0.0000 ( 14468 PWs)   bands (ev):

   -76.8029 -48.1387 -48.0344 -48.0130 -22.2690 -22.1693 -18.0905 -17.7320
   -14.4135 -14.3059 -11.8225 -11.7109 -10.4749 -10.0989  -8.8310  -8.5511
    -8.3020  -7.8074  -6.6231  -6.4235  -5.1564

     occupation numbers 
     1.0000   1.0000   1.0000   1.0000   1.0000   1.0000   1.0000   1.0000
     1.0000   1.0000   1.0000   1.0000   1.0000   1.0000   1.0000   1.0000
     1.0000   1.0000   1.0000   1.0000   1.0000

          k = 0.4545 0.1551 0.0000 ( 14436 PWs)   bands (ev):

   -76.8022 -48.1650 -48.0147 -48.0118 -22.1597 -22.0606 -18.0453 -17.7153
   -15.0231 -14.9157 -11.0173 -10.9058 -10.3847 -10.0302  -9.2271  -8.7637
    -8.3202  -7.6798  -6.7509  -5.9128  -5.2566

     occupation numbers 
     1.0000   1.0000   1.0000   1.0000   1.0000   1.0000   1.0000   1.0000
     1.0000   1.0000   1.0000   1.0000   1.0000   1.0000   1.0000   1.0000
     1.0000   1.0000   1.0000   1.0000   1.0000

          k =-0.4545-0.2585 0.0000 ( 14447 PWs)   bands (ev):

   -76.8010 -48.1844 -48.0108 -48.0055 -21.9947 -21.8963 -17.9767 -17.6840
   -15.4658 -15.3590 -10.5577 -10.4473 -10.2832  -9.9607  -9.4006  -9.0064
    -8.3184  -7.6916  -6.8399  -5.6337  -5.2882

     occupation numbers 
     1.0000   1.0000   1.0000   1.0000   1.0000   1.0000   1.0000   1.0000
     1.0000   1.0000   1.0000   1.0000   1.0000   1.0000   1.0000   1.0000
     1.0000   1.0000   1.0000   1.0000   1.0000

          k =-0.4545-0.1551 0.0000 ( 14436 PWs)   bands (ev):

   -76.8022 -48.1650 -48.0147 -48.0118 -22.1597 -22.0606 -18.0453 -17.7153
   -15.0231 -14.9157 -11.0173 -10.9058 -10.3847 -10.0302  -9.2271  -8.7637
    -8.3202  -7.6798  -6.7509  -5.9128  -5.2566

     occupation numbers 
     1.0000   1.0000   1.0000   1.0000   1.0000   1.0000   1.0000   1.0000
     1.0000   1.0000   1.0000   1.0000   1.0000   1.0000   1.0000   1.0000
     1.0000   1.0000   1.0000   1.0000   1.0000

          k =-0.4545-0.0517 0.0000 ( 14468 PWs)   bands (ev):

   -76.8029 -48.1387 -48.0344 -48.0130 -22.2690 -22.1693 -18.0905 -17.7320
   -14.4135 -14.3059 -11.8225 -11.7109 -10.4749 -10.0989  -8.8310  -8.5511
    -8.3020  -7.8074  -6.6231  -6.4235  -5.1564

     occupation numbers 
     1.0000   1.0000   1.0000   1.0000   1.0000   1.0000   1.0000   1.0000
     1.0000   1.0000   1.0000   1.0000   1.0000   1.0000   1.0000   1.0000
     1.0000   1.0000   1.0000   1.0000   1.0000

          k =-0.4545 0.0517 0.0000 ( 14468 PWs)   bands (ev):

   -76.8029 -48.1387 -48.0344 -48.0130 -22.2690 -22.1693 -18.0905 -17.7319
   -14.4134 -14.3062 -11.8227 -11.7106 -10.4750 -10.0989  -8.8310  -8.5511
    -8.3020  -7.8075  -6.6231  -6.4235  -5.1564

     occupation numbers 
     1.0000   1.0000   1.0000   1.0000   1.0000   1.0000   1.0000   1.0000
     1.0000   1.0000   1.0000   1.0000   1.0000   1.0000   1.0000   1.0000
     1.0000   1.0000   1.0000   1.0000   1.0000

          k =-0.4545 0.1551 0.0000 ( 14436 PWs)   bands (ev):

   -76.8022 -48.1650 -48.0146 -48.0118 -22.1598 -22.0605 -18.0453 -17.7152
   -15.0228 -14.9162 -11.0176 -10.9052 -10.3847 -10.0300  -9.2271  -8.7638
    -8.3202  -7.6799  -6.7510  -5.9127  -5.2567

     occupation numbers 
     1.0000   1.0000   1.0000   1.0000   1.0000   1.0000   1.0000   1.0000
     1.0000   1.0000   1.0000   1.0000   1.0000   1.0000   1.0000   1.0000
     1.0000   1.0000   1.0000   1.0000   1.0000

          k =-0.4545 0.2585 0.0000 ( 14447 PWs)   bands (ev):

   -76.8010 -48.1844 -48.0108 -48.0055 -21.9947 -21.8962 -17.9767 -17.6840
   -15.4655 -15.3595 -10.5581 -10.4464 -10.2834  -9.9605  -9.4006  -9.0064
    -8.3184  -7.6917  -6.8401  -5.6336  -5.2882

     occupation numbers 
     1.0000   1.0000   1.0000   1.0000   1.0000   1.0000   1.0000   1.0000
     1.0000   1.0000   1.0000   1.0000   1.0000   1.0000   1.0000   1.0000
     1.0000   1.0000   1.0000   1.0000   1.0000

          k =-0.4545-0.7755 0.0000 ( 14473 PWs)   bands (ev):

   -76.7996 -48.1830 -48.0193 -48.0089 -21.8534 -21.7554 -17.9026 -17.6312
   -15.4864 -15.3811 -11.1477 -11.0360 -10.0681  -9.8095  -9.3074  -9.0639
    -8.3074  -7.8319  -6.8706  -5.9694  -5.1944

     occupation numbers 
     1.0000   1.0000   1.0000   1.0000   1.0000   1.0000   1.0000   1.0000
     1.0000   1.0000   1.0000   1.0000   1.0000   1.0000   1.0000   1.0000
     1.0000   1.0000   1.0000   1.0000   1.0000

          k =-0.4545-0.6721 0.0000 ( 14430 PWs)   bands (ev):

   -76.7986 -48.1615 -48.0504 -48.0077 -21.7808 -21.6829 -17.8404 -17.5697
   -15.0834 -14.9783 -12.2551 -12.1441  -9.9109  -9.5899  -9.1739  -8.8154
    -8.3772  -7.9601  -6.9121  -6.6913  -5.0239

     occupation numbers 
     1.0000   1.0000   1.0000   1.0000   1.0000   1.0000   1.0000   1.0000
     1.0000   1.0000   1.0000   1.0000   1.0000   1.0000   1.0000   1.0000
     1.0000   1.0000   1.0000   1.0000   1.0000

          k =-0.4545-0.5687 0.0000 ( 14406 PWs)   bands (ev):

   -76.7982 -48.1417 -48.0738 -48.0072 -21.7625 -21.6646 -17.8162 -17.5423
   -14.6786 -14.5733 -12.9450 -12.8334  -9.8799  -9.5016  -8.9302  -8.6838
    -8.4025  -8.0463  -7.2032  -6.8825  -4.9178

     occupation numbers 
     1.0000   1.0000   1.0000   1.0000   1.0000   1.0000   1.0000   1.0000
     1.0000   1.0000   1.0000   1.0000   1.0000   1.0000   1.0000   1.0000
     1.0000   1.0000   1.0000   1.0000   1.0000

          k =-0.4545-0.4653 0.0000 ( 14430 PWs)   bands (ev):

   -76.7986 -48.1615 -48.0504 -48.0077 -21.7807 -21.6829 -17.8404 -17.5697
   -15.0836 -14.9778 -12.2548 -12.1447  -9.9108  -9.5901  -9.1740  -8.8154
    -8.3771  -7.9600  -6.9121  -6.6913  -5.0240

     occupation numbers 
     1.0000   1.0000   1.0000   1.0000   1.0000   1.0000   1.0000   1.0000
     1.0000   1.0000   1.0000   1.0000   1.0000   1.0000   1.0000   1.0000
     1.0000   1.0000   1.0000   1.0000   1.0000

          k =-0.4545-0.3619 0.0000 ( 14473 PWs)   bands (ev):

   -76.7996 -48.1830 -48.0193 -48.0089 -21.8534 -21.7555 -17.9026 -17.6313
   -15.4867 -15.3806 -11.1473 -11.0367 -10.0679  -9.8097  -9.3075  -9.0638
    -8.3073  -7.8318  -6.8705  -5.9695  -5.1944

     occupation numbers 
     1.0000   1.0000   1.0000   1.0000   1.0000   1.0000   1.0000   1.0000
     1.0000   1.0000   1.0000   1.0000   1.0000   1.0000   1.0000   1.0000
     1.0000   1.0000   1.0000   1.0000   1.0000

          k =-0.3636-0.2068 0.0000 ( 14479 PWs)   bands (ev):

   -76.8065 -48.1454 -48.0175 -47.9961 -22.5624 -22.4620 -18.2777 -17.8686
   -14.5310 -14.4215 -10.8171 -10.4468 -10.3670 -10.2569  -9.0705  -8.6169
    -8.2340  -7.3928  -6.6675  -5.5813  -5.4465

     occupation numbers 
     1.0000   1.0000   1.0000   1.0000   1.0000   1.0000   1.0000   1.0000
     1.0000   1.0000   1.0000   1.0000   1.0000   1.0000   1.0000   1.0000
     1.0000   1.0000   1.0000   1.0000   1.0000

          k =-0.3636-0.1034 0.0000 ( 14506 PWs)   bands (ev):

   -76.8094 -48.1149 -48.0212 -48.0000 -22.8407 -22.7395 -18.4484 -17.9771
   -13.8346 -13.7227 -11.0819 -10.7350 -10.6046 -10.4956  -8.7860  -8.4671
    -8.0179  -7.3976  -6.4183  -5.8364  -5.3853

     occupation numbers 
     1.0000   1.0000   1.0000   1.0000   1.0000   1.0000   1.0000   1.0000
     1.0000   1.0000   1.0000   1.0000   1.0000   1.0000   1.0000   1.0000
     1.0000   1.0000   1.0000   1.0000   1.0000

          k =-0.3636 0.0000 0.0000 ( 14493 PWs)   bands (ev):

   -76.8106 -48.0970 -48.0226 -48.0080 -22.9406 -22.8392 -18.5121 -18.0172
   -13.4112 -13.2959 -11.1413 -11.0287 -10.9241 -10.7284  -8.6872  -8.3218
    -7.7959  -7.5868  -6.2343  -6.0514  -5.3245

     occupation numbers 
     1.0000   1.0000   1.0000   1.0000   1.0000   1.0000   1.0000   1.0000
     1.0000   1.0000   1.0000   1.0000   1.0000   1.0000   1.0000   1.0000
     1.0000   1.0000   1.0000   1.0000   1.0000

          k =-0.3636 0.1034 0.0000 ( 14506 PWs)   bands (ev):

   -76.8094 -48.1149 -48.0212 -48.0000 -22.8407 -22.7395 -18.4484 -17.9771
   -13.8344 -13.7231 -11.0819 -10.7350 -10.6049 -10.4949  -8.7861  -8.4670
    -8.0178  -7.3978  -6.4184  -5.8362  -5.3853

     occupation numbers 
     1.0000   1.0000   1.0000   1.0000   1.0000   1.0000   1.0000   1.0000
     1.0000   1.0000   1.0000   1.0000   1.0000   1.0000   1.0000   1.0000
     1.0000   1.0000   1.0000   1.0000   1.0000

          k =-0.3636 0.2068 0.0000 ( 14479 PWs)   bands (ev):

   -76.8065 -48.1454 -48.0175 -47.9961 -22.5624 -22.4619 -18.2777 -17.8686
   -14.5307 -14.4221 -10.8172 -10.4467 -10.3674 -10.2560  -9.0706  -8.6169
    -8.2340  -7.3929  -6.6678  -5.5813  -5.4464

     occupation numbers 
     1.0000   1.0000   1.0000   1.0000   1.0000   1.0000   1.0000   1.0000
     1.0000   1.0000   1.0000   1.0000   1.0000   1.0000   1.0000   1.0000
     1.0000   1.0000   1.0000   1.0000   1.0000

          k =-0.3636 0.3102 0.0000 ( 14484 PWs)   bands (ev):

   -76.8026 -48.1644 -48.0133 -48.0115 -22.1749 -22.0756 -18.0559 -17.7230
   -15.0019 -14.8952 -11.0401 -10.9281 -10.3905 -10.0389  -9.2157  -8.7514
    -8.3161  -7.6667  -6.7700  -5.9591  -5.2162

     occupation numbers 
     1.0000   1.0000   1.0000   1.0000   1.0000   1.0000   1.0000   1.0000
     1.0000   1.0000   1.0000   1.0000   1.0000   1.0000   1.0000   1.0000
     1.0000   1.0000   1.0000   1.0000   1.0000

          k =-0.3636-0.7238 0.0000 ( 14456 PWs)   bands (ev):

   -76.7990 -48.1615 -48.0476 -48.0081 -21.7972 -21.6993 -17.8511 -17.5777
   -15.0643 -14.9591 -12.2659 -12.1552  -9.9229  -9.5997  -9.1659  -8.7943
    -8.3737  -7.9569  -6.9236  -6.7155  -5.0047

     occupation numbers 
     1.0000   1.0000   1.0000   1.0000   1.0000   1.0000   1.0000   1.0000
     1.0000   1.0000   1.0000   1.0000   1.0000   1.0000   1.0000   1.0000
     1.0000   1.0000   1.0000   1.0000   1.0000

          k =-0.3636-0.6204 0.0000 ( 14455 PWs)   bands (ev):

   -76.7969 -48.1368 -48.0918 -48.0054 -21.5656 -21.4686 -17.7238 -17.4783
   -14.6934 -14.5887 -13.4457 -13.3345  -9.4635  -9.2512  -9.1335  -8.5716
    -8.4940  -8.1422  -7.6395  -6.9994  -4.7951

     occupation numbers 
     1.0000   1.0000   1.0000   1.0000   1.0000   1.0000   1.0000   1.0000
     1.0000   1.0000   1.0000   1.0000   1.0000   1.0000   1.0000   1.0000
     1.0000   1.0000   1.0000   1.0000   1.0000

          k =-0.3636-0.5170 0.0000 ( 14455 PWs)   bands (ev):

   -76.7969 -48.1368 -48.0918 -48.0054 -21.5656 -21.4687 -17.7238 -17.4783
   -14.6937 -14.5882 -13.4454 -13.3351  -9.4634  -9.2512  -9.1335  -8.5716
    -8.4940  -8.1421  -7.6395  -6.9994  -4.7951

     occupation numbers 
     1.0000   1.0000   1.0000   1.0000   1.0000   1.0000   1.0000   1.0000
     1.0000   1.0000   1.0000   1.0000   1.0000   1.0000   1.0000   1.0000
     1.0000   1.0000   1.0000   1.0000   1.0000

          k =-0.3636-0.4136 0.0000 ( 14456 PWs)   bands (ev):

   -76.7990 -48.1615 -48.0476 -48.0081 -21.7972 -21.6994 -17.8510 -17.5777
   -15.0647 -14.9585 -12.2656 -12.1559  -9.9229  -9.5998  -9.1658  -8.7943
    -8.3737  -7.9567  -6.9236  -6.7156  -5.0047

     occupation numbers 
     1.0000   1.0000   1.0000   1.0000   1.0000   1.0000   1.0000   1.0000
     1.0000   1.0000   1.0000   1.0000   1.0000   1.0000   1.0000   1.0000
     1.0000   1.0000   1.0000   1.0000   1.0000

          k =-0.3636-0.3102 0.0000 ( 14484 PWs)   bands (ev):

   -76.8026 -48.1643 -48.0133 -48.0116 -22.1749 -22.0757 -18.0559 -17.7230
   -15.0022 -14.8946 -11.0397 -10.9289 -10.3904 -10.0390  -9.2157  -8.7514
    -8.3161  -7.6667  -6.7698  -5.9591  -5.2163

     occupation numbers 
     1.0000   1.0000   1.0000   1.0000   1.0000   1.0000   1.0000   1.0000
     1.0000   1.0000   1.0000   1.0000   1.0000   1.0000   1.0000   1.0000
     1.0000   1.0000   1.0000   1.0000   1.0000

          k =-0.2727-0.1551 0.0000 ( 14551 PWs)   bands (ev):

   -76.8157 -48.0796 -48.0289 -47.9798 -23.3000 -23.1979 -18.7684 -18.1961
   -13.0767 -12.9479 -11.4890 -11.0936 -10.0237  -9.9135  -8.8764  -8.1201
    -7.8671  -6.8269  -6.3530  -5.7607  -5.4242

     occupation numbers 
     1.0000   1.0000   1.0000   1.0000   1.0000   1.0000   1.0000   1.0000
     1.0000   1.0000   1.0000   1.0000   1.0000   1.0000   1.0000   1.0000
     1.0000   1.0000   1.0000   1.0000   1.0000

          k =-0.2727-0.0517 0.0000 ( 14554 PWs)   bands (ev):

   -76.8191 -48.0473 -48.0331 -47.9818 -23.5378 -23.4353 -18.9421 -18.3137
   -12.5192 -12.3032 -11.5536 -11.2429 -10.1195 -10.0083  -8.9320  -7.7877
    -7.7290  -6.7686  -6.0176  -5.9459  -5.3438

     occupation numbers 
     1.0000   1.0000   1.0000   1.0000   1.0000   1.0000   1.0000   1.0000
     1.0000   1.0000   1.0000   1.0000   1.0000   1.0000   1.0000   1.0000
     1.0000   1.0000   1.0000   1.0000   1.0000

          k =-0.2727 0.0517 0.0000 ( 14554 PWs)   bands (ev):

   -76.8191 -48.0473 -48.0331 -47.9818 -23.5378 -23.4353 -18.9421 -18.3137
   -12.5192 -12.3033 -11.5536 -11.2429 -10.1197 -10.0078  -8.9320  -7.7877
    -7.7289  -6.7687  -6.0177  -5.9459  -5.3438

     occupation numbers 
     1.0000   1.0000   1.0000   1.0000   1.0000   1.0000   1.0000   1.0000
     1.0000   1.0000   1.0000   1.0000   1.0000   1.0000   1.0000   1.0000
     1.0000   1.0000   1.0000   1.0000   1.0000

          k =-0.2727 0.1551 0.0000 ( 14551 PWs)   bands (ev):

   -76.8157 -48.0796 -48.0289 -47.9797 -23.3001 -23.1979 -18.7685 -18.1960
   -13.0765 -12.9484 -11.4890 -11.0936 -10.0241  -9.9126  -8.8765  -8.1201
    -7.8670  -6.8270  -6.3533  -5.7607  -5.4240

     occupation numbers 
     1.0000   1.0000   1.0000   1.0000   1.0000   1.0000   1.0000   1.0000
     1.0000   1.0000   1.0000   1.0000   1.0000   1.0000   1.0000   1.0000
     1.0000   1.0000   1.0000   1.0000   1.0000

          k =-0.2727 0.2585 0.0000 ( 14499 PWs)   bands (ev):

   -76.8101 -48.1161 -48.0218 -47.9942 -22.8600 -22.7588 -18.4648 -17.9899
   -13.8121 -13.7003 -11.0992 -10.7527 -10.6273 -10.5169  -8.7880  -8.4467
    -8.0091  -7.3705  -6.4463  -5.9015  -5.3216

     occupation numbers 
     1.0000   1.0000   1.0000   1.0000   1.0000   1.0000   1.0000   1.0000
     1.0000   1.0000   1.0000   1.0000   1.0000   1.0000   1.0000   1.0000
     1.0000   1.0000   1.0000   1.0000   1.0000

          k =-0.2727 0.3619 0.0000 ( 14446 PWs)   bands (ev):

   -76.8040 -48.1411 -48.0248 -48.0141 -22.3046 -22.2049 -18.1183 -17.7538
   -14.3839 -14.2763 -11.8352 -11.7238 -10.5009 -10.1264  -8.8050  -8.5361
    -8.2778  -7.7991  -6.6431  -6.4794  -5.1071

     occupation numbers 
     1.0000   1.0000   1.0000   1.0000   1.0000   1.0000   1.0000   1.0000
     1.0000   1.0000   1.0000   1.0000   1.0000   1.0000   1.0000   1.0000
     1.0000   1.0000   1.0000   1.0000   1.0000

          k =-0.2727-0.6721 0.0000 ( 14474 PWs)   bands (ev):

   -76.7993 -48.1487 -48.0595 -48.0083 -21.8015 -21.7036 -17.8448 -17.5659
   -14.6833 -14.5775 -12.9058 -12.7949  -9.9101  -9.5355  -8.9115  -8.6525
    -8.3917  -8.0516  -7.2332  -6.8793  -4.8903

     occupation numbers 
     1.0000   1.0000   1.0000   1.0000   1.0000   1.0000   1.0000   1.0000
     1.0000   1.0000   1.0000   1.0000   1.0000   1.0000   1.0000   1.0000
     1.0000   1.0000   1.0000   1.0000   1.0000

          k =-0.2727-0.5687 0.0000 ( 14432 PWs)   bands (ev):

   -76.7976 -48.1470 -48.0770 -48.0061 -21.5889 -21.4920 -17.7420 -17.4944
   -14.7476 -14.6419 -13.3633 -13.2535  -9.4879  -9.2694  -9.1314  -8.5541
    -8.5177  -8.1347  -7.6297  -6.9843  -4.7891

     occupation numbers 
     1.0000   1.0000   1.0000   1.0000   1.0000   1.0000   1.0000   1.0000
     1.0000   1.0000   1.0000   1.0000   1.0000   1.0000   1.0000   1.0000
     1.0000   1.0000   1.0000   1.0000   1.0000

          k =-0.2727-0.4653 0.0000 ( 14474 PWs)   bands (ev):

   -76.7993 -48.1487 -48.0595 -48.0083 -21.8015 -21.7036 -17.8448 -17.5659
   -14.6836 -14.5770 -12.9055 -12.7956  -9.9101  -9.5355  -8.9115  -8.6526
    -8.3917  -8.0515  -7.2332  -6.8793  -4.8903

     occupation numbers 
     1.0000   1.0000   1.0000   1.0000   1.0000   1.0000   1.0000   1.0000
     1.0000   1.0000   1.0000   1.0000   1.0000   1.0000   1.0000   1.0000
     1.0000   1.0000   1.0000   1.0000   1.0000

          k =-0.2727-0.3619 0.0000 ( 14446 PWs)   bands (ev):

   -76.8040 -48.1410 -48.0248 -48.0141 -22.3046 -22.2049 -18.1183 -17.7539
   -14.3843 -14.2756 -11.8348 -11.7247 -10.5009 -10.1265  -8.8049  -8.5361
    -8.2778  -7.7991  -6.6429  -6.4794  -5.1072

     occupation numbers 
     1.0000   1.0000   1.0000   1.0000   1.0000   1.0000   1.0000   1.0000
     1.0000   1.0000   1.0000   1.0000   1.0000   1.0000   1.0000   1.0000
     1.0000   1.0000   1.0000   1.0000   1.0000

          k =-0.2727-0.2585 0.0000 ( 14499 PWs)   bands (ev):

   -76.8101 -48.1161 -48.0218 -47.9943 -22.8600 -22.7588 -18.4648 -17.9900
   -13.8125 -13.6996 -11.0992 -10.7527 -10.6270 -10.5178  -8.7879  -8.4467
    -8.0092  -7.3704  -6.4461  -5.9015  -5.3219

     occupation numbers 
     1.0000   1.0000   1.0000   1.0000   1.0000   1.0000   1.0000   1.0000
     1.0000   1.0000   1.0000   1.0000   1.0000   1.0000   1.0000   1.0000
     1.0000   1.0000   1.0000   1.0000   1.0000

          k =-0.1818-0.1034 0.0000 ( 14557 PWs)   bands (ev):

   -76.8258 -48.0413 -48.0087 -47.9607 -23.9345 -23.8314 -19.2510 -18.5286
   -12.4608 -11.9105 -11.0969 -10.9896  -9.6051  -9.4953  -9.1688  -7.6805
    -7.2940  -6.1039  -6.0748  -5.9553  -5.3043

     occupation numbers 
     1.0000   1.0000   1.0000   1.0000   1.0000   1.0000   1.0000   1.0000
     1.0000   1.0000   1.0000   1.0000   1.0000   1.0000   1.0000   1.0000
     1.0000   1.0000   1.0000   1.0000   1.0000

          k =-0.1818 0.0000 0.0000 ( 14573 PWs)   bands (ev):

   -76.8280 -48.0441 -47.9830 -47.9660 -24.0661 -23.9628 -19.3560 -18.6011
   -12.5525 -11.9579 -10.6562 -10.5491  -9.5920  -9.4819  -9.2313  -7.6486
    -7.0656  -6.2161  -6.0423  -5.7117  -5.3032

     occupation numbers 
     1.0000   1.0000   1.0000   1.0000   1.0000   1.0000   1.0000   1.0000
     1.0000   1.0000   1.0000   1.0000   1.0000   1.0000   1.0000   1.0000
     1.0000   1.0000   1.0000   1.0000   1.0000

          k =-0.1818 0.1034 0.0000 ( 14557 PWs)   bands (ev):

   -76.8258 -48.0413 -48.0087 -47.9606 -23.9345 -23.8314 -19.2510 -18.5286
   -12.4608 -11.9105 -11.0965 -10.9904  -9.6056  -9.4943  -9.1688  -7.6804
    -7.2941  -6.1038  -6.0747  -5.9556  -5.3042

     occupation numbers 
     1.0000   1.0000   1.0000   1.0000   1.0000   1.0000   1.0000   1.0000
     1.0000   1.0000   1.0000   1.0000   1.0000   1.0000   1.0000   1.0000
     1.0000   1.0000   1.0000   1.0000   1.0000

          k =-0.1818 0.2068 0.0000 ( 14545 PWs)   bands (ev):

   -76.8198 -48.0552 -48.0338 -47.9689 -23.5543 -23.4517 -18.9576 -18.3265
   -12.5338 -12.3134 -11.5572 -11.2487 -10.1174 -10.0064  -8.9453  -7.7838
    -7.7270  -6.7495  -6.0301  -5.9449  -5.3274

     occupation numbers 
     1.0000   1.0000   1.0000   1.0000   1.0000   1.0000   1.0000   1.0000
     1.0000   1.0000   1.0000   1.0000   1.0000   1.0000   1.0000   1.0000
     1.0000   1.0000   1.0000   1.0000   1.0000

          k =-0.1818 0.3102 0.0000 ( 14487 PWs)   bands (ev):

   -76.8119 -48.1057 -48.0239 -47.9898 -22.9768 -22.8754 -18.5446 -18.0440
   -13.4294 -13.3127 -11.1655 -10.9964 -10.8920 -10.7547  -8.7089  -8.3011
    -7.7879  -7.5632  -6.2420  -6.0848  -5.2738

     occupation numbers 
     1.0000   1.0000   1.0000   1.0000   1.0000   1.0000   1.0000   1.0000
     1.0000   1.0000   1.0000   1.0000   1.0000   1.0000   1.0000   1.0000
     1.0000   1.0000   1.0000   1.0000   1.0000

          k =-0.1818 0.4136 0.0000 ( 14478 PWs)   bands (ev):

   -76.8047 -48.1480 -48.0149 -48.0128 -22.3225 -22.2229 -18.1353 -17.7697
   -14.4534 -14.3452 -11.7321 -11.6216 -10.5128 -10.1404  -8.8315  -8.5593
    -8.2730  -7.8112  -6.6066  -6.4383  -5.1158

     occupation numbers 
     1.0000   1.0000   1.0000   1.0000   1.0000   1.0000   1.0000   1.0000
     1.0000   1.0000   1.0000   1.0000   1.0000   1.0000   1.0000   1.0000
     1.0000   1.0000   1.0000   1.0000   1.0000

          k =-0.1818-0.6204 0.0000 ( 14479 PWs)   bands (ev):

   -76.8004 -48.1720 -48.0275 -48.0095 -21.8382 -21.7404 -17.8870 -17.6108
   -15.1471 -15.0411 -12.1196 -12.0103  -9.9482  -9.6304  -9.1878  -8.8280
    -8.3727  -7.9754  -6.8643  -6.6674  -5.0088

     occupation numbers 
     1.0000   1.0000   1.0000   1.0000   1.0000   1.0000   1.0000   1.0000
     1.0000   1.0000   1.0000   1.0000   1.0000   1.0000   1.0000   1.0000
     1.0000   1.0000   1.0000   1.0000   1.0000

          k =-0.1818-0.5170 0.0000 ( 14479 PWs)   bands (ev):

   -76.8004 -48.1720 -48.0275 -48.0095 -21.8382 -21.7405 -17.8870 -17.6108
   -15.1472 -15.0410 -12.1195 -12.0104  -9.9482  -9.6304  -9.1878  -8.8281
    -8.3727  -7.9753  -6.8643  -6.6673  -5.0089

     occupation numbers 
     1.0000   1.0000   1.0000   1.0000   1.0000   1.0000   1.0000   1.0000
     1.0000   1.0000   1.0000   1.0000   1.0000   1.0000   1.0000   1.0000
     1.0000   1.0000   1.0000   1.0000   1.0000

          k =-0.1818-0.4136 0.0000 ( 14478 PWs)   bands (ev):

   -76.8047 -48.1480 -48.0149 -48.0128 -22.3225 -22.2229 -18.1353 -17.7697
   -14.4536 -14.3448 -11.7319 -11.6222 -10.5128 -10.1404  -8.8314  -8.5593
    -8.2730  -7.8113  -6.6064  -6.4383  -5.1160

     occupation numbers 
     1.0000   1.0000   1.0000   1.0000   1.0000   1.0000   1.0000   1.0000
     1.0000   1.0000   1.0000   1.0000   1.0000   1.0000   1.0000   1.0000
     1.0000   1.0000   1.0000   1.0000   1.0000

          k =-0.1818-0.3102 0.0000 ( 14487 PWs)   bands (ev):

   -76.8119 -48.1057 -48.0239 -47.9898 -22.9768 -22.8754 -18.5445 -18.0440
   -13.4296 -13.3121 -11.1655 -10.9960 -10.8928 -10.7548  -8.7089  -8.3010
    -7.7881  -7.5630  -6.2418  -6.0848  -5.2741

     occupation numbers 
     1.0000   1.0000   1.0000   1.0000   1.0000   1.0000   1.0000   1.0000
     1.0000   1.0000   1.0000   1.0000   1.0000   1.0000   1.0000   1.0000
     1.0000   1.0000   1.0000   1.0000   1.0000

          k =-0.1818-0.2068 0.0000 ( 14545 PWs)   bands (ev):

   -76.8198 -48.0551 -48.0338 -47.9690 -23.5543 -23.4517 -18.9576 -18.3265
   -12.5338 -12.3131 -11.5571 -11.2486 -10.1169 -10.0075  -8.9453  -7.7837
    -7.7272  -6.7493  -6.0300  -5.9450  -5.3276

     occupation numbers 
     1.0000   1.0000   1.0000   1.0000   1.0000   1.0000   1.0000   1.0000
     1.0000   1.0000   1.0000   1.0000   1.0000   1.0000   1.0000   1.0000
     1.0000   1.0000   1.0000   1.0000   1.0000

          k =-0.0909-0.0517 0.0000 ( 14561 PWs)   bands (ev):

   -76.8334 -48.0508 -47.9624 -47.9378 -24.3469 -24.2432 -19.5878 -18.7632
   -12.8132 -12.1663  -9.7615  -9.6361  -9.3886  -9.2379  -9.1296  -7.6482
    -6.6482  -6.3492  -5.6111  -5.5838  -5.3861

     occupation numbers 
     1.0000   1.0000   1.0000   1.0000   1.0000   1.0000   1.0000   1.0000
     1.0000   1.0000   1.0000   1.0000   1.0000   1.0000   1.0000   1.0000
     1.0000   1.0000   1.0000   1.0000   1.0000

          k =-0.0909 0.0517 0.0000 ( 14561 PWs)   bands (ev):

   -76.8334 -48.0508 -47.9624 -47.9378 -24.3469 -24.2432 -19.5878 -18.7632
   -12.8132 -12.1663  -9.7612  -9.6368  -9.3888  -9.2385  -9.1283  -7.6482
    -6.6483  -6.3490  -5.6115  -5.5835  -5.3861

     occupation numbers 
     1.0000   1.0000   1.0000   1.0000   1.0000   1.0000   1.0000   1.0000
     1.0000   1.0000   1.0000   1.0000   1.0000   1.0000   1.0000   1.0000
     1.0000   1.0000   1.0000   1.0000   1.0000

          k =-0.0909 0.1551 0.0000 ( 14541 PWs)   bands (ev):

   -76.8286 -48.0447 -48.0027 -47.9423 -24.0767 -23.9734 -19.3666 -18.6100
   -12.5681 -11.9735 -10.7263 -10.6180  -9.5104  -9.4037  -9.2373  -7.6506
    -7.1238  -6.1374  -6.0354  -5.7111  -5.3112

     occupation numbers 
     1.0000   1.0000   1.0000   1.0000   1.0000   1.0000   1.0000   1.0000
     1.0000   1.0000   1.0000   1.0000   1.0000   1.0000   1.0000   1.0000
     1.0000   1.0000   1.0000   1.0000   1.0000

          k =-0.0909 0.2585 0.0000 ( 14530 PWs)   bands (ev):

   -76.8203 -48.0637 -48.0343 -47.9565 -23.5651 -23.4625 -18.9684 -18.3361
   -12.5944 -12.3866 -11.5909 -11.2674 -10.0064  -9.8969  -8.9539  -7.8216
    -7.7317  -6.7627  -5.9978  -5.8916  -5.3467

     occupation numbers 
     1.0000   1.0000   1.0000   1.0000   1.0000   1.0000   1.0000   1.0000
     1.0000   1.0000   1.0000   1.0000   1.0000   1.0000   1.0000   1.0000
     1.0000   1.0000   1.0000   1.0000   1.0000

          k =-0.0909 0.3619 0.0000 ( 14507 PWs)   bands (ev):

   -76.8114 -48.1278 -48.0231 -47.9737 -22.8882 -22.7871 -18.4922 -18.0150
   -13.9218 -13.8092 -11.1175 -10.7453 -10.4739 -10.3647  -8.8153  -8.4903
    -8.0169  -7.3981  -6.3751  -5.8346  -5.3388

     occupation numbers 
     1.0000   1.0000   1.0000   1.0000   1.0000   1.0000   1.0000   1.0000
     1.0000   1.0000   1.0000   1.0000   1.0000   1.0000   1.0000   1.0000
     1.0000   1.0000   1.0000   1.0000   1.0000

          k =-0.0909 0.4653 0.0000 ( 14482 PWs)   bands (ev):

   -76.8045 -48.1760 -48.0145 -47.9872 -22.2252 -22.1261 -18.1024 -17.7661
   -15.1034 -14.9958 -10.8545 -10.7423 -10.4112 -10.0715  -9.2594  -8.7864
    -8.3236  -7.7023  -6.6750  -5.9118  -5.2052

     occupation numbers 
     1.0000   1.0000   1.0000   1.0000   1.0000   1.0000   1.0000   1.0000
     1.0000   1.0000   1.0000   1.0000   1.0000   1.0000   1.0000   1.0000
     1.0000   1.0000   1.0000   1.0000   1.0000

          k =-0.0909-0.5687 0.0000 ( 14530 PWs)   bands (ev):

   -76.8020 -48.1938 -48.0113 -47.9922 -21.9213 -21.8235 -17.9616 -17.6853
   -15.5699 -15.4637 -10.9589 -10.8484 -10.1017  -9.8489  -9.3298  -9.1129
    -8.3217  -7.8629  -6.7757  -5.9475  -5.1592

     occupation numbers 
     1.0000   1.0000   1.0000   1.0000   1.0000   1.0000   1.0000   1.0000
     1.0000   1.0000   1.0000   1.0000   1.0000   1.0000   1.0000   1.0000
     1.0000   1.0000   1.0000   1.0000   1.0000

          k =-0.0909-0.4653 0.0000 ( 14482 PWs)   bands (ev):

   -76.8045 -48.1760 -48.0145 -47.9872 -22.2252 -22.1261 -18.1024 -17.7661
   -15.1035 -14.9957 -10.8544 -10.7425 -10.4112 -10.0714  -9.2594  -8.7864
    -8.3236  -7.7023  -6.6749  -5.9117  -5.2054

     occupation numbers 
     1.0000   1.0000   1.0000   1.0000   1.0000   1.0000   1.0000   1.0000
     1.0000   1.0000   1.0000   1.0000   1.0000   1.0000   1.0000   1.0000
     1.0000   1.0000   1.0000   1.0000   1.0000

          k =-0.0909-0.3619 0.0000 ( 14507 PWs)   bands (ev):

   -76.8114 -48.1277 -48.0231 -47.9737 -22.8882 -22.7871 -18.4921 -18.0150
   -13.9219 -13.8090 -11.1175 -10.7454 -10.4738 -10.3649  -8.8153  -8.4902
    -8.0169  -7.3982  -6.3750  -5.8344  -5.3391

     occupation numbers 
     1.0000   1.0000   1.0000   1.0000   1.0000   1.0000   1.0000   1.0000
     1.0000   1.0000   1.0000   1.0000   1.0000   1.0000   1.0000   1.0000
     1.0000   1.0000   1.0000   1.0000   1.0000

          k =-0.0909-0.2585 0.0000 ( 14530 PWs)   bands (ev):

   -76.8203 -48.0637 -48.0343 -47.9566 -23.5651 -23.4625 -18.9684 -18.3361
   -12.5945 -12.3865 -11.5909 -11.2674 -10.0062  -9.8975  -8.9539  -7.8215
    -7.7318  -6.7626  -5.9978  -5.8916  -5.3469

     occupation numbers 
     1.0000   1.0000   1.0000   1.0000   1.0000   1.0000   1.0000   1.0000
     1.0000   1.0000   1.0000   1.0000   1.0000   1.0000   1.0000   1.0000
     1.0000   1.0000   1.0000   1.0000   1.0000

          k =-0.0909-0.1551 0.0000 ( 14541 PWs)   bands (ev):

   -76.8286 -48.0447 -48.0027 -47.9423 -24.0767 -23.9734 -19.3666 -18.6100
   -12.5681 -11.9735 -10.7267 -10.6172  -9.5100  -9.4046  -9.2374  -7.6507
    -7.1237  -6.1375  -6.0352  -5.7112  -5.3113

     occupation numbers 
     1.0000   1.0000   1.0000   1.0000   1.0000   1.0000   1.0000   1.0000
     1.0000   1.0000   1.0000   1.0000   1.0000   1.0000   1.0000   1.0000
     1.0000   1.0000   1.0000   1.0000   1.0000

     highest occupied level (ev):    -4.7891

!    total energy              =    -263.05845623 Ry
     estimated scf accuracy    <          6.3E-11 Ry

     The total energy is the sum of the following terms:
     one-electron contribution =   -5785.18761389 Ry
     hartree contribution      =    2890.01443470 Ry
     xc contribution           =     -43.89006371 Ry
     ewald contribution        =    2676.00478667 Ry

     convergence has been achieved in  19 iterations

     Forces acting on atoms (cartesian axes, Ry/au):

     atom    1 type  1   force =     0.00006827    0.00158680    0.00263532
     atom    2 type  2   force =    -0.00006094   -0.00128198    0.03250385
     atom    3 type  2   force =    -0.00007873   -0.00019591   -0.04044885
     atom    4 type  2   force =     0.00011979   -0.00123145   -0.07588468
     atom    5 type  2   force =    -0.00001832    0.00104021    0.07582526
     atom    6 type  3   force =     0.00000911   -0.00026500    0.08084194
     atom    7 type  3   force =    -0.00003918    0.00034732   -0.07547284
     The non-local contrib.  to forces
     atom    1 type  1   force =    -0.00002588   -0.00304709   -0.00311172
     atom    2 type  2   force =    -0.00023227   -0.01020792   -0.10024221
     atom    3 type  2   force =    -0.00026647   -0.00386096    0.07137854
     atom    4 type  2   force =    -0.00013697    0.01136094   -1.13689931
     atom    5 type  2   force =    -0.00027976   -0.01134698    1.11491802
     atom    6 type  3   force =    -0.00024811   -0.02277498    0.23560222
     atom    7 type  3   force =    -0.00035755    0.02464855   -0.24483730
     The ionic contribution  to forces
     atom    1 type  1   force =    -0.00064726   -0.18502389   -0.05653246
     atom    2 type  2   force =     0.00028897    0.09268403  -45.63704143
     atom    3 type  2   force =     0.00027290    0.09090949   45.70105012
     atom    4 type  2   force =     0.00058397   -0.05905335   90.75709555
     atom    5 type  2   force =     0.00035999    0.05749352  -90.72255633
     atom    6 type  3   force =    -0.00031664   -0.05635176  -60.96747837
     atom    7 type  3   force =    -0.00054193    0.05934195   60.92546292
     The local contribution  to forces
     atom    1 type  1   force =     0.00062889    0.18972224    0.06216762
     atom    2 type  2   force =    -0.00023015   -0.08369370   45.76972783
     atom    3 type  2   force =    -0.00019767   -0.08718012  -45.81294902
     atom    4 type  2   force =    -0.00043972    0.04652536  -89.69613725
     atom    5 type  2   force =    -0.00021107   -0.04504196   89.68341309
     atom    6 type  3   force =     0.00046134    0.07892610   60.81266786
     atom    7 type  3   force =     0.00074778   -0.08357882  -60.75615541
     The core correction contribution to forces
     atom    1 type  1   force =     0.00000000    0.00000000    0.00000000
     atom    2 type  2   force =     0.00000000    0.00000000    0.00000000
     atom    3 type  2   force =     0.00000000    0.00000000    0.00000000
     atom    4 type  2   force =     0.00000000    0.00000000    0.00000000
     atom    5 type  2   force =     0.00000000    0.00000000    0.00000000
     atom    6 type  3   force =     0.00000000    0.00000000    0.00000000
     atom    7 type  3   force =     0.00000000    0.00000000    0.00000000
     The Hubbard contrib.    to forces
     atom    1 type  1   force =     0.00000000    0.00000000    0.00000000
     atom    2 type  2   force =     0.00000000    0.00000000    0.00000000
     atom    3 type  2   force =     0.00000000    0.00000000    0.00000000
     atom    4 type  2   force =     0.00000000    0.00000000    0.00000000
     atom    5 type  2   force =     0.00000000    0.00000000    0.00000000
     atom    6 type  3   force =     0.00000000    0.00000000    0.00000000
     atom    7 type  3   force =     0.00000000    0.00000000    0.00000000
     The SCF correction term to forces
     atom    1 type  1   force =    -0.00000000   -0.00000010    0.00005556
     atom    2 type  2   force =    -0.00000001   -0.00000003    0.00000333
     atom    3 type  2   force =    -0.00000001    0.00000006    0.00001519
     atom    4 type  2   force =    -0.00000000   -0.00000003    0.00000002
     atom    5 type  2   force =    -0.00000000   -0.00000001   -0.00000584
     atom    6 type  3   force =    -0.00000000    0.00000001   -0.00000608
     atom    7 type  3   force =     0.00000000   -0.00000000    0.00000063

     Total force =     0.162623     Total SCF correction =     0.000058
     Energy error            =      2.8E-02 Ry
     Gradient error          =      8.1E-02 Ry/Bohr

     number of scf cycles    =   2
     number of bfgs steps    =   1

     energy             old  =    -263.0305767807 Ry
     energy             new  =    -263.0584562277 Ry

     CASE: energy            _new < energy            _old


     WARNING: bfgs curvature condition failed, Theta= 0.835
     new trust radius        =       0.0974495251 bohr
     new conv_thr            =            8.1E-11 Ry


ATOMIC_POSITIONS (angstrom)
Cr               2.2011584465        0.3546142393       11.0276053595
N                0.8002725135        1.1709849512        9.6548875363
N                0.8002688662        1.1719759523       12.3983381272
N                2.2009272794        0.3463957752       15.2273286698
N               -0.6003514971        1.9995396020        6.8592327953
Si               0.8004959859        1.1678000304        7.5409289832
Si               0.8004859613        1.1774548931       14.5478251917



     Writing config-only to output data dir ./tmp/crsi2n4.save/ :
     XML data file
     NEW-OLD atomic charge density approx. for the potential

     negative rho (up, down):  2.270E-05 0.000E+00

     total cpu time spent up to now is     1133.8 secs

     Self-consistent Calculation
[tb_dev] Currently allocated     0.00E+00 Mbytes, locked:    0 /   0
[tb_pin] Currently allocated     0.00E+00 Mbytes, locked:    0 /   0

     iteration #  1     ecut=    80.00 Ry     beta= 0.40
     Davidson diagonalization with overlap

---- Real-time Memory Report at c_bands before calling an iterative solver
          1377 MiB given to the printing process from OS
             0 MiB allocation reported by mallinfo(arena+hblkhd)
         15973 MiB available memory on the node where the printing process lives
     GPU memory used/free/total (MiB): 1213 / 10700 / 11914
------------------
     ethr =  1.00E-06,  avg # of iterations = 11.0

     negative rho (up, down):  7.162E-06 0.000E+00

     total cpu time spent up to now is     1171.0 secs

     total energy              =    -263.08842206 Ry
     estimated scf accuracy    <       0.00246243 Ry
[tb_dev] Currently allocated     2.67E-05 Mbytes, locked:    0 /   1
[tb_pin] Currently allocated     0.00E+00 Mbytes, locked:    0 /   0

     iteration #  2     ecut=    80.00 Ry     beta= 0.40
     Davidson diagonalization with overlap

---- Real-time Memory Report at c_bands before calling an iterative solver
          1378 MiB given to the printing process from OS
             0 MiB allocation reported by mallinfo(arena+hblkhd)
         15979 MiB available memory on the node where the printing process lives
     GPU memory used/free/total (MiB): 1213 / 10700 / 11914
------------------
     ethr =  5.86E-06,  avg # of iterations =  3.3

     negative rho (up, down):  3.092E-06 0.000E+00

     total cpu time spent up to now is     1184.7 secs

     total energy              =    -263.08834545 Ry
     estimated scf accuracy    <       0.00114917 Ry
[tb_dev] Currently allocated     2.67E-05 Mbytes, locked:    0 /   1
[tb_pin] Currently allocated     0.00E+00 Mbytes, locked:    0 /   0

     iteration #  3     ecut=    80.00 Ry     beta= 0.40
     Davidson diagonalization with overlap

---- Real-time Memory Report at c_bands before calling an iterative solver
          1378 MiB given to the printing process from OS
             0 MiB allocation reported by mallinfo(arena+hblkhd)
         15979 MiB available memory on the node where the printing process lives
     GPU memory used/free/total (MiB): 1213 / 10700 / 11914
------------------
     ethr =  2.74E-06,  avg # of iterations =  6.2

     negative rho (up, down):  7.660E-07 0.000E+00

     total cpu time spent up to now is     1202.2 secs

     total energy              =    -263.08818322 Ry
     estimated scf accuracy    <       0.00311364 Ry
[tb_dev] Currently allocated     2.67E-05 Mbytes, locked:    0 /   1
[tb_pin] Currently allocated     0.00E+00 Mbytes, locked:    0 /   0

     iteration #  4     ecut=    80.00 Ry     beta= 0.40
     Davidson diagonalization with overlap

---- Real-time Memory Report at c_bands before calling an iterative solver
          1378 MiB given to the printing process from OS
             0 MiB allocation reported by mallinfo(arena+hblkhd)
         15983 MiB available memory on the node where the printing process lives
     GPU memory used/free/total (MiB): 1213 / 10700 / 11914
------------------
     ethr =  2.74E-06,  avg # of iterations =  6.0

     negative rho (up, down):  3.753E-07 0.000E+00

     total cpu time spent up to now is     1218.6 secs

     total energy              =    -263.08860958 Ry
     estimated scf accuracy    <       0.00102181 Ry
[tb_dev] Currently allocated     2.67E-05 Mbytes, locked:    0 /   1
[tb_pin] Currently allocated     0.00E+00 Mbytes, locked:    0 /   0

     iteration #  5     ecut=    80.00 Ry     beta= 0.40
     Davidson diagonalization with overlap

---- Real-time Memory Report at c_bands before calling an iterative solver
          1378 MiB given to the printing process from OS
             0 MiB allocation reported by mallinfo(arena+hblkhd)
         15979 MiB available memory on the node where the printing process lives
     GPU memory used/free/total (MiB): 1213 / 10700 / 11914
------------------
     ethr =  2.43E-06,  avg # of iterations =  2.7

     negative rho (up, down):  7.034E-08 0.000E+00

     total cpu time spent up to now is     1230.3 secs

     total energy              =    -263.08862052 Ry
     estimated scf accuracy    <       0.00033527 Ry
[tb_dev] Currently allocated     2.67E-05 Mbytes, locked:    0 /   1
[tb_pin] Currently allocated     0.00E+00 Mbytes, locked:    0 /   0

     iteration #  6     ecut=    80.00 Ry     beta= 0.40
     Davidson diagonalization with overlap

---- Real-time Memory Report at c_bands before calling an iterative solver
          1378 MiB given to the printing process from OS
             0 MiB allocation reported by mallinfo(arena+hblkhd)
         15972 MiB available memory on the node where the printing process lives
     GPU memory used/free/total (MiB): 1213 / 10700 / 11914
------------------
     ethr =  7.98E-07,  avg # of iterations =  5.9

     negative rho (up, down):  4.453E-08 0.000E+00

     total cpu time spent up to now is     1246.4 secs

     total energy              =    -263.08869263 Ry
     estimated scf accuracy    <       0.00033011 Ry
[tb_dev] Currently allocated     2.67E-05 Mbytes, locked:    0 /   1
[tb_pin] Currently allocated     0.00E+00 Mbytes, locked:    0 /   0

     iteration #  7     ecut=    80.00 Ry     beta= 0.40
     Davidson diagonalization with overlap

---- Real-time Memory Report at c_bands before calling an iterative solver
          1378 MiB given to the printing process from OS
             0 MiB allocation reported by mallinfo(arena+hblkhd)
         15968 MiB available memory on the node where the printing process lives
     GPU memory used/free/total (MiB): 1213 / 10700 / 11914
------------------
     ethr =  7.86E-07,  avg # of iterations =  1.1

     negative rho (up, down):  2.620E-08 0.000E+00

     total cpu time spent up to now is     1255.2 secs

     total energy              =    -263.08863309 Ry
     estimated scf accuracy    <       0.00021860 Ry
[tb_dev] Currently allocated     2.67E-05 Mbytes, locked:    0 /   1
[tb_pin] Currently allocated     0.00E+00 Mbytes, locked:    0 /   0

     iteration #  8     ecut=    80.00 Ry     beta= 0.40
     Davidson diagonalization with overlap

---- Real-time Memory Report at c_bands before calling an iterative solver
          1378 MiB given to the printing process from OS
             0 MiB allocation reported by mallinfo(arena+hblkhd)
         15963 MiB available memory on the node where the printing process lives
     GPU memory used/free/total (MiB): 1213 / 10700 / 11914
------------------
     ethr =  5.20E-07,  avg # of iterations =  6.6

     total cpu time spent up to now is     1272.9 secs

     total energy              =    -263.08868832 Ry
     estimated scf accuracy    <       0.00031952 Ry
[tb_dev] Currently allocated     2.67E-05 Mbytes, locked:    0 /   1
[tb_pin] Currently allocated     0.00E+00 Mbytes, locked:    0 /   0

     iteration #  9     ecut=    80.00 Ry     beta= 0.40
     Davidson diagonalization with overlap

---- Real-time Memory Report at c_bands before calling an iterative solver
          1378 MiB given to the printing process from OS
             0 MiB allocation reported by mallinfo(arena+hblkhd)
         15958 MiB available memory on the node where the printing process lives
     GPU memory used/free/total (MiB): 1213 / 10700 / 11914
------------------
     ethr =  5.20E-07,  avg # of iterations =  2.1

     negative rho (up, down):  1.826E-08 0.000E+00

     total cpu time spent up to now is     1283.7 secs

     total energy              =    -263.08863855 Ry
     estimated scf accuracy    <       0.00014306 Ry
[tb_dev] Currently allocated     2.67E-05 Mbytes, locked:    0 /   1
[tb_pin] Currently allocated     0.00E+00 Mbytes, locked:    0 /   0

     iteration # 10     ecut=    80.00 Ry     beta= 0.40
     Davidson diagonalization with overlap

---- Real-time Memory Report at c_bands before calling an iterative solver
          1384 MiB given to the printing process from OS
             0 MiB allocation reported by mallinfo(arena+hblkhd)
         15946 MiB available memory on the node where the printing process lives
     GPU memory used/free/total (MiB): 1213 / 10700 / 11914
------------------
     ethr =  3.41E-07,  avg # of iterations =  8.4

     total cpu time spent up to now is     1304.4 secs

     total energy              =    -263.08866435 Ry
     estimated scf accuracy    <       0.00073194 Ry
[tb_dev] Currently allocated     2.67E-05 Mbytes, locked:    0 /   1
[tb_pin] Currently allocated     0.00E+00 Mbytes, locked:    0 /   0

     iteration # 11     ecut=    80.00 Ry     beta= 0.40
     Davidson diagonalization with overlap

---- Real-time Memory Report at c_bands before calling an iterative solver
          1385 MiB given to the printing process from OS
             0 MiB allocation reported by mallinfo(arena+hblkhd)
         15941 MiB available memory on the node where the printing process lives
     GPU memory used/free/total (MiB): 1213 / 10700 / 11914
------------------
     ethr =  3.41E-07,  avg # of iterations =  5.1

     total cpu time spent up to now is     1319.4 secs

     total energy              =    -263.08869433 Ry
     estimated scf accuracy    <       0.00007035 Ry
[tb_dev] Currently allocated     2.67E-05 Mbytes, locked:    0 /   1
[tb_pin] Currently allocated     0.00E+00 Mbytes, locked:    0 /   0

     iteration # 12     ecut=    80.00 Ry     beta= 0.40
     Davidson diagonalization with overlap

---- Real-time Memory Report at c_bands before calling an iterative solver
          1385 MiB given to the printing process from OS
             0 MiB allocation reported by mallinfo(arena+hblkhd)
         15943 MiB available memory on the node where the printing process lives
     GPU memory used/free/total (MiB): 1213 / 10700 / 11914
------------------
     ethr =  1.68E-07,  avg # of iterations =  2.0

     total cpu time spent up to now is     1330.3 secs

     total energy              =    -263.08868816 Ry
     estimated scf accuracy    <       0.00004624 Ry
[tb_dev] Currently allocated     2.67E-05 Mbytes, locked:    0 /   1
[tb_pin] Currently allocated     0.00E+00 Mbytes, locked:    0 /   0

     iteration # 13     ecut=    80.00 Ry     beta= 0.40
     Davidson diagonalization with overlap

---- Real-time Memory Report at c_bands before calling an iterative solver
          1385 MiB given to the printing process from OS
             0 MiB allocation reported by mallinfo(arena+hblkhd)
         15937 MiB available memory on the node where the printing process lives
     GPU memory used/free/total (MiB): 1213 / 10700 / 11914
------------------
     ethr =  1.10E-07,  avg # of iterations =  6.2

     total cpu time spent up to now is     1347.1 secs

     total energy              =    -263.08870189 Ry
     estimated scf accuracy    <       0.00002186 Ry
[tb_dev] Currently allocated     2.67E-05 Mbytes, locked:    0 /   1
[tb_pin] Currently allocated     0.00E+00 Mbytes, locked:    0 /   0

     iteration # 14     ecut=    80.00 Ry     beta= 0.40
     Davidson diagonalization with overlap

---- Real-time Memory Report at c_bands before calling an iterative solver
          1385 MiB given to the printing process from OS
             0 MiB allocation reported by mallinfo(arena+hblkhd)
         15943 MiB available memory on the node where the printing process lives
     GPU memory used/free/total (MiB): 1213 / 10700 / 11914
------------------
     ethr =  5.20E-08,  avg # of iterations =  1.2

     total cpu time spent up to now is     1356.1 secs

     total energy              =    -263.08869988 Ry
     estimated scf accuracy    <       0.00002347 Ry
[tb_dev] Currently allocated     2.67E-05 Mbytes, locked:    0 /   1
[tb_pin] Currently allocated     0.00E+00 Mbytes, locked:    0 /   0

     iteration # 15     ecut=    80.00 Ry     beta= 0.40
     Davidson diagonalization with overlap

---- Real-time Memory Report at c_bands before calling an iterative solver
          1385 MiB given to the printing process from OS
             0 MiB allocation reported by mallinfo(arena+hblkhd)
         15936 MiB available memory on the node where the printing process lives
     GPU memory used/free/total (MiB): 1213 / 10700 / 11914
------------------
     ethr =  5.20E-08,  avg # of iterations =  1.1

     total cpu time spent up to now is     1365.1 secs

     total energy              =    -263.08869785 Ry
     estimated scf accuracy    <       0.00001619 Ry
[tb_dev] Currently allocated     2.67E-05 Mbytes, locked:    0 /   1
[tb_pin] Currently allocated     0.00E+00 Mbytes, locked:    0 /   0

     iteration # 16     ecut=    80.00 Ry     beta= 0.40
     Davidson diagonalization with overlap

---- Real-time Memory Report at c_bands before calling an iterative solver
          1386 MiB given to the printing process from OS
             0 MiB allocation reported by mallinfo(arena+hblkhd)
         15934 MiB available memory on the node where the printing process lives
     GPU memory used/free/total (MiB): 1213 / 10700 / 11914
------------------
     ethr =  3.85E-08,  avg # of iterations =  4.0

     total cpu time spent up to now is     1378.7 secs

     total energy              =    -263.08869953 Ry
     estimated scf accuracy    <       0.00000068 Ry
[tb_dev] Currently allocated     2.67E-05 Mbytes, locked:    0 /   1
[tb_pin] Currently allocated     0.00E+00 Mbytes, locked:    0 /   0

     iteration # 17     ecut=    80.00 Ry     beta= 0.40
     Davidson diagonalization with overlap

---- Real-time Memory Report at c_bands before calling an iterative solver
          1386 MiB given to the printing process from OS
             0 MiB allocation reported by mallinfo(arena+hblkhd)
         15934 MiB available memory on the node where the printing process lives
     GPU memory used/free/total (MiB): 1213 / 10700 / 11914
------------------
     ethr =  1.61E-09,  avg # of iterations =  7.6

     total cpu time spent up to now is     1398.8 secs

     total energy              =    -263.08870007 Ry
     estimated scf accuracy    <       0.00000205 Ry
[tb_dev] Currently allocated     2.67E-05 Mbytes, locked:    0 /   1
[tb_pin] Currently allocated     0.00E+00 Mbytes, locked:    0 /   0

     iteration # 18     ecut=    80.00 Ry     beta= 0.40
     Davidson diagonalization with overlap

---- Real-time Memory Report at c_bands before calling an iterative solver
          1386 MiB given to the printing process from OS
             0 MiB allocation reported by mallinfo(arena+hblkhd)
         15933 MiB available memory on the node where the printing process lives
     GPU memory used/free/total (MiB): 1213 / 10700 / 11914
------------------
     ethr =  1.61E-09,  avg # of iterations =  1.0

     total cpu time spent up to now is     1407.2 secs

     total energy              =    -263.08870015 Ry
     estimated scf accuracy    <       0.00000210 Ry
[tb_dev] Currently allocated     2.67E-05 Mbytes, locked:    0 /   1
[tb_pin] Currently allocated     0.00E+00 Mbytes, locked:    0 /   0

     iteration # 19     ecut=    80.00 Ry     beta= 0.40
     Davidson diagonalization with overlap

---- Real-time Memory Report at c_bands before calling an iterative solver
          1386 MiB given to the printing process from OS
             0 MiB allocation reported by mallinfo(arena+hblkhd)
         15932 MiB available memory on the node where the printing process lives
     GPU memory used/free/total (MiB): 1213 / 10700 / 11914
------------------
     ethr =  1.61E-09,  avg # of iterations =  1.0

     total cpu time spent up to now is     1416.0 secs

     total energy              =    -263.08869994 Ry
     estimated scf accuracy    <       0.00000247 Ry
[tb_dev] Currently allocated     2.67E-05 Mbytes, locked:    0 /   1
[tb_pin] Currently allocated     0.00E+00 Mbytes, locked:    0 /   0

     iteration # 20     ecut=    80.00 Ry     beta= 0.40
     Davidson diagonalization with overlap

---- Real-time Memory Report at c_bands before calling an iterative solver
          1387 MiB given to the printing process from OS
             0 MiB allocation reported by mallinfo(arena+hblkhd)
         15930 MiB available memory on the node where the printing process lives
     GPU memory used/free/total (MiB): 1213 / 10700 / 11914
------------------
     ethr =  1.61E-09,  avg # of iterations =  3.1

     total cpu time spent up to now is     1428.0 secs

     total energy              =    -263.08869946 Ry
     estimated scf accuracy    <       0.00000181 Ry
[tb_dev] Currently allocated     2.67E-05 Mbytes, locked:    0 /   1
[tb_pin] Currently allocated     0.00E+00 Mbytes, locked:    0 /   0

     iteration # 21     ecut=    80.00 Ry     beta= 0.40
     Davidson diagonalization with overlap

---- Real-time Memory Report at c_bands before calling an iterative solver
          1387 MiB given to the printing process from OS
             0 MiB allocation reported by mallinfo(arena+hblkhd)
         15930 MiB available memory on the node where the printing process lives
     GPU memory used/free/total (MiB): 1213 / 10700 / 11914
------------------
     ethr =  1.61E-09,  avg # of iterations =  9.0

     total cpu time spent up to now is     1450.9 secs

     total energy              =    -263.08869983 Ry
     estimated scf accuracy    <       0.00000439 Ry
[tb_dev] Currently allocated     2.67E-05 Mbytes, locked:    0 /   1
[tb_pin] Currently allocated     0.00E+00 Mbytes, locked:    0 /   0

     iteration # 22     ecut=    80.00 Ry     beta= 0.40
     Davidson diagonalization with overlap

---- Real-time Memory Report at c_bands before calling an iterative solver
          1387 MiB given to the printing process from OS
             0 MiB allocation reported by mallinfo(arena+hblkhd)
         15934 MiB available memory on the node where the printing process lives
     GPU memory used/free/total (MiB): 1213 / 10700 / 11914
------------------
     ethr =  1.61E-09,  avg # of iterations =  4.0

     total cpu time spent up to now is     1464.6 secs

     total energy              =    -263.08869967 Ry
     estimated scf accuracy    <       0.00000170 Ry
[tb_dev] Currently allocated     2.67E-05 Mbytes, locked:    0 /   1
[tb_pin] Currently allocated     0.00E+00 Mbytes, locked:    0 /   0

     iteration # 23     ecut=    80.00 Ry     beta= 0.40
     Davidson diagonalization with overlap

---- Real-time Memory Report at c_bands before calling an iterative solver
          1387 MiB given to the printing process from OS
             0 MiB allocation reported by mallinfo(arena+hblkhd)
         15932 MiB available memory on the node where the printing process lives
     GPU memory used/free/total (MiB): 1213 / 10700 / 11914
------------------
     ethr =  1.61E-09,  avg # of iterations =  5.8

     total cpu time spent up to now is     1481.1 secs

     total energy              =    -263.08869989 Ry
     estimated scf accuracy    <       0.00000015 Ry
[tb_dev] Currently allocated     2.67E-05 Mbytes, locked:    0 /   1
[tb_pin] Currently allocated     0.00E+00 Mbytes, locked:    0 /   0

     iteration # 24     ecut=    80.00 Ry     beta= 0.40
     Davidson diagonalization with overlap

---- Real-time Memory Report at c_bands before calling an iterative solver
          1388 MiB given to the printing process from OS
             0 MiB allocation reported by mallinfo(arena+hblkhd)
         15924 MiB available memory on the node where the printing process lives
     GPU memory used/free/total (MiB): 1213 / 10700 / 11914
------------------
     ethr =  3.59E-10,  avg # of iterations =  4.5

     total cpu time spent up to now is     1496.6 secs

     total energy              =    -263.08869991 Ry
     estimated scf accuracy    <       0.00000024 Ry
[tb_dev] Currently allocated     2.67E-05 Mbytes, locked:    0 /   1
[tb_pin] Currently allocated     0.00E+00 Mbytes, locked:    0 /   0

     iteration # 25     ecut=    80.00 Ry     beta= 0.40
     Davidson diagonalization with overlap

---- Real-time Memory Report at c_bands before calling an iterative solver
          1388 MiB given to the printing process from OS
             0 MiB allocation reported by mallinfo(arena+hblkhd)
         15920 MiB available memory on the node where the printing process lives
     GPU memory used/free/total (MiB): 1213 / 10700 / 11914
------------------
     ethr =  3.59E-10,  avg # of iterations =  7.0

     total cpu time spent up to now is     1515.1 secs

     total energy              =    -263.08869985 Ry
     estimated scf accuracy    <       0.00000130 Ry
[tb_dev] Currently allocated     2.67E-05 Mbytes, locked:    0 /   1
[tb_pin] Currently allocated     0.00E+00 Mbytes, locked:    0 /   0

     iteration # 26     ecut=    80.00 Ry     beta= 0.40
     Davidson diagonalization with overlap

---- Real-time Memory Report at c_bands before calling an iterative solver
          1389 MiB given to the printing process from OS
             0 MiB allocation reported by mallinfo(arena+hblkhd)
         15919 MiB available memory on the node where the printing process lives
     GPU memory used/free/total (MiB): 1213 / 10700 / 11914
------------------
     ethr =  3.59E-10,  avg # of iterations =  5.5

     total cpu time spent up to now is     1530.5 secs

     total energy              =    -263.08869988 Ry
     estimated scf accuracy    <       0.00000030 Ry
[tb_dev] Currently allocated     2.67E-05 Mbytes, locked:    0 /   1
[tb_pin] Currently allocated     0.00E+00 Mbytes, locked:    0 /   0

     iteration # 27     ecut=    80.00 Ry     beta= 0.40
     Davidson diagonalization with overlap

---- Real-time Memory Report at c_bands before calling an iterative solver
          1389 MiB given to the printing process from OS
             0 MiB allocation reported by mallinfo(arena+hblkhd)
         15910 MiB available memory on the node where the printing process lives
     GPU memory used/free/total (MiB): 1213 / 10700 / 11914
------------------
     ethr =  3.59E-10,  avg # of iterations =  1.1

     total cpu time spent up to now is     1539.2 secs

     total energy              =    -263.08869987 Ry
     estimated scf accuracy    <       0.00000023 Ry
[tb_dev] Currently allocated     2.67E-05 Mbytes, locked:    0 /   1
[tb_pin] Currently allocated     0.00E+00 Mbytes, locked:    0 /   0

     iteration # 28     ecut=    80.00 Ry     beta= 0.40
     Davidson diagonalization with overlap

---- Real-time Memory Report at c_bands before calling an iterative solver
          1389 MiB given to the printing process from OS
             0 MiB allocation reported by mallinfo(arena+hblkhd)
         15907 MiB available memory on the node where the printing process lives
     GPU memory used/free/total (MiB): 1213 / 10700 / 11914
------------------
     ethr =  3.59E-10,  avg # of iterations =  1.3

     total cpu time spent up to now is     1548.4 secs

     total energy              =    -263.08869986 Ry
     estimated scf accuracy    <       0.00000017 Ry
[tb_dev] Currently allocated     2.67E-05 Mbytes, locked:    0 /   1
[tb_pin] Currently allocated     0.00E+00 Mbytes, locked:    0 /   0

     iteration # 29     ecut=    80.00 Ry     beta= 0.40
     Davidson diagonalization with overlap

---- Real-time Memory Report at c_bands before calling an iterative solver
          1389 MiB given to the printing process from OS
             0 MiB allocation reported by mallinfo(arena+hblkhd)
         15906 MiB available memory on the node where the printing process lives
     GPU memory used/free/total (MiB): 1213 / 10700 / 11914
------------------
     ethr =  3.59E-10,  avg # of iterations =  1.6

     total cpu time spent up to now is     1558.4 secs

     total energy              =    -263.08869985 Ry
     estimated scf accuracy    <       0.00000011 Ry
[tb_dev] Currently allocated     2.67E-05 Mbytes, locked:    0 /   1
[tb_pin] Currently allocated     0.00E+00 Mbytes, locked:    0 /   0

     iteration # 30     ecut=    80.00 Ry     beta= 0.40
     Davidson diagonalization with overlap

---- Real-time Memory Report at c_bands before calling an iterative solver
          1389 MiB given to the printing process from OS
             0 MiB allocation reported by mallinfo(arena+hblkhd)
         15908 MiB available memory on the node where the printing process lives
     GPU memory used/free/total (MiB): 1213 / 10700 / 11914
------------------
     ethr =  2.54E-10,  avg # of iterations =  5.6

     total cpu time spent up to now is     1574.7 secs

     total energy              =    -263.08869988 Ry
     estimated scf accuracy    <       0.00000008 Ry
[tb_dev] Currently allocated     2.67E-05 Mbytes, locked:    0 /   1
[tb_pin] Currently allocated     0.00E+00 Mbytes, locked:    0 /   0

     iteration # 31     ecut=    80.00 Ry     beta= 0.40
     Davidson diagonalization with overlap

---- Real-time Memory Report at c_bands before calling an iterative solver
          1389 MiB given to the printing process from OS
             0 MiB allocation reported by mallinfo(arena+hblkhd)
         15916 MiB available memory on the node where the printing process lives
     GPU memory used/free/total (MiB): 1213 / 10700 / 11914
------------------
     ethr =  1.96E-10,  avg # of iterations =  1.0

     total cpu time spent up to now is     1583.2 secs

     total energy              =    -263.08869987 Ry
     estimated scf accuracy    <       0.00000007 Ry
[tb_dev] Currently allocated     2.67E-05 Mbytes, locked:    0 /   1
[tb_pin] Currently allocated     0.00E+00 Mbytes, locked:    0 /   0

     iteration # 32     ecut=    80.00 Ry     beta= 0.40
     Davidson diagonalization with overlap

---- Real-time Memory Report at c_bands before calling an iterative solver
          1390 MiB given to the printing process from OS
             0 MiB allocation reported by mallinfo(arena+hblkhd)
         15909 MiB available memory on the node where the printing process lives
     GPU memory used/free/total (MiB): 1213 / 10700 / 11914
------------------
     ethr =  1.58E-10,  avg # of iterations =  4.4

     total cpu time spent up to now is     1597.0 secs

     total energy              =    -263.08869988 Ry
     estimated scf accuracy    <          9.8E-10 Ry
[tb_dev] Currently allocated     2.67E-05 Mbytes, locked:    0 /   1
[tb_pin] Currently allocated     0.00E+00 Mbytes, locked:    0 /   0

     iteration # 33     ecut=    80.00 Ry     beta= 0.40
     Davidson diagonalization with overlap

---- Real-time Memory Report at c_bands before calling an iterative solver
          1390 MiB given to the printing process from OS
             0 MiB allocation reported by mallinfo(arena+hblkhd)
         15921 MiB available memory on the node where the printing process lives
     GPU memory used/free/total (MiB): 1213 / 10700 / 11914
------------------
     ethr =  2.33E-12,  avg # of iterations = 10.2

     total cpu time spent up to now is     1623.1 secs

     total energy              =    -263.08869988 Ry
     estimated scf accuracy    <          5.4E-09 Ry
[tb_dev] Currently allocated     2.67E-05 Mbytes, locked:    0 /   1
[tb_pin] Currently allocated     0.00E+00 Mbytes, locked:    0 /   0

     iteration # 34     ecut=    80.00 Ry     beta= 0.40
     Davidson diagonalization with overlap

---- Real-time Memory Report at c_bands before calling an iterative solver
          1390 MiB given to the printing process from OS
             0 MiB allocation reported by mallinfo(arena+hblkhd)
         15916 MiB available memory on the node where the printing process lives
     GPU memory used/free/total (MiB): 1213 / 10700 / 11914
------------------
     ethr =  2.33E-12,  avg # of iterations =  4.9

     total cpu time spent up to now is     1637.7 secs

     total energy              =    -263.08869988 Ry
     estimated scf accuracy    <          9.8E-09 Ry
[tb_dev] Currently allocated     2.67E-05 Mbytes, locked:    0 /   1
[tb_pin] Currently allocated     0.00E+00 Mbytes, locked:    0 /   0

     iteration # 35     ecut=    80.00 Ry     beta= 0.40
     Davidson diagonalization with overlap

---- Real-time Memory Report at c_bands before calling an iterative solver
          1390 MiB given to the printing process from OS
             0 MiB allocation reported by mallinfo(arena+hblkhd)
         15917 MiB available memory on the node where the printing process lives
     GPU memory used/free/total (MiB): 1213 / 10700 / 11914
------------------
     ethr =  2.33E-12,  avg # of iterations =  8.5

     total cpu time spent up to now is     1658.7 secs

     total energy              =    -263.08869988 Ry
     estimated scf accuracy    <          7.0E-10 Ry
[tb_dev] Currently allocated     2.67E-05 Mbytes, locked:    0 /   1
[tb_pin] Currently allocated     0.00E+00 Mbytes, locked:    0 /   0

     iteration # 36     ecut=    80.00 Ry     beta= 0.40
     Davidson diagonalization with overlap

---- Real-time Memory Report at c_bands before calling an iterative solver
          1391 MiB given to the printing process from OS
             0 MiB allocation reported by mallinfo(arena+hblkhd)
         15920 MiB available memory on the node where the printing process lives
     GPU memory used/free/total (MiB): 1213 / 10700 / 11914
------------------
     ethr =  1.67E-12,  avg # of iterations =  1.1

     total cpu time spent up to now is     1667.6 secs

     total energy              =    -263.08869988 Ry
     estimated scf accuracy    <          4.8E-10 Ry
[tb_dev] Currently allocated     2.67E-05 Mbytes, locked:    0 /   1
[tb_pin] Currently allocated     0.00E+00 Mbytes, locked:    0 /   0

     iteration # 37     ecut=    80.00 Ry     beta= 0.40
     Davidson diagonalization with overlap

---- Real-time Memory Report at c_bands before calling an iterative solver
          1391 MiB given to the printing process from OS
             0 MiB allocation reported by mallinfo(arena+hblkhd)
         15919 MiB available memory on the node where the printing process lives
     GPU memory used/free/total (MiB): 1213 / 10700 / 11914
------------------
     ethr =  1.14E-12,  avg # of iterations =  1.0

     total cpu time spent up to now is     1676.2 secs

     total energy              =    -263.08869988 Ry
     estimated scf accuracy    <          3.8E-10 Ry
[tb_dev] Currently allocated     2.67E-05 Mbytes, locked:    0 /   1
[tb_pin] Currently allocated     0.00E+00 Mbytes, locked:    0 /   0

     iteration # 38     ecut=    80.00 Ry     beta= 0.40
     Davidson diagonalization with overlap

---- Real-time Memory Report at c_bands before calling an iterative solver
          1391 MiB given to the printing process from OS
             0 MiB allocation reported by mallinfo(arena+hblkhd)
         15601 MiB available memory on the node where the printing process lives
     GPU memory used/free/total (MiB): 1227 / 10686 / 11914
------------------
     ethr =  9.06E-13,  avg # of iterations =  3.8

     total cpu time spent up to now is     1689.3 secs

     End of self-consistent calculation

          k = 0.0000 0.0000 0.0000 ( 14509 PWs)   bands (ev):

   -76.9648 -48.1775 -48.0878 -48.0570 -24.4548 -24.4453 -19.9361 -19.0233
   -13.0677 -12.3103  -9.7112  -9.0969  -9.0955  -8.9118  -8.9056  -7.7677
    -6.7340  -6.5905  -5.6814  -5.6684  -5.5196

     occupation numbers 
     1.0000   1.0000   1.0000   1.0000   1.0000   1.0000   1.0000   1.0000
     1.0000   1.0000   1.0000   1.0000   1.0000   1.0000   1.0000   1.0000
     1.0000   1.0000   1.0000   1.0000   1.0000

          k = 0.0000 0.1034 0.0000 ( 14525 PWs)   bands (ev):

   -76.9622 -48.1741 -48.1080 -48.0615 -24.3163 -24.3071 -19.8200 -18.9442
   -12.9309 -12.2002  -9.8460  -9.7796  -9.4982  -9.0464  -9.0407  -7.7216
    -6.9765  -6.4978  -5.8227  -5.8049  -5.4380

     occupation numbers 
     1.0000   1.0000   1.0000   1.0000   1.0000   1.0000   1.0000   1.0000
     1.0000   1.0000   1.0000   1.0000   1.0000   1.0000   1.0000   1.0000
     1.0000   1.0000   1.0000   1.0000   1.0000

          k = 0.0000 0.2068 0.0000 ( 14553 PWs)   bands (ev):

   -76.9550 -48.1653 -48.1614 -48.0736 -23.9137 -23.9055 -19.4936 -18.7227
   -12.6008 -11.9848 -11.1731 -11.1439  -9.3811  -9.3768  -9.2839  -7.7757
    -7.6046  -6.3111  -6.2454  -6.1314  -5.3980

     occupation numbers 
     1.0000   1.0000   1.0000   1.0000   1.0000   1.0000   1.0000   1.0000
     1.0000   1.0000   1.0000   1.0000   1.0000   1.0000   1.0000   1.0000
     1.0000   1.0000   1.0000   1.0000   1.0000

          k = 0.0000 0.3102 0.0000 ( 14539 PWs)   bands (ev):

   -76.9456 -48.2318 -48.1530 -48.0893 -23.2944 -23.2879 -19.0276 -18.4111
   -13.2013 -13.1073 -11.6192 -11.1687  -9.7731  -9.7701  -9.0134  -8.3939
    -7.9972  -7.0321  -6.5011  -5.9058  -5.5598

     occupation numbers 
     1.0000   1.0000   1.0000   1.0000   1.0000   1.0000   1.0000   1.0000
     1.0000   1.0000   1.0000   1.0000   1.0000   1.0000   1.0000   1.0000
     1.0000   1.0000   1.0000   1.0000   1.0000

          k = 0.0000 0.4136 0.0000 ( 14485 PWs)   bands (ev):

   -76.9370 -48.2955 -48.1420 -48.1038 -22.5749 -22.5712 -18.5565 -18.1088
   -14.6210 -14.5774 -10.9905 -10.5609 -10.0975 -10.0954  -9.3077  -8.7735
    -8.3876  -7.5528  -6.7998  -5.7140  -5.5921

     occupation numbers 
     1.0000   1.0000   1.0000   1.0000   1.0000   1.0000   1.0000   1.0000
     1.0000   1.0000   1.0000   1.0000   1.0000   1.0000   1.0000   1.0000
     1.0000   1.0000   1.0000   1.0000   1.0000

          k = 0.0000 0.5170 0.0000 ( 14484 PWs)   bands (ev):

   -76.9318 -48.3332 -48.1355 -48.1123 -22.0219 -22.0213 -18.2696 -17.9432
   -15.5415 -15.4970 -10.4940 -10.2771 -10.2753 -10.1417  -9.6195  -9.1489
    -8.4505  -7.8298  -6.9637  -5.7764  -5.4094

     occupation numbers 
     1.0000   1.0000   1.0000   1.0000   1.0000   1.0000   1.0000   1.0000
     1.0000   1.0000   1.0000   1.0000   1.0000   1.0000   1.0000   1.0000
     1.0000   1.0000   1.0000   1.0000   1.0000

          k = 0.0000-0.5170 0.0000 ( 14484 PWs)   bands (ev):

   -76.9318 -48.3332 -48.1355 -48.1123 -22.0219 -22.0213 -18.2696 -17.9432
   -15.5415 -15.4970 -10.4940 -10.2771 -10.2753 -10.1417  -9.6195  -9.1489
    -8.4505  -7.8298  -6.9637  -5.7764  -5.4094

     occupation numbers 
     1.0000   1.0000   1.0000   1.0000   1.0000   1.0000   1.0000   1.0000
     1.0000   1.0000   1.0000   1.0000   1.0000   1.0000   1.0000   1.0000
     1.0000   1.0000   1.0000   1.0000   1.0000

          k = 0.0000-0.4136 0.0000 ( 14485 PWs)   bands (ev):

   -76.9370 -48.2955 -48.1420 -48.1038 -22.5749 -22.5712 -18.5565 -18.1088
   -14.6210 -14.5774 -10.9905 -10.5609 -10.0975 -10.0954  -9.3077  -8.7735
    -8.3876  -7.5528  -6.7998  -5.7140  -5.5921

     occupation numbers 
     1.0000   1.0000   1.0000   1.0000   1.0000   1.0000   1.0000   1.0000
     1.0000   1.0000   1.0000   1.0000   1.0000   1.0000   1.0000   1.0000
     1.0000   1.0000   1.0000   1.0000   1.0000

          k = 0.0000-0.3102 0.0000 ( 14539 PWs)   bands (ev):

   -76.9456 -48.2318 -48.1530 -48.0893 -23.2944 -23.2879 -19.0276 -18.4111
   -13.2013 -13.1073 -11.6192 -11.1687  -9.7731  -9.7701  -9.0134  -8.3939
    -7.9972  -7.0321  -6.5011  -5.9058  -5.5598

     occupation numbers 
     1.0000   1.0000   1.0000   1.0000   1.0000   1.0000   1.0000   1.0000
     1.0000   1.0000   1.0000   1.0000   1.0000   1.0000   1.0000   1.0000
     1.0000   1.0000   1.0000   1.0000   1.0000

          k = 0.0000-0.2068 0.0000 ( 14553 PWs)   bands (ev):

   -76.9550 -48.1653 -48.1614 -48.0736 -23.9137 -23.9055 -19.4936 -18.7227
   -12.6008 -11.9848 -11.1731 -11.1439  -9.3811  -9.3768  -9.2839  -7.7757
    -7.6046  -6.3111  -6.2454  -6.1314  -5.3980

     occupation numbers 
     1.0000   1.0000   1.0000   1.0000   1.0000   1.0000   1.0000   1.0000
     1.0000   1.0000   1.0000   1.0000   1.0000   1.0000   1.0000   1.0000
     1.0000   1.0000   1.0000   1.0000   1.0000

          k = 0.0000-0.1034 0.0000 ( 14525 PWs)   bands (ev):

   -76.9622 -48.1741 -48.1080 -48.0615 -24.3163 -24.3071 -19.8200 -18.9442
   -12.9309 -12.2002  -9.8460  -9.7796  -9.4982  -9.0464  -9.0407  -7.7216
    -6.9765  -6.4978  -5.8227  -5.8049  -5.4380

     occupation numbers 
     1.0000   1.0000   1.0000   1.0000   1.0000   1.0000   1.0000   1.0000
     1.0000   1.0000   1.0000   1.0000   1.0000   1.0000   1.0000   1.0000
     1.0000   1.0000   1.0000   1.0000   1.0000

          k = 0.0909 0.0517 0.0000 ( 14561 PWs)   bands (ev):

   -76.9620 -48.1739 -48.0981 -48.0729 -24.3127 -24.3035 -19.8162 -18.9411
   -12.9259 -12.1959  -9.7645  -9.6519  -9.4483  -9.1850  -9.1795  -7.7176
    -6.8915  -6.5922  -5.8280  -5.8022  -5.4340

     occupation numbers 
     1.0000   1.0000   1.0000   1.0000   1.0000   1.0000   1.0000   1.0000
     1.0000   1.0000   1.0000   1.0000   1.0000   1.0000   1.0000   1.0000
     1.0000   1.0000   1.0000   1.0000   1.0000

          k = 0.0909 0.1551 0.0000 ( 14541 PWs)   bands (ev):

   -76.9571 -48.1677 -48.1388 -48.0775 -24.0420 -24.0334 -19.5947 -18.7905
   -12.6818 -12.0088 -10.6777 -10.6769  -9.4742  -9.4337  -9.3149  -7.7318
    -7.3670  -6.3768  -6.2575  -5.9196  -5.3785

     occupation numbers 
     1.0000   1.0000   1.0000   1.0000   1.0000   1.0000   1.0000   1.0000
     1.0000   1.0000   1.0000   1.0000   1.0000   1.0000   1.0000   1.0000
     1.0000   1.0000   1.0000   1.0000   1.0000

          k = 0.0909 0.2585 0.0000 ( 14530 PWs)   bands (ev):

   -76.9488 -48.2003 -48.1571 -48.0917 -23.5290 -23.5217 -19.1967 -18.5218
   -12.6484 -12.4155 -11.6505 -11.3067  -9.9472  -9.9327  -9.0545  -8.0530
    -7.8335  -6.9705  -6.1991  -6.1321  -5.4473

     occupation numbers 
     1.0000   1.0000   1.0000   1.0000   1.0000   1.0000   1.0000   1.0000
     1.0000   1.0000   1.0000   1.0000   1.0000   1.0000   1.0000   1.0000
     1.0000   1.0000   1.0000   1.0000   1.0000

          k = 0.0909 0.3619 0.0000 ( 14507 PWs)   bands (ev):

   -76.9398 -48.2649 -48.1456 -48.1090 -22.8498 -22.8449 -18.7215 -18.2080
   -13.9099 -13.8568 -11.2371 -10.8045 -10.4195 -10.4013  -8.9626  -8.6643
    -8.1609  -7.5517  -6.5849  -6.0282  -5.4900

     occupation numbers 
     1.0000   1.0000   1.0000   1.0000   1.0000   1.0000   1.0000   1.0000
     1.0000   1.0000   1.0000   1.0000   1.0000   1.0000   1.0000   1.0000
     1.0000   1.0000   1.0000   1.0000   1.0000

          k = 0.0909 0.4653 0.0000 ( 14482 PWs)   bands (ev):

   -76.9329 -48.3136 -48.1368 -48.1226 -22.1835 -22.1817 -18.3331 -17.9665
   -15.0870 -15.0459 -10.8346 -10.7850 -10.5295 -10.1606  -9.4539  -8.9068
    -8.4573  -7.8167  -6.8899  -6.0750  -5.3729

     occupation numbers 
     1.0000   1.0000   1.0000   1.0000   1.0000   1.0000   1.0000   1.0000
     1.0000   1.0000   1.0000   1.0000   1.0000   1.0000   1.0000   1.0000
     1.0000   1.0000   1.0000   1.0000   1.0000

          k = 0.0909 0.5687 0.0000 ( 14530 PWs)   bands (ev):

   -76.9303 -48.3316 -48.1336 -48.1276 -21.8778 -21.8774 -18.1921 -17.8887
   -15.5570 -15.5132 -10.9118 -10.8954 -10.2595 -10.0001  -9.5241  -9.1904
    -8.4341  -7.9684  -6.9901  -6.1039  -5.3233

     occupation numbers 
     1.0000   1.0000   1.0000   1.0000   1.0000   1.0000   1.0000   1.0000
     1.0000   1.0000   1.0000   1.0000   1.0000   1.0000   1.0000   1.0000
     1.0000   1.0000   1.0000   1.0000   1.0000

          k = 0.0909-0.4653 0.0000 ( 14482 PWs)   bands (ev):

   -76.9329 -48.3136 -48.1368 -48.1226 -22.1835 -22.1817 -18.3332 -17.9665
   -15.0870 -15.0459 -10.8347 -10.7849 -10.5295 -10.1606  -9.4540  -8.9068
    -8.4572  -7.8167  -6.8900  -6.0753  -5.3725

     occupation numbers 
     1.0000   1.0000   1.0000   1.0000   1.0000   1.0000   1.0000   1.0000
     1.0000   1.0000   1.0000   1.0000   1.0000   1.0000   1.0000   1.0000
     1.0000   1.0000   1.0000   1.0000   1.0000

          k = 0.0909-0.3619 0.0000 ( 14507 PWs)   bands (ev):

   -76.9398 -48.2649 -48.1456 -48.1090 -22.8498 -22.8448 -18.7216 -18.2080
   -13.9100 -13.8568 -11.2371 -10.8045 -10.4194 -10.4012  -8.9627  -8.6643
    -8.1609  -7.5515  -6.5851  -6.0286  -5.4893

     occupation numbers 
     1.0000   1.0000   1.0000   1.0000   1.0000   1.0000   1.0000   1.0000
     1.0000   1.0000   1.0000   1.0000   1.0000   1.0000   1.0000   1.0000
     1.0000   1.0000   1.0000   1.0000   1.0000

          k = 0.0909-0.2585 0.0000 ( 14530 PWs)   bands (ev):

   -76.9488 -48.2003 -48.1571 -48.0917 -23.5290 -23.5217 -19.1967 -18.5217
   -12.6484 -12.4156 -11.6505 -11.3067  -9.9471  -9.9326  -9.0545  -8.0532
    -7.8333  -6.9708  -6.1993  -6.1321  -5.4469

     occupation numbers 
     1.0000   1.0000   1.0000   1.0000   1.0000   1.0000   1.0000   1.0000
     1.0000   1.0000   1.0000   1.0000   1.0000   1.0000   1.0000   1.0000
     1.0000   1.0000   1.0000   1.0000   1.0000

          k = 0.0909-0.1551 0.0000 ( 14541 PWs)   bands (ev):

   -76.9571 -48.1677 -48.1388 -48.0774 -24.0420 -24.0334 -19.5947 -18.7905
   -12.6818 -12.0087 -10.6781 -10.6769  -9.4740  -9.4335  -9.3149  -7.7316
    -7.3673  -6.3766  -6.2580  -5.9195  -5.3784

     occupation numbers 
     1.0000   1.0000   1.0000   1.0000   1.0000   1.0000   1.0000   1.0000
     1.0000   1.0000   1.0000   1.0000   1.0000   1.0000   1.0000   1.0000
     1.0000   1.0000   1.0000   1.0000   1.0000

          k = 0.0909-0.0517 0.0000 ( 14561 PWs)   bands (ev):

   -76.9620 -48.1739 -48.0981 -48.0729 -24.3127 -24.3035 -19.8162 -18.9411
   -12.9259 -12.1958  -9.7646  -9.6522  -9.4484  -9.1838  -9.1801  -7.7175
    -6.8918  -6.5919  -5.8293  -5.8011  -5.4340

     occupation numbers 
     1.0000   1.0000   1.0000   1.0000   1.0000   1.0000   1.0000   1.0000
     1.0000   1.0000   1.0000   1.0000   1.0000   1.0000   1.0000   1.0000
     1.0000   1.0000   1.0000   1.0000   1.0000

          k = 0.1818 0.1034 0.0000 ( 14557 PWs)   bands (ev):

   -76.9543 -48.1642 -48.1446 -48.0962 -23.8997 -23.8914 -19.4789 -18.7107
   -12.5725 -11.9467 -11.0486 -11.0301  -9.5536  -9.5513  -9.2669  -7.7708
    -7.5348  -6.3424  -6.2739  -6.1801  -5.3816

     occupation numbers 
     1.0000   1.0000   1.0000   1.0000   1.0000   1.0000   1.0000   1.0000
     1.0000   1.0000   1.0000   1.0000   1.0000   1.0000   1.0000   1.0000
     1.0000   1.0000   1.0000   1.0000   1.0000

          k = 0.1818 0.2068 0.0000 ( 14545 PWs)   bands (ev):

   -76.9482 -48.1916 -48.1565 -48.1044 -23.5184 -23.5112 -19.1857 -18.5125
   -12.5894 -12.3365 -11.6077 -11.2853 -10.0668 -10.0536  -9.0462  -8.0154
    -7.8302  -6.9590  -6.2255  -6.1869  -5.4296

     occupation numbers 
     1.0000   1.0000   1.0000   1.0000   1.0000   1.0000   1.0000   1.0000
     1.0000   1.0000   1.0000   1.0000   1.0000   1.0000   1.0000   1.0000
     1.0000   1.0000   1.0000   1.0000   1.0000

          k = 0.1818 0.3102 0.0000 ( 14487 PWs)   bands (ev):

   -76.9403 -48.2426 -48.1465 -48.1253 -22.9392 -22.9338 -18.7735 -18.2361
   -13.4223 -13.3536 -11.2761 -10.9567 -10.9349 -10.8019  -8.8141  -8.5224
    -7.8952  -7.7697  -6.4312  -6.2971  -5.4153

     occupation numbers 
     1.0000   1.0000   1.0000   1.0000   1.0000   1.0000   1.0000   1.0000
     1.0000   1.0000   1.0000   1.0000   1.0000   1.0000   1.0000   1.0000
     1.0000   1.0000   1.0000   1.0000   1.0000

          k = 0.1818 0.4136 0.0000 ( 14478 PWs)   bands (ev):

   -76.9330 -48.2854 -48.1485 -48.1372 -22.2821 -22.2795 -18.3659 -17.9692
   -14.4357 -14.3945 -11.6815 -11.6684 -10.6525 -10.2160  -9.0257  -8.6863
    -8.4535  -7.9223  -6.7921  -6.6354  -5.2661

     occupation numbers 
     1.0000   1.0000   1.0000   1.0000   1.0000   1.0000   1.0000   1.0000
     1.0000   1.0000   1.0000   1.0000   1.0000   1.0000   1.0000   1.0000
     1.0000   1.0000   1.0000   1.0000   1.0000

          k = 0.1818 0.5170 0.0000 ( 14479 PWs)   bands (ev):

   -76.9287 -48.3096 -48.1633 -48.1317 -21.7952 -21.7948 -18.1185 -17.8158
   -15.1308 -15.0922 -12.0689 -12.0566 -10.1115  -9.7515  -9.3847  -8.9582
    -8.4961  -8.0843  -7.0444  -6.8591  -5.1458

     occupation numbers 
     1.0000   1.0000   1.0000   1.0000   1.0000   1.0000   1.0000   1.0000
     1.0000   1.0000   1.0000   1.0000   1.0000   1.0000   1.0000   1.0000
     1.0000   1.0000   1.0000   1.0000   1.0000

          k = 0.1818 0.6204 0.0000 ( 14479 PWs)   bands (ev):

   -76.9287 -48.3096 -48.1633 -48.1317 -21.7952 -21.7948 -18.1185 -17.8157
   -15.1308 -15.0922 -12.0690 -12.0565 -10.1115  -9.7516  -9.3848  -8.9580
    -8.4961  -8.0844  -7.0445  -6.8591  -5.1457

     occupation numbers 
     1.0000   1.0000   1.0000   1.0000   1.0000   1.0000   1.0000   1.0000
     1.0000   1.0000   1.0000   1.0000   1.0000   1.0000   1.0000   1.0000
     1.0000   1.0000   1.0000   1.0000   1.0000

          k = 0.1818-0.4136 0.0000 ( 14478 PWs)   bands (ev):

   -76.9330 -48.2854 -48.1484 -48.1372 -22.2821 -22.2795 -18.3659 -17.9691
   -14.4358 -14.3946 -11.6816 -11.6680 -10.6525 -10.2160  -9.0258  -8.6863
    -8.4536  -7.9221  -6.7924  -6.6354  -5.2657

     occupation numbers 
     1.0000   1.0000   1.0000   1.0000   1.0000   1.0000   1.0000   1.0000
     1.0000   1.0000   1.0000   1.0000   1.0000   1.0000   1.0000   1.0000
     1.0000   1.0000   1.0000   1.0000   1.0000

          k = 0.1818-0.3102 0.0000 ( 14487 PWs)   bands (ev):

   -76.9403 -48.2426 -48.1465 -48.1253 -22.9392 -22.9337 -18.7735 -18.2360
   -13.4224 -13.3538 -11.2761 -10.9567 -10.9345 -10.8018  -8.8142  -8.5226
    -7.8948  -7.7701  -6.4316  -6.2971  -5.4147

     occupation numbers 
     1.0000   1.0000   1.0000   1.0000   1.0000   1.0000   1.0000   1.0000
     1.0000   1.0000   1.0000   1.0000   1.0000   1.0000   1.0000   1.0000
     1.0000   1.0000   1.0000   1.0000   1.0000

          k = 0.1818-0.2068 0.0000 ( 14545 PWs)   bands (ev):

   -76.9482 -48.1916 -48.1565 -48.1043 -23.5185 -23.5111 -19.1857 -18.5124
   -12.5895 -12.3366 -11.6078 -11.2853 -10.0666 -10.0533  -9.0462  -8.0156
    -7.8298  -6.9595  -6.2259  -6.1868  -5.4291

     occupation numbers 
     1.0000   1.0000   1.0000   1.0000   1.0000   1.0000   1.0000   1.0000
     1.0000   1.0000   1.0000   1.0000   1.0000   1.0000   1.0000   1.0000
     1.0000   1.0000   1.0000   1.0000   1.0000

          k = 0.1818-0.1034 0.0000 ( 14557 PWs)   bands (ev):

   -76.9543 -48.1642 -48.1447 -48.0961 -23.8997 -23.8914 -19.4789 -18.7107
   -12.5725 -11.9467 -11.0488 -11.0302  -9.5523  -9.5521  -9.2670  -7.7705
    -7.5350  -6.3422  -6.2738  -6.1808  -5.3814

     occupation numbers 
     1.0000   1.0000   1.0000   1.0000   1.0000   1.0000   1.0000   1.0000
     1.0000   1.0000   1.0000   1.0000   1.0000   1.0000   1.0000   1.0000
     1.0000   1.0000   1.0000   1.0000   1.0000

          k = 0.1818-0.0000 0.0000 ( 14573 PWs)   bands (ev):

   -76.9565 -48.1671 -48.1184 -48.1017 -24.0316 -24.0230 -19.5839 -18.7819
   -12.6662 -11.9934 -10.5896 -10.5865  -9.5623  -9.5402  -9.3203  -7.7320
    -7.3068  -6.4584  -6.2613  -5.9191  -5.3718

     occupation numbers 
     1.0000   1.0000   1.0000   1.0000   1.0000   1.0000   1.0000   1.0000
     1.0000   1.0000   1.0000   1.0000   1.0000   1.0000   1.0000   1.0000
     1.0000   1.0000   1.0000   1.0000   1.0000

          k = 0.2727 0.1551 0.0000 ( 14551 PWs)   bands (ev):

   -76.9441 -48.2161 -48.1515 -48.1154 -23.2639 -23.2573 -18.9966 -18.3851
   -13.0738 -12.9755 -11.5852 -11.1419  -9.9722  -9.9712  -8.9854  -8.3409
    -7.9914  -6.9883  -6.5787  -6.0012  -5.5298

     occupation numbers 
     1.0000   1.0000   1.0000   1.0000   1.0000   1.0000   1.0000   1.0000
     1.0000   1.0000   1.0000   1.0000   1.0000   1.0000   1.0000   1.0000
     1.0000   1.0000   1.0000   1.0000   1.0000

          k = 0.2727 0.2585 0.0000 ( 14499 PWs)   bands (ev):

   -76.9385 -48.2529 -48.1443 -48.1300 -22.8224 -22.8174 -18.6936 -18.1837
   -13.7913 -13.7379 -11.2160 -10.8008 -10.6002 -10.5679  -8.9284  -8.6258
    -8.1557  -7.5244  -6.6499  -6.1069  -5.4649

     occupation numbers 
     1.0000   1.0000   1.0000   1.0000   1.0000   1.0000   1.0000   1.0000
     1.0000   1.0000   1.0000   1.0000   1.0000   1.0000   1.0000   1.0000
     1.0000   1.0000   1.0000   1.0000   1.0000

          k = 0.2727 0.3619 0.0000 ( 14446 PWs)   bands (ev):

   -76.9323 -48.2782 -48.1607 -48.1364 -22.2648 -22.2622 -18.3485 -17.9537
   -14.3602 -14.3193 -11.7905 -11.7780 -10.6427 -10.2040  -8.9953  -8.6649
    -8.4590  -7.9099  -6.8271  -6.6794  -5.2555

     occupation numbers 
     1.0000   1.0000   1.0000   1.0000   1.0000   1.0000   1.0000   1.0000
     1.0000   1.0000   1.0000   1.0000   1.0000   1.0000   1.0000   1.0000
     1.0000   1.0000   1.0000   1.0000   1.0000

          k = 0.2727 0.4653 0.0000 ( 14474 PWs)   bands (ev):

   -76.9276 -48.2860 -48.1955 -48.1305 -21.7592 -21.7589 -18.0766 -17.7716
   -14.6626 -14.6251 -12.8579 -12.8464 -10.0768  -9.6343  -9.0967  -8.8606
    -8.4839  -8.1665  -7.4202  -7.0513  -5.0315

     occupation numbers 
     1.0000   1.0000   1.0000   1.0000   1.0000   1.0000   1.0000   1.0000
     1.0000   1.0000   1.0000   1.0000   1.0000   1.0000   1.0000   1.0000
     1.0000   1.0000   1.0000   1.0000   1.0000

          k = 0.2727 0.5687 0.0000 ( 14432 PWs)   bands (ev):

   -76.9259 -48.2844 -48.2131 -48.1283 -21.5466 -21.5450 -17.9745 -17.7028
   -14.7302 -14.6930 -13.3125 -13.3023  -9.6698  -9.4150  -9.3013  -8.7013
    -8.6538  -8.2415  -7.8124  -7.1431  -4.9241

     occupation numbers 
     1.0000   1.0000   1.0000   1.0000   1.0000   1.0000   1.0000   1.0000
     1.0000   1.0000   1.0000   1.0000   1.0000   1.0000   1.0000   1.0000
     1.0000   1.0000   1.0000   1.0000   1.0000

          k = 0.2727 0.6721 0.0000 ( 14474 PWs)   bands (ev):

   -76.9276 -48.2861 -48.1955 -48.1305 -21.7591 -21.7589 -18.0766 -17.7715
   -14.6627 -14.6252 -12.8582 -12.8458 -10.0768  -9.6344  -9.0968  -8.8604
    -8.4839  -8.1666  -7.4202  -7.0514  -5.0314

     occupation numbers 
     1.0000   1.0000   1.0000   1.0000   1.0000   1.0000   1.0000   1.0000
     1.0000   1.0000   1.0000   1.0000   1.0000   1.0000   1.0000   1.0000
     1.0000   1.0000   1.0000   1.0000   1.0000

          k = 0.2727-0.3619 0.0000 ( 14446 PWs)   bands (ev):

   -76.9323 -48.2782 -48.1606 -48.1364 -22.2648 -22.2621 -18.3486 -17.9536
   -14.3603 -14.3194 -11.7908 -11.7773 -10.6427 -10.2038  -8.9955  -8.6649
    -8.4591  -7.9099  -6.8274  -6.6793  -5.2551

     occupation numbers 
     1.0000   1.0000   1.0000   1.0000   1.0000   1.0000   1.0000   1.0000
     1.0000   1.0000   1.0000   1.0000   1.0000   1.0000   1.0000   1.0000
     1.0000   1.0000   1.0000   1.0000   1.0000

          k = 0.2727-0.2585 0.0000 ( 14499 PWs)   bands (ev):

   -76.9385 -48.2530 -48.1443 -48.1299 -22.8225 -22.8173 -18.6937 -18.1836
   -13.7914 -13.7381 -11.2161 -10.8006 -10.6002 -10.5675  -8.9286  -8.6258
    -8.1555  -7.5247  -6.6504  -6.1069  -5.4643

     occupation numbers 
     1.0000   1.0000   1.0000   1.0000   1.0000   1.0000   1.0000   1.0000
     1.0000   1.0000   1.0000   1.0000   1.0000   1.0000   1.0000   1.0000
     1.0000   1.0000   1.0000   1.0000   1.0000

          k = 0.2727-0.1551 0.0000 ( 14551 PWs)   bands (ev):

   -76.9441 -48.2162 -48.1515 -48.1154 -23.2639 -23.2573 -18.9966 -18.3850
   -13.0739 -12.9756 -11.5853 -11.1418  -9.9721  -9.9708  -8.9856  -8.3410
    -7.9910  -6.9886  -6.5794  -6.0011  -5.5293

     occupation numbers 
     1.0000   1.0000   1.0000   1.0000   1.0000   1.0000   1.0000   1.0000
     1.0000   1.0000   1.0000   1.0000   1.0000   1.0000   1.0000   1.0000
     1.0000   1.0000   1.0000   1.0000   1.0000

          k = 0.2727-0.0517 0.0000 ( 14554 PWs)   bands (ev):

   -76.9475 -48.1834 -48.1558 -48.1176 -23.5024 -23.4950 -19.1699 -18.5001
   -12.5683 -12.3181 -11.5999 -11.2781 -10.0823 -10.0681  -9.0331  -8.0167
    -7.8359  -6.9759  -6.2113  -6.1916  -5.4464

     occupation numbers 
     1.0000   1.0000   1.0000   1.0000   1.0000   1.0000   1.0000   1.0000
     1.0000   1.0000   1.0000   1.0000   1.0000   1.0000   1.0000   1.0000
     1.0000   1.0000   1.0000   1.0000   1.0000

          k = 0.2727 0.0517 0.0000 ( 14554 PWs)   bands (ev):

   -76.9475 -48.1834 -48.1558 -48.1176 -23.5023 -23.4951 -19.1699 -18.5001
   -12.5682 -12.3180 -11.5999 -11.2781 -10.0823 -10.0684  -9.0331  -8.0166
    -7.8362  -6.9756  -6.2111  -6.1916  -5.4465

     occupation numbers 
     1.0000   1.0000   1.0000   1.0000   1.0000   1.0000   1.0000   1.0000
     1.0000   1.0000   1.0000   1.0000   1.0000   1.0000   1.0000   1.0000
     1.0000   1.0000   1.0000   1.0000   1.0000

          k = 0.3636 0.2068 0.0000 ( 14479 PWs)   bands (ev):

   -76.9348 -48.2824 -48.1399 -48.1318 -22.5242 -22.5204 -18.5068 -18.0660
   -14.5015 -14.4597 -10.9547 -10.5249 -10.3159 -10.3156  -9.2591  -8.7397
    -8.3798  -7.5110  -6.8978  -5.7219  -5.6456

     occupation numbers 
     1.0000   1.0000   1.0000   1.0000   1.0000   1.0000   1.0000   1.0000
     1.0000   1.0000   1.0000   1.0000   1.0000   1.0000   1.0000   1.0000
     1.0000   1.0000   1.0000   1.0000   1.0000

          k = 0.3636 0.3102 0.0000 ( 14484 PWs)   bands (ev):

   -76.9309 -48.3016 -48.1482 -48.1348 -22.1350 -22.1331 -18.2856 -17.9245
   -14.9736 -14.9346 -11.0100 -10.9861 -10.5336 -10.1357  -9.4072  -8.8719
    -8.4476  -7.7819  -6.9791  -6.1376  -5.3702

     occupation numbers 
     1.0000   1.0000   1.0000   1.0000   1.0000   1.0000   1.0000   1.0000
     1.0000   1.0000   1.0000   1.0000   1.0000   1.0000   1.0000   1.0000
     1.0000   1.0000   1.0000   1.0000   1.0000

          k = 0.3636 0.4136 0.0000 ( 14456 PWs)   bands (ev):

   -76.9273 -48.2988 -48.1838 -48.1303 -21.7556 -21.7553 -18.0817 -17.7834
   -15.0367 -14.9997 -12.2266 -12.2145 -10.0910  -9.7262  -9.3588  -8.9251
    -8.4946  -8.0638  -7.1031  -6.9085  -5.1390

     occupation numbers 
     1.0000   1.0000   1.0000   1.0000   1.0000   1.0000   1.0000   1.0000
     1.0000   1.0000   1.0000   1.0000   1.0000   1.0000   1.0000   1.0000
     1.0000   1.0000   1.0000   1.0000   1.0000

          k = 0.3636 0.5170 0.0000 ( 14455 PWs)   bands (ev):

   -76.9252 -48.2739 -48.2282 -48.1276 -21.5241 -21.5225 -17.9558 -17.6871
   -14.6652 -14.6280 -13.4060 -13.3960  -9.6512  -9.4021  -9.2985  -8.6981
    -8.6496  -8.2465  -7.8200  -7.1580  -4.9296

     occupation numbers 
     1.0000   1.0000   1.0000   1.0000   1.0000   1.0000   1.0000   1.0000
     1.0000   1.0000   1.0000   1.0000   1.0000   1.0000   1.0000   1.0000
     1.0000   1.0000   1.0000   1.0000   1.0000

          k = 0.3636 0.6204 0.0000 ( 14455 PWs)   bands (ev):

   -76.9252 -48.2740 -48.2282 -48.1276 -21.5241 -21.5225 -17.9558 -17.6870
   -14.6653 -14.6280 -13.4064 -13.3954  -9.6513  -9.4021  -9.2984  -8.6982
    -8.6495  -8.2466  -7.8200  -7.1580  -4.9296

     occupation numbers 
     1.0000   1.0000   1.0000   1.0000   1.0000   1.0000   1.0000   1.0000
     1.0000   1.0000   1.0000   1.0000   1.0000   1.0000   1.0000   1.0000
     1.0000   1.0000   1.0000   1.0000   1.0000

          k = 0.3636 0.7238 0.0000 ( 14456 PWs)   bands (ev):

   -76.9273 -48.2988 -48.1837 -48.1303 -21.7555 -21.7554 -18.0818 -17.7832
   -15.0369 -14.9998 -12.2269 -12.2139 -10.0912  -9.7261  -9.3589  -8.9250
    -8.4947  -8.0640  -7.1032  -6.9084  -5.1389

     occupation numbers 
     1.0000   1.0000   1.0000   1.0000   1.0000   1.0000   1.0000   1.0000
     1.0000   1.0000   1.0000   1.0000   1.0000   1.0000   1.0000   1.0000
     1.0000   1.0000   1.0000   1.0000   1.0000

          k = 0.3636-0.3102 0.0000 ( 14484 PWs)   bands (ev):

   -76.9309 -48.3016 -48.1482 -48.1348 -22.1351 -22.1330 -18.2858 -17.9243
   -14.9738 -14.9347 -11.0103 -10.9855 -10.5337 -10.1355  -9.4071  -8.8719
    -8.4477  -7.7821  -6.9795  -6.1376  -5.3698

     occupation numbers 
     1.0000   1.0000   1.0000   1.0000   1.0000   1.0000   1.0000   1.0000
     1.0000   1.0000   1.0000   1.0000   1.0000   1.0000   1.0000   1.0000
     1.0000   1.0000   1.0000   1.0000   1.0000

          k = 0.3636-0.2068 0.0000 ( 14479 PWs)   bands (ev):

   -76.9348 -48.2825 -48.1399 -48.1318 -22.5242 -22.5203 -18.5069 -18.0658
   -14.5016 -14.4598 -10.9548 -10.5248 -10.3165 -10.3146  -9.2592  -8.7397
    -8.3797  -7.5112  -6.8983  -5.7223  -5.6447

     occupation numbers 
     1.0000   1.0000   1.0000   1.0000   1.0000   1.0000   1.0000   1.0000
     1.0000   1.0000   1.0000   1.0000   1.0000   1.0000   1.0000   1.0000
     1.0000   1.0000   1.0000   1.0000   1.0000

          k = 0.3636-0.1034 0.0000 ( 14506 PWs)   bands (ev):

   -76.9378 -48.2516 -48.1438 -48.1358 -22.8036 -22.7984 -18.6770 -18.1712
   -13.8076 -13.7558 -11.2015 -10.7894 -10.5831 -10.5470  -8.9320  -8.6399
    -8.1646  -7.5530  -6.6194  -6.0430  -5.5292

     occupation numbers 
     1.0000   1.0000   1.0000   1.0000   1.0000   1.0000   1.0000   1.0000
     1.0000   1.0000   1.0000   1.0000   1.0000   1.0000   1.0000   1.0000
     1.0000   1.0000   1.0000   1.0000   1.0000

          k = 0.3636 0.0000 0.0000 ( 14493 PWs)   bands (ev):

   -76.9389 -48.2335 -48.1458 -48.1433 -22.9038 -22.8984 -18.7406 -18.2102
   -13.3888 -13.3222 -11.2490 -11.0053 -10.9871 -10.7813  -8.7916  -8.5414
    -7.9113  -7.7860  -6.4198  -6.2677  -5.4669

     occupation numbers 
     1.0000   1.0000   1.0000   1.0000   1.0000   1.0000   1.0000   1.0000
     1.0000   1.0000   1.0000   1.0000   1.0000   1.0000   1.0000   1.0000
     1.0000   1.0000   1.0000   1.0000   1.0000

          k = 0.3636 0.1034 0.0000 ( 14506 PWs)   bands (ev):

   -76.9378 -48.2516 -48.1438 -48.1358 -22.8035 -22.7985 -18.6770 -18.1713
   -13.8076 -13.7556 -11.2014 -10.7895 -10.5832 -10.5473  -8.9319  -8.6399
    -8.1649  -7.5525  -6.6192  -6.0432  -5.5292

     occupation numbers 
     1.0000   1.0000   1.0000   1.0000   1.0000   1.0000   1.0000   1.0000
     1.0000   1.0000   1.0000   1.0000   1.0000   1.0000   1.0000   1.0000
     1.0000   1.0000   1.0000   1.0000   1.0000

          k = 0.4545 0.2585 0.0000 ( 14447 PWs)   bands (ev):

   -76.9293 -48.3218 -48.1417 -48.1328 -21.9541 -21.9535 -18.2055 -17.8871
   -15.4389 -15.3972 -10.5072 -10.5063 -10.4563 -10.1029  -9.5787  -9.1075
    -8.4281  -7.7870  -7.0724  -5.7355  -5.5098

     occupation numbers 
     1.0000   1.0000   1.0000   1.0000   1.0000   1.0000   1.0000   1.0000
     1.0000   1.0000   1.0000   1.0000   1.0000   1.0000   1.0000   1.0000
     1.0000   1.0000   1.0000   1.0000   1.0000

          k = 0.4545 0.3619 0.0000 ( 14473 PWs)   bands (ev):

   -76.9280 -48.3204 -48.1552 -48.1311 -21.8123 -21.8121 -18.1315 -17.8357
   -15.4602 -15.4192 -11.1105 -11.0984 -10.2367  -9.9687  -9.4977  -9.1423
    -8.4169  -7.9358  -7.0788  -6.1387  -5.3462

     occupation numbers 
     1.0000   1.0000   1.0000   1.0000   1.0000   1.0000   1.0000   1.0000
     1.0000   1.0000   1.0000   1.0000   1.0000   1.0000   1.0000   1.0000
     1.0000   1.0000   1.0000   1.0000   1.0000

          k = 0.4545 0.4653 0.0000 ( 14430 PWs)   bands (ev):

   -76.9269 -48.2986 -48.1866 -48.1299 -21.7396 -21.7393 -18.0707 -17.7756
   -15.0526 -15.0157 -12.2196 -12.2073 -10.0802  -9.7191  -9.3672  -8.9470
    -8.4950  -8.0647  -7.0910  -6.8840  -5.1602

     occupation numbers 
     1.0000   1.0000   1.0000   1.0000   1.0000   1.0000   1.0000   1.0000
     1.0000   1.0000   1.0000   1.0000   1.0000   1.0000   1.0000   1.0000
     1.0000   1.0000   1.0000   1.0000   1.0000

          k = 0.4545 0.5687 0.0000 ( 14406 PWs)   bands (ev):

   -76.9265 -48.2786 -48.2103 -48.1294 -21.7213 -21.7211 -18.0473 -17.7487
   -14.6439 -14.6072 -12.9126 -12.8996 -10.0502  -9.6033  -9.1178  -8.8917
    -8.4891  -8.1574  -7.3897  -7.0549  -5.0604

     occupation numbers 
     1.0000   1.0000   1.0000   1.0000   1.0000   1.0000   1.0000   1.0000
     1.0000   1.0000   1.0000   1.0000   1.0000   1.0000   1.0000   1.0000
     1.0000   1.0000   1.0000   1.0000   1.0000

          k = 0.4545 0.6721 0.0000 ( 14430 PWs)   bands (ev):

   -76.9269 -48.2987 -48.1866 -48.1299 -21.7395 -21.7394 -18.0708 -17.7755
   -15.0527 -15.0158 -12.2198 -12.2068 -10.0803  -9.7189  -9.3672  -8.9472
    -8.4950  -8.0649  -7.0911  -6.8838  -5.1602

     occupation numbers 
     1.0000   1.0000   1.0000   1.0000   1.0000   1.0000   1.0000   1.0000
     1.0000   1.0000   1.0000   1.0000   1.0000   1.0000   1.0000   1.0000
     1.0000   1.0000   1.0000   1.0000   1.0000

          k = 0.4545 0.7755 0.0000 ( 14473 PWs)   bands (ev):

   -76.9280 -48.3204 -48.1552 -48.1311 -21.8122 -21.8121 -18.1317 -17.8355
   -15.4604 -15.4192 -11.1109 -11.0977 -10.2370  -9.9684  -9.4976  -9.1423
    -8.4170  -7.9360  -7.0791  -6.1385  -5.3461

     occupation numbers 
     1.0000   1.0000   1.0000   1.0000   1.0000   1.0000   1.0000   1.0000
     1.0000   1.0000   1.0000   1.0000   1.0000   1.0000   1.0000   1.0000
     1.0000   1.0000   1.0000   1.0000   1.0000

          k = 0.4545-0.2585 0.0000 ( 14447 PWs)   bands (ev):

   -76.9293 -48.3218 -48.1416 -48.1328 -21.9542 -21.9533 -18.2056 -17.8869
   -15.4390 -15.3973 -10.5079 -10.5052 -10.4566 -10.1027  -9.5786  -9.1076
    -8.4281  -7.7872  -7.0729  -5.7352  -5.5097

     occupation numbers 
     1.0000   1.0000   1.0000   1.0000   1.0000   1.0000   1.0000   1.0000
     1.0000   1.0000   1.0000   1.0000   1.0000   1.0000   1.0000   1.0000
     1.0000   1.0000   1.0000   1.0000   1.0000

          k = 0.4545-0.1551 0.0000 ( 14436 PWs)   bands (ev):

   -76.9305 -48.3022 -48.1503 -48.1344 -22.1202 -22.1182 -18.2749 -17.9169
   -14.9922 -14.9534 -10.9898 -10.9675 -10.5289 -10.1271  -9.4190  -8.8846
    -8.4506  -7.7947  -6.9589  -6.0868  -5.4163

     occupation numbers 
     1.0000   1.0000   1.0000   1.0000   1.0000   1.0000   1.0000   1.0000
     1.0000   1.0000   1.0000   1.0000   1.0000   1.0000   1.0000   1.0000
     1.0000   1.0000   1.0000   1.0000   1.0000

          k = 0.4545-0.0517 0.0000 ( 14468 PWs)   bands (ev):

   -76.9313 -48.2757 -48.1706 -48.1353 -22.2301 -22.2273 -18.3203 -17.9325
   -14.3795 -14.3398 -11.7899 -11.7764 -10.6186 -10.1780  -9.0262  -8.6777
    -8.4773  -7.9178  -6.8057  -6.6221  -5.3083

     occupation numbers 
     1.0000   1.0000   1.0000   1.0000   1.0000   1.0000   1.0000   1.0000
     1.0000   1.0000   1.0000   1.0000   1.0000   1.0000   1.0000   1.0000
     1.0000   1.0000   1.0000   1.0000   1.0000

          k = 0.4545 0.0517 0.0000 ( 14468 PWs)   bands (ev):

   -76.9313 -48.2757 -48.1706 -48.1353 -22.2300 -22.2274 -18.3203 -17.9326
   -14.3794 -14.3397 -11.7898 -11.7767 -10.6186 -10.1781  -9.0262  -8.6776
    -8.4773  -7.9176  -6.8056  -6.6223  -5.3083

     occupation numbers 
     1.0000   1.0000   1.0000   1.0000   1.0000   1.0000   1.0000   1.0000
     1.0000   1.0000   1.0000   1.0000   1.0000   1.0000   1.0000   1.0000
     1.0000   1.0000   1.0000   1.0000   1.0000

          k = 0.4545 0.1551 0.0000 ( 14436 PWs)   bands (ev):

   -76.9305 -48.3022 -48.1503 -48.1344 -22.1202 -22.1183 -18.2748 -17.9170
   -14.9921 -14.9533 -10.9896 -10.9681 -10.5287 -10.1274  -9.4190  -8.8845
    -8.4505  -7.7945  -6.9587  -6.0871  -5.4163

     occupation numbers 
     1.0000   1.0000   1.0000   1.0000   1.0000   1.0000   1.0000   1.0000
     1.0000   1.0000   1.0000   1.0000   1.0000   1.0000   1.0000   1.0000
     1.0000   1.0000   1.0000   1.0000   1.0000

          k =-0.4545-0.2585 0.0000 ( 14447 PWs)   bands (ev):

   -76.9293 -48.3218 -48.1417 -48.1328 -21.9541 -21.9535 -18.2055 -17.8871
   -15.4389 -15.3972 -10.5072 -10.5063 -10.4563 -10.1029  -9.5787  -9.1075
    -8.4281  -7.7870  -7.0724  -5.7355  -5.5098

     occupation numbers 
     1.0000   1.0000   1.0000   1.0000   1.0000   1.0000   1.0000   1.0000
     1.0000   1.0000   1.0000   1.0000   1.0000   1.0000   1.0000   1.0000
     1.0000   1.0000   1.0000   1.0000   1.0000

          k =-0.4545-0.1551 0.0000 ( 14436 PWs)   bands (ev):

   -76.9305 -48.3022 -48.1503 -48.1344 -22.1202 -22.1183 -18.2748 -17.9170
   -14.9921 -14.9533 -10.9896 -10.9681 -10.5287 -10.1274  -9.4190  -8.8845
    -8.4505  -7.7945  -6.9587  -6.0871  -5.4163

     occupation numbers 
     1.0000   1.0000   1.0000   1.0000   1.0000   1.0000   1.0000   1.0000
     1.0000   1.0000   1.0000   1.0000   1.0000   1.0000   1.0000   1.0000
     1.0000   1.0000   1.0000   1.0000   1.0000

          k =-0.4545-0.0517 0.0000 ( 14468 PWs)   bands (ev):

   -76.9313 -48.2757 -48.1706 -48.1353 -22.2300 -22.2274 -18.3203 -17.9326
   -14.3794 -14.3397 -11.7898 -11.7767 -10.6186 -10.1781  -9.0262  -8.6776
    -8.4773  -7.9176  -6.8056  -6.6223  -5.3083

     occupation numbers 
     1.0000   1.0000   1.0000   1.0000   1.0000   1.0000   1.0000   1.0000
     1.0000   1.0000   1.0000   1.0000   1.0000   1.0000   1.0000   1.0000
     1.0000   1.0000   1.0000   1.0000   1.0000

          k =-0.4545 0.0517 0.0000 ( 14468 PWs)   bands (ev):

   -76.9313 -48.2757 -48.1706 -48.1353 -22.2301 -22.2273 -18.3203 -17.9325
   -14.3795 -14.3398 -11.7899 -11.7764 -10.6186 -10.1780  -9.0262  -8.6777
    -8.4773  -7.9178  -6.8057  -6.6221  -5.3083

     occupation numbers 
     1.0000   1.0000   1.0000   1.0000   1.0000   1.0000   1.0000   1.0000
     1.0000   1.0000   1.0000   1.0000   1.0000   1.0000   1.0000   1.0000
     1.0000   1.0000   1.0000   1.0000   1.0000

          k =-0.4545 0.1551 0.0000 ( 14436 PWs)   bands (ev):

   -76.9305 -48.3022 -48.1503 -48.1344 -22.1202 -22.1182 -18.2749 -17.9169
   -14.9922 -14.9534 -10.9898 -10.9675 -10.5289 -10.1271  -9.4190  -8.8846
    -8.4506  -7.7947  -6.9589  -6.0868  -5.4163

     occupation numbers 
     1.0000   1.0000   1.0000   1.0000   1.0000   1.0000   1.0000   1.0000
     1.0000   1.0000   1.0000   1.0000   1.0000   1.0000   1.0000   1.0000
     1.0000   1.0000   1.0000   1.0000   1.0000

          k =-0.4545 0.2585 0.0000 ( 14447 PWs)   bands (ev):

   -76.9293 -48.3218 -48.1416 -48.1328 -21.9542 -21.9533 -18.2056 -17.8869
   -15.4390 -15.3973 -10.5079 -10.5052 -10.4566 -10.1027  -9.5786  -9.1076
    -8.4281  -7.7872  -7.0729  -5.7352  -5.5097

     occupation numbers 
     1.0000   1.0000   1.0000   1.0000   1.0000   1.0000   1.0000   1.0000
     1.0000   1.0000   1.0000   1.0000   1.0000   1.0000   1.0000   1.0000
     1.0000   1.0000   1.0000   1.0000   1.0000

          k =-0.4545-0.7755 0.0000 ( 14473 PWs)   bands (ev):

   -76.9280 -48.3204 -48.1552 -48.1311 -21.8122 -21.8121 -18.1317 -17.8355
   -15.4604 -15.4192 -11.1109 -11.0977 -10.2370  -9.9684  -9.4976  -9.1423
    -8.4170  -7.9360  -7.0791  -6.1385  -5.3461

     occupation numbers 
     1.0000   1.0000   1.0000   1.0000   1.0000   1.0000   1.0000   1.0000
     1.0000   1.0000   1.0000   1.0000   1.0000   1.0000   1.0000   1.0000
     1.0000   1.0000   1.0000   1.0000   1.0000

          k =-0.4545-0.6721 0.0000 ( 14430 PWs)   bands (ev):

   -76.9269 -48.2987 -48.1866 -48.1299 -21.7395 -21.7394 -18.0708 -17.7755
   -15.0527 -15.0158 -12.2198 -12.2068 -10.0803  -9.7189  -9.3672  -8.9472
    -8.4950  -8.0649  -7.0911  -6.8838  -5.1602

     occupation numbers 
     1.0000   1.0000   1.0000   1.0000   1.0000   1.0000   1.0000   1.0000
     1.0000   1.0000   1.0000   1.0000   1.0000   1.0000   1.0000   1.0000
     1.0000   1.0000   1.0000   1.0000   1.0000

          k =-0.4545-0.5687 0.0000 ( 14406 PWs)   bands (ev):

   -76.9265 -48.2786 -48.2103 -48.1294 -21.7213 -21.7211 -18.0473 -17.7487
   -14.6439 -14.6072 -12.9126 -12.8996 -10.0502  -9.6033  -9.1178  -8.8917
    -8.4891  -8.1574  -7.3897  -7.0549  -5.0604

     occupation numbers 
     1.0000   1.0000   1.0000   1.0000   1.0000   1.0000   1.0000   1.0000
     1.0000   1.0000   1.0000   1.0000   1.0000   1.0000   1.0000   1.0000
     1.0000   1.0000   1.0000   1.0000   1.0000

          k =-0.4545-0.4653 0.0000 ( 14430 PWs)   bands (ev):

   -76.9269 -48.2986 -48.1866 -48.1299 -21.7396 -21.7393 -18.0707 -17.7756
   -15.0526 -15.0157 -12.2196 -12.2073 -10.0802  -9.7191  -9.3672  -8.9470
    -8.4950  -8.0647  -7.0910  -6.8840  -5.1602

     occupation numbers 
     1.0000   1.0000   1.0000   1.0000   1.0000   1.0000   1.0000   1.0000
     1.0000   1.0000   1.0000   1.0000   1.0000   1.0000   1.0000   1.0000
     1.0000   1.0000   1.0000   1.0000   1.0000

          k =-0.4545-0.3619 0.0000 ( 14473 PWs)   bands (ev):

   -76.9280 -48.3204 -48.1552 -48.1311 -21.8123 -21.8121 -18.1315 -17.8357
   -15.4602 -15.4192 -11.1105 -11.0984 -10.2367  -9.9687  -9.4977  -9.1423
    -8.4169  -7.9358  -7.0788  -6.1387  -5.3462

     occupation numbers 
     1.0000   1.0000   1.0000   1.0000   1.0000   1.0000   1.0000   1.0000
     1.0000   1.0000   1.0000   1.0000   1.0000   1.0000   1.0000   1.0000
     1.0000   1.0000   1.0000   1.0000   1.0000

          k =-0.3636-0.2068 0.0000 ( 14479 PWs)   bands (ev):

   -76.9348 -48.2824 -48.1399 -48.1318 -22.5242 -22.5204 -18.5068 -18.0660
   -14.5015 -14.4597 -10.9547 -10.5249 -10.3159 -10.3156  -9.2591  -8.7397
    -8.3798  -7.5110  -6.8978  -5.7219  -5.6456

     occupation numbers 
     1.0000   1.0000   1.0000   1.0000   1.0000   1.0000   1.0000   1.0000
     1.0000   1.0000   1.0000   1.0000   1.0000   1.0000   1.0000   1.0000
     1.0000   1.0000   1.0000   1.0000   1.0000

          k =-0.3636-0.1034 0.0000 ( 14506 PWs)   bands (ev):

   -76.9378 -48.2516 -48.1438 -48.1358 -22.8035 -22.7985 -18.6770 -18.1713
   -13.8076 -13.7556 -11.2014 -10.7895 -10.5832 -10.5473  -8.9319  -8.6399
    -8.1649  -7.5525  -6.6192  -6.0432  -5.5292

     occupation numbers 
     1.0000   1.0000   1.0000   1.0000   1.0000   1.0000   1.0000   1.0000
     1.0000   1.0000   1.0000   1.0000   1.0000   1.0000   1.0000   1.0000
     1.0000   1.0000   1.0000   1.0000   1.0000

          k =-0.3636 0.0000 0.0000 ( 14493 PWs)   bands (ev):

   -76.9389 -48.2335 -48.1458 -48.1433 -22.9038 -22.8984 -18.7406 -18.2102
   -13.3888 -13.3222 -11.2490 -11.0053 -10.9871 -10.7813  -8.7916  -8.5414
    -7.9113  -7.7860  -6.4198  -6.2677  -5.4669

     occupation numbers 
     1.0000   1.0000   1.0000   1.0000   1.0000   1.0000   1.0000   1.0000
     1.0000   1.0000   1.0000   1.0000   1.0000   1.0000   1.0000   1.0000
     1.0000   1.0000   1.0000   1.0000   1.0000

          k =-0.3636 0.1034 0.0000 ( 14506 PWs)   bands (ev):

   -76.9378 -48.2516 -48.1438 -48.1358 -22.8036 -22.7984 -18.6770 -18.1712
   -13.8076 -13.7558 -11.2015 -10.7894 -10.5831 -10.5470  -8.9320  -8.6399
    -8.1646  -7.5530  -6.6194  -6.0430  -5.5292

     occupation numbers 
     1.0000   1.0000   1.0000   1.0000   1.0000   1.0000   1.0000   1.0000
     1.0000   1.0000   1.0000   1.0000   1.0000   1.0000   1.0000   1.0000
     1.0000   1.0000   1.0000   1.0000   1.0000

          k =-0.3636 0.2068 0.0000 ( 14479 PWs)   bands (ev):

   -76.9348 -48.2825 -48.1399 -48.1318 -22.5242 -22.5203 -18.5069 -18.0658
   -14.5016 -14.4598 -10.9548 -10.5248 -10.3165 -10.3146  -9.2592  -8.7397
    -8.3797  -7.5112  -6.8983  -5.7223  -5.6447

     occupation numbers 
     1.0000   1.0000   1.0000   1.0000   1.0000   1.0000   1.0000   1.0000
     1.0000   1.0000   1.0000   1.0000   1.0000   1.0000   1.0000   1.0000
     1.0000   1.0000   1.0000   1.0000   1.0000

          k =-0.3636 0.3102 0.0000 ( 14484 PWs)   bands (ev):

   -76.9309 -48.3016 -48.1482 -48.1348 -22.1351 -22.1330 -18.2858 -17.9243
   -14.9738 -14.9347 -11.0103 -10.9855 -10.5337 -10.1355  -9.4071  -8.8719
    -8.4477  -7.7821  -6.9795  -6.1376  -5.3698

     occupation numbers 
     1.0000   1.0000   1.0000   1.0000   1.0000   1.0000   1.0000   1.0000
     1.0000   1.0000   1.0000   1.0000   1.0000   1.0000   1.0000   1.0000
     1.0000   1.0000   1.0000   1.0000   1.0000

          k =-0.3636-0.7238 0.0000 ( 14456 PWs)   bands (ev):

   -76.9273 -48.2988 -48.1837 -48.1303 -21.7555 -21.7554 -18.0818 -17.7832
   -15.0369 -14.9998 -12.2269 -12.2139 -10.0912  -9.7261  -9.3589  -8.9250
    -8.4947  -8.0640  -7.1032  -6.9084  -5.1389

     occupation numbers 
     1.0000   1.0000   1.0000   1.0000   1.0000   1.0000   1.0000   1.0000
     1.0000   1.0000   1.0000   1.0000   1.0000   1.0000   1.0000   1.0000
     1.0000   1.0000   1.0000   1.0000   1.0000

          k =-0.3636-0.6204 0.0000 ( 14455 PWs)   bands (ev):

   -76.9252 -48.2740 -48.2282 -48.1276 -21.5241 -21.5225 -17.9558 -17.6870
   -14.6653 -14.6280 -13.4064 -13.3954  -9.6513  -9.4021  -9.2984  -8.6982
    -8.6495  -8.2466  -7.8200  -7.1580  -4.9296

     occupation numbers 
     1.0000   1.0000   1.0000   1.0000   1.0000   1.0000   1.0000   1.0000
     1.0000   1.0000   1.0000   1.0000   1.0000   1.0000   1.0000   1.0000
     1.0000   1.0000   1.0000   1.0000   1.0000

          k =-0.3636-0.5170 0.0000 ( 14455 PWs)   bands (ev):

   -76.9252 -48.2739 -48.2282 -48.1276 -21.5241 -21.5225 -17.9558 -17.6871
   -14.6652 -14.6280 -13.4060 -13.3960  -9.6512  -9.4021  -9.2985  -8.6981
    -8.6496  -8.2465  -7.8200  -7.1580  -4.9296

     occupation numbers 
     1.0000   1.0000   1.0000   1.0000   1.0000   1.0000   1.0000   1.0000
     1.0000   1.0000   1.0000   1.0000   1.0000   1.0000   1.0000   1.0000
     1.0000   1.0000   1.0000   1.0000   1.0000

          k =-0.3636-0.4136 0.0000 ( 14456 PWs)   bands (ev):

   -76.9273 -48.2988 -48.1838 -48.1303 -21.7556 -21.7553 -18.0817 -17.7834
   -15.0367 -14.9997 -12.2266 -12.2145 -10.0910  -9.7262  -9.3588  -8.9251
    -8.4946  -8.0638  -7.1031  -6.9085  -5.1390

     occupation numbers 
     1.0000   1.0000   1.0000   1.0000   1.0000   1.0000   1.0000   1.0000
     1.0000   1.0000   1.0000   1.0000   1.0000   1.0000   1.0000   1.0000
     1.0000   1.0000   1.0000   1.0000   1.0000

          k =-0.3636-0.3102 0.0000 ( 14484 PWs)   bands (ev):

   -76.9309 -48.3016 -48.1482 -48.1348 -22.1350 -22.1331 -18.2856 -17.9245
   -14.9736 -14.9346 -11.0100 -10.9861 -10.5336 -10.1357  -9.4072  -8.8719
    -8.4476  -7.7819  -6.9791  -6.1376  -5.3702

     occupation numbers 
     1.0000   1.0000   1.0000   1.0000   1.0000   1.0000   1.0000   1.0000
     1.0000   1.0000   1.0000   1.0000   1.0000   1.0000   1.0000   1.0000
     1.0000   1.0000   1.0000   1.0000   1.0000

          k =-0.2727-0.1551 0.0000 ( 14551 PWs)   bands (ev):

   -76.9441 -48.2161 -48.1515 -48.1154 -23.2639 -23.2573 -18.9966 -18.3851
   -13.0738 -12.9755 -11.5852 -11.1419  -9.9722  -9.9712  -8.9854  -8.3409
    -7.9914  -6.9883  -6.5787  -6.0012  -5.5298

     occupation numbers 
     1.0000   1.0000   1.0000   1.0000   1.0000   1.0000   1.0000   1.0000
     1.0000   1.0000   1.0000   1.0000   1.0000   1.0000   1.0000   1.0000
     1.0000   1.0000   1.0000   1.0000   1.0000

          k =-0.2727-0.0517 0.0000 ( 14554 PWs)   bands (ev):

   -76.9475 -48.1834 -48.1558 -48.1176 -23.5023 -23.4951 -19.1699 -18.5001
   -12.5682 -12.3180 -11.5999 -11.2781 -10.0823 -10.0684  -9.0331  -8.0166
    -7.8362  -6.9756  -6.2111  -6.1916  -5.4465

     occupation numbers 
     1.0000   1.0000   1.0000   1.0000   1.0000   1.0000   1.0000   1.0000
     1.0000   1.0000   1.0000   1.0000   1.0000   1.0000   1.0000   1.0000
     1.0000   1.0000   1.0000   1.0000   1.0000

          k =-0.2727 0.0517 0.0000 ( 14554 PWs)   bands (ev):

   -76.9475 -48.1834 -48.1558 -48.1176 -23.5024 -23.4950 -19.1699 -18.5001
   -12.5683 -12.3181 -11.5999 -11.2781 -10.0823 -10.0681  -9.0331  -8.0167
    -7.8359  -6.9759  -6.2113  -6.1916  -5.4464

     occupation numbers 
     1.0000   1.0000   1.0000   1.0000   1.0000   1.0000   1.0000   1.0000
     1.0000   1.0000   1.0000   1.0000   1.0000   1.0000   1.0000   1.0000
     1.0000   1.0000   1.0000   1.0000   1.0000

          k =-0.2727 0.1551 0.0000 ( 14551 PWs)   bands (ev):

   -76.9441 -48.2162 -48.1515 -48.1154 -23.2639 -23.2573 -18.9966 -18.3850
   -13.0739 -12.9756 -11.5853 -11.1418  -9.9721  -9.9708  -8.9856  -8.3410
    -7.9910  -6.9886  -6.5794  -6.0011  -5.5293

     occupation numbers 
     1.0000   1.0000   1.0000   1.0000   1.0000   1.0000   1.0000   1.0000
     1.0000   1.0000   1.0000   1.0000   1.0000   1.0000   1.0000   1.0000
     1.0000   1.0000   1.0000   1.0000   1.0000

          k =-0.2727 0.2585 0.0000 ( 14499 PWs)   bands (ev):

   -76.9385 -48.2530 -48.1443 -48.1299 -22.8225 -22.8173 -18.6937 -18.1836
   -13.7914 -13.7381 -11.2161 -10.8006 -10.6002 -10.5675  -8.9286  -8.6258
    -8.1555  -7.5247  -6.6504  -6.1069  -5.4643

     occupation numbers 
     1.0000   1.0000   1.0000   1.0000   1.0000   1.0000   1.0000   1.0000
     1.0000   1.0000   1.0000   1.0000   1.0000   1.0000   1.0000   1.0000
     1.0000   1.0000   1.0000   1.0000   1.0000

          k =-0.2727 0.3619 0.0000 ( 14446 PWs)   bands (ev):

   -76.9323 -48.2782 -48.1606 -48.1364 -22.2648 -22.2621 -18.3486 -17.9536
   -14.3603 -14.3194 -11.7908 -11.7773 -10.6427 -10.2038  -8.9955  -8.6649
    -8.4591  -7.9099  -6.8274  -6.6793  -5.2551

     occupation numbers 
     1.0000   1.0000   1.0000   1.0000   1.0000   1.0000   1.0000   1.0000
     1.0000   1.0000   1.0000   1.0000   1.0000   1.0000   1.0000   1.0000
     1.0000   1.0000   1.0000   1.0000   1.0000

          k =-0.2727-0.6721 0.0000 ( 14474 PWs)   bands (ev):

   -76.9276 -48.2861 -48.1955 -48.1305 -21.7591 -21.7589 -18.0766 -17.7715
   -14.6627 -14.6252 -12.8582 -12.8458 -10.0768  -9.6344  -9.0968  -8.8604
    -8.4839  -8.1666  -7.4202  -7.0514  -5.0314

     occupation numbers 
     1.0000   1.0000   1.0000   1.0000   1.0000   1.0000   1.0000   1.0000
     1.0000   1.0000   1.0000   1.0000   1.0000   1.0000   1.0000   1.0000
     1.0000   1.0000   1.0000   1.0000   1.0000

          k =-0.2727-0.5687 0.0000 ( 14432 PWs)   bands (ev):

   -76.9259 -48.2844 -48.2131 -48.1283 -21.5466 -21.5450 -17.9745 -17.7028
   -14.7302 -14.6930 -13.3125 -13.3023  -9.6698  -9.4150  -9.3013  -8.7013
    -8.6538  -8.2415  -7.8124  -7.1431  -4.9241

     occupation numbers 
     1.0000   1.0000   1.0000   1.0000   1.0000   1.0000   1.0000   1.0000
     1.0000   1.0000   1.0000   1.0000   1.0000   1.0000   1.0000   1.0000
     1.0000   1.0000   1.0000   1.0000   1.0000

          k =-0.2727-0.4653 0.0000 ( 14474 PWs)   bands (ev):

   -76.9276 -48.2860 -48.1955 -48.1305 -21.7592 -21.7589 -18.0766 -17.7716
   -14.6626 -14.6251 -12.8579 -12.8464 -10.0768  -9.6343  -9.0967  -8.8606
    -8.4839  -8.1665  -7.4202  -7.0513  -5.0315

     occupation numbers 
     1.0000   1.0000   1.0000   1.0000   1.0000   1.0000   1.0000   1.0000
     1.0000   1.0000   1.0000   1.0000   1.0000   1.0000   1.0000   1.0000
     1.0000   1.0000   1.0000   1.0000   1.0000

          k =-0.2727-0.3619 0.0000 ( 14446 PWs)   bands (ev):

   -76.9323 -48.2782 -48.1607 -48.1364 -22.2648 -22.2622 -18.3485 -17.9537
   -14.3602 -14.3193 -11.7905 -11.7780 -10.6427 -10.2040  -8.9953  -8.6649
    -8.4590  -7.9099  -6.8271  -6.6794  -5.2555

     occupation numbers 
     1.0000   1.0000   1.0000   1.0000   1.0000   1.0000   1.0000   1.0000
     1.0000   1.0000   1.0000   1.0000   1.0000   1.0000   1.0000   1.0000
     1.0000   1.0000   1.0000   1.0000   1.0000

          k =-0.2727-0.2585 0.0000 ( 14499 PWs)   bands (ev):

   -76.9385 -48.2529 -48.1443 -48.1300 -22.8224 -22.8174 -18.6936 -18.1837
   -13.7913 -13.7379 -11.2160 -10.8008 -10.6002 -10.5679  -8.9284  -8.6258
    -8.1557  -7.5244  -6.6499  -6.1069  -5.4649

     occupation numbers 
     1.0000   1.0000   1.0000   1.0000   1.0000   1.0000   1.0000   1.0000
     1.0000   1.0000   1.0000   1.0000   1.0000   1.0000   1.0000   1.0000
     1.0000   1.0000   1.0000   1.0000   1.0000

          k =-0.1818-0.1034 0.0000 ( 14557 PWs)   bands (ev):

   -76.9543 -48.1642 -48.1446 -48.0962 -23.8997 -23.8914 -19.4789 -18.7107
   -12.5725 -11.9467 -11.0486 -11.0301  -9.5536  -9.5513  -9.2669  -7.7708
    -7.5348  -6.3424  -6.2739  -6.1801  -5.3816

     occupation numbers 
     1.0000   1.0000   1.0000   1.0000   1.0000   1.0000   1.0000   1.0000
     1.0000   1.0000   1.0000   1.0000   1.0000   1.0000   1.0000   1.0000
     1.0000   1.0000   1.0000   1.0000   1.0000

          k =-0.1818 0.0000 0.0000 ( 14573 PWs)   bands (ev):

   -76.9565 -48.1671 -48.1184 -48.1017 -24.0316 -24.0230 -19.5839 -18.7819
   -12.6662 -11.9934 -10.5896 -10.5865  -9.5623  -9.5402  -9.3203  -7.7320
    -7.3068  -6.4584  -6.2613  -5.9191  -5.3718

     occupation numbers 
     1.0000   1.0000   1.0000   1.0000   1.0000   1.0000   1.0000   1.0000
     1.0000   1.0000   1.0000   1.0000   1.0000   1.0000   1.0000   1.0000
     1.0000   1.0000   1.0000   1.0000   1.0000

          k =-0.1818 0.1034 0.0000 ( 14557 PWs)   bands (ev):

   -76.9543 -48.1642 -48.1447 -48.0961 -23.8997 -23.8914 -19.4789 -18.7107
   -12.5725 -11.9467 -11.0488 -11.0302  -9.5523  -9.5521  -9.2670  -7.7705
    -7.5350  -6.3422  -6.2738  -6.1808  -5.3814

     occupation numbers 
     1.0000   1.0000   1.0000   1.0000   1.0000   1.0000   1.0000   1.0000
     1.0000   1.0000   1.0000   1.0000   1.0000   1.0000   1.0000   1.0000
     1.0000   1.0000   1.0000   1.0000   1.0000

          k =-0.1818 0.2068 0.0000 ( 14545 PWs)   bands (ev):

   -76.9482 -48.1916 -48.1565 -48.1043 -23.5185 -23.5111 -19.1857 -18.5124
   -12.5895 -12.3366 -11.6078 -11.2853 -10.0666 -10.0533  -9.0462  -8.0156
    -7.8298  -6.9595  -6.2259  -6.1868  -5.4291

     occupation numbers 
     1.0000   1.0000   1.0000   1.0000   1.0000   1.0000   1.0000   1.0000
     1.0000   1.0000   1.0000   1.0000   1.0000   1.0000   1.0000   1.0000
     1.0000   1.0000   1.0000   1.0000   1.0000

          k =-0.1818 0.3102 0.0000 ( 14487 PWs)   bands (ev):

   -76.9403 -48.2426 -48.1465 -48.1253 -22.9392 -22.9337 -18.7735 -18.2360
   -13.4224 -13.3538 -11.2761 -10.9567 -10.9345 -10.8018  -8.8142  -8.5226
    -7.8948  -7.7701  -6.4316  -6.2971  -5.4147

     occupation numbers 
     1.0000   1.0000   1.0000   1.0000   1.0000   1.0000   1.0000   1.0000
     1.0000   1.0000   1.0000   1.0000   1.0000   1.0000   1.0000   1.0000
     1.0000   1.0000   1.0000   1.0000   1.0000

          k =-0.1818 0.4136 0.0000 ( 14478 PWs)   bands (ev):

   -76.9330 -48.2854 -48.1484 -48.1372 -22.2821 -22.2795 -18.3659 -17.9691
   -14.4358 -14.3946 -11.6816 -11.6680 -10.6525 -10.2160  -9.0258  -8.6863
    -8.4536  -7.9221  -6.7924  -6.6354  -5.2657

     occupation numbers 
     1.0000   1.0000   1.0000   1.0000   1.0000   1.0000   1.0000   1.0000
     1.0000   1.0000   1.0000   1.0000   1.0000   1.0000   1.0000   1.0000
     1.0000   1.0000   1.0000   1.0000   1.0000

          k =-0.1818-0.6204 0.0000 ( 14479 PWs)   bands (ev):

   -76.9287 -48.3096 -48.1633 -48.1317 -21.7952 -21.7948 -18.1185 -17.8157
   -15.1308 -15.0922 -12.0690 -12.0565 -10.1115  -9.7516  -9.3848  -8.9580
    -8.4961  -8.0844  -7.0445  -6.8591  -5.1457

     occupation numbers 
     1.0000   1.0000   1.0000   1.0000   1.0000   1.0000   1.0000   1.0000
     1.0000   1.0000   1.0000   1.0000   1.0000   1.0000   1.0000   1.0000
     1.0000   1.0000   1.0000   1.0000   1.0000

          k =-0.1818-0.5170 0.0000 ( 14479 PWs)   bands (ev):

   -76.9287 -48.3096 -48.1633 -48.1317 -21.7952 -21.7948 -18.1185 -17.8158
   -15.1308 -15.0922 -12.0689 -12.0566 -10.1115  -9.7515  -9.3847  -8.9582
    -8.4961  -8.0843  -7.0444  -6.8591  -5.1458

     occupation numbers 
     1.0000   1.0000   1.0000   1.0000   1.0000   1.0000   1.0000   1.0000
     1.0000   1.0000   1.0000   1.0000   1.0000   1.0000   1.0000   1.0000
     1.0000   1.0000   1.0000   1.0000   1.0000

          k =-0.1818-0.4136 0.0000 ( 14478 PWs)   bands (ev):

   -76.9330 -48.2854 -48.1485 -48.1372 -22.2821 -22.2795 -18.3659 -17.9692
   -14.4357 -14.3945 -11.6815 -11.6684 -10.6525 -10.2160  -9.0257  -8.6863
    -8.4535  -7.9223  -6.7921  -6.6354  -5.2661

     occupation numbers 
     1.0000   1.0000   1.0000   1.0000   1.0000   1.0000   1.0000   1.0000
     1.0000   1.0000   1.0000   1.0000   1.0000   1.0000   1.0000   1.0000
     1.0000   1.0000   1.0000   1.0000   1.0000

          k =-0.1818-0.3102 0.0000 ( 14487 PWs)   bands (ev):

   -76.9403 -48.2426 -48.1465 -48.1253 -22.9392 -22.9338 -18.7735 -18.2361
   -13.4223 -13.3536 -11.2761 -10.9567 -10.9349 -10.8019  -8.8141  -8.5224
    -7.8952  -7.7697  -6.4312  -6.2971  -5.4153

     occupation numbers 
     1.0000   1.0000   1.0000   1.0000   1.0000   1.0000   1.0000   1.0000
     1.0000   1.0000   1.0000   1.0000   1.0000   1.0000   1.0000   1.0000
     1.0000   1.0000   1.0000   1.0000   1.0000

          k =-0.1818-0.2068 0.0000 ( 14545 PWs)   bands (ev):

   -76.9482 -48.1916 -48.1565 -48.1044 -23.5184 -23.5112 -19.1857 -18.5125
   -12.5894 -12.3365 -11.6077 -11.2853 -10.0668 -10.0536  -9.0462  -8.0154
    -7.8302  -6.9590  -6.2255  -6.1869  -5.4296

     occupation numbers 
     1.0000   1.0000   1.0000   1.0000   1.0000   1.0000   1.0000   1.0000
     1.0000   1.0000   1.0000   1.0000   1.0000   1.0000   1.0000   1.0000
     1.0000   1.0000   1.0000   1.0000   1.0000

          k =-0.0909-0.0517 0.0000 ( 14561 PWs)   bands (ev):

   -76.9620 -48.1739 -48.0981 -48.0729 -24.3127 -24.3035 -19.8162 -18.9411
   -12.9259 -12.1959  -9.7645  -9.6519  -9.4483  -9.1850  -9.1795  -7.7176
    -6.8915  -6.5922  -5.8280  -5.8022  -5.4340

     occupation numbers 
     1.0000   1.0000   1.0000   1.0000   1.0000   1.0000   1.0000   1.0000
     1.0000   1.0000   1.0000   1.0000   1.0000   1.0000   1.0000   1.0000
     1.0000   1.0000   1.0000   1.0000   1.0000

          k =-0.0909 0.0517 0.0000 ( 14561 PWs)   bands (ev):

   -76.9620 -48.1739 -48.0981 -48.0729 -24.3127 -24.3035 -19.8162 -18.9411
   -12.9259 -12.1958  -9.7646  -9.6522  -9.4484  -9.1838  -9.1801  -7.7175
    -6.8918  -6.5919  -5.8293  -5.8011  -5.4340

     occupation numbers 
     1.0000   1.0000   1.0000   1.0000   1.0000   1.0000   1.0000   1.0000
     1.0000   1.0000   1.0000   1.0000   1.0000   1.0000   1.0000   1.0000
     1.0000   1.0000   1.0000   1.0000   1.0000

          k =-0.0909 0.1551 0.0000 ( 14541 PWs)   bands (ev):

   -76.9571 -48.1677 -48.1388 -48.0774 -24.0420 -24.0334 -19.5947 -18.7905
   -12.6818 -12.0087 -10.6781 -10.6769  -9.4740  -9.4335  -9.3149  -7.7316
    -7.3673  -6.3766  -6.2580  -5.9195  -5.3784

     occupation numbers 
     1.0000   1.0000   1.0000   1.0000   1.0000   1.0000   1.0000   1.0000
     1.0000   1.0000   1.0000   1.0000   1.0000   1.0000   1.0000   1.0000
     1.0000   1.0000   1.0000   1.0000   1.0000

          k =-0.0909 0.2585 0.0000 ( 14530 PWs)   bands (ev):

   -76.9488 -48.2003 -48.1571 -48.0917 -23.5290 -23.5217 -19.1967 -18.5217
   -12.6484 -12.4156 -11.6505 -11.3067  -9.9471  -9.9326  -9.0545  -8.0532
    -7.8333  -6.9708  -6.1993  -6.1321  -5.4469

     occupation numbers 
     1.0000   1.0000   1.0000   1.0000   1.0000   1.0000   1.0000   1.0000
     1.0000   1.0000   1.0000   1.0000   1.0000   1.0000   1.0000   1.0000
     1.0000   1.0000   1.0000   1.0000   1.0000

          k =-0.0909 0.3619 0.0000 ( 14507 PWs)   bands (ev):

   -76.9398 -48.2649 -48.1456 -48.1090 -22.8498 -22.8448 -18.7216 -18.2080
   -13.9100 -13.8568 -11.2371 -10.8045 -10.4194 -10.4012  -8.9627  -8.6643
    -8.1609  -7.5515  -6.5851  -6.0286  -5.4893

     occupation numbers 
     1.0000   1.0000   1.0000   1.0000   1.0000   1.0000   1.0000   1.0000
     1.0000   1.0000   1.0000   1.0000   1.0000   1.0000   1.0000   1.0000
     1.0000   1.0000   1.0000   1.0000   1.0000

          k =-0.0909 0.4653 0.0000 ( 14482 PWs)   bands (ev):

   -76.9329 -48.3136 -48.1368 -48.1226 -22.1835 -22.1817 -18.3332 -17.9665
   -15.0870 -15.0459 -10.8347 -10.7849 -10.5295 -10.1606  -9.4540  -8.9068
    -8.4572  -7.8167  -6.8900  -6.0753  -5.3725

     occupation numbers 
     1.0000   1.0000   1.0000   1.0000   1.0000   1.0000   1.0000   1.0000
     1.0000   1.0000   1.0000   1.0000   1.0000   1.0000   1.0000   1.0000
     1.0000   1.0000   1.0000   1.0000   1.0000

          k =-0.0909-0.5687 0.0000 ( 14530 PWs)   bands (ev):

   -76.9303 -48.3316 -48.1336 -48.1276 -21.8778 -21.8774 -18.1921 -17.8887
   -15.5570 -15.5132 -10.9118 -10.8954 -10.2595 -10.0001  -9.5241  -9.1904
    -8.4341  -7.9684  -6.9901  -6.1039  -5.3233

     occupation numbers 
     1.0000   1.0000   1.0000   1.0000   1.0000   1.0000   1.0000   1.0000
     1.0000   1.0000   1.0000   1.0000   1.0000   1.0000   1.0000   1.0000
     1.0000   1.0000   1.0000   1.0000   1.0000

          k =-0.0909-0.4653 0.0000 ( 14482 PWs)   bands (ev):

   -76.9329 -48.3136 -48.1368 -48.1226 -22.1835 -22.1817 -18.3331 -17.9665
   -15.0870 -15.0459 -10.8346 -10.7850 -10.5295 -10.1606  -9.4539  -8.9068
    -8.4573  -7.8167  -6.8899  -6.0750  -5.3729

     occupation numbers 
     1.0000   1.0000   1.0000   1.0000   1.0000   1.0000   1.0000   1.0000
     1.0000   1.0000   1.0000   1.0000   1.0000   1.0000   1.0000   1.0000
     1.0000   1.0000   1.0000   1.0000   1.0000

          k =-0.0909-0.3619 0.0000 ( 14507 PWs)   bands (ev):

   -76.9398 -48.2649 -48.1456 -48.1090 -22.8498 -22.8449 -18.7215 -18.2080
   -13.9099 -13.8568 -11.2371 -10.8045 -10.4195 -10.4013  -8.9626  -8.6643
    -8.1609  -7.5517  -6.5849  -6.0282  -5.4900

     occupation numbers 
     1.0000   1.0000   1.0000   1.0000   1.0000   1.0000   1.0000   1.0000
     1.0000   1.0000   1.0000   1.0000   1.0000   1.0000   1.0000   1.0000
     1.0000   1.0000   1.0000   1.0000   1.0000

          k =-0.0909-0.2585 0.0000 ( 14530 PWs)   bands (ev):

   -76.9488 -48.2003 -48.1571 -48.0917 -23.5290 -23.5217 -19.1967 -18.5218
   -12.6484 -12.4155 -11.6505 -11.3067  -9.9472  -9.9327  -9.0545  -8.0530
    -7.8335  -6.9705  -6.1991  -6.1321  -5.4473

     occupation numbers 
     1.0000   1.0000   1.0000   1.0000   1.0000   1.0000   1.0000   1.0000
     1.0000   1.0000   1.0000   1.0000   1.0000   1.0000   1.0000   1.0000
     1.0000   1.0000   1.0000   1.0000   1.0000

          k =-0.0909-0.1551 0.0000 ( 14541 PWs)   bands (ev):

   -76.9571 -48.1677 -48.1388 -48.0775 -24.0420 -24.0334 -19.5947 -18.7905
   -12.6818 -12.0088 -10.6777 -10.6769  -9.4742  -9.4337  -9.3149  -7.7318
    -7.3670  -6.3768  -6.2575  -5.9196  -5.3785

     occupation numbers 
     1.0000   1.0000   1.0000   1.0000   1.0000   1.0000   1.0000   1.0000
     1.0000   1.0000   1.0000   1.0000   1.0000   1.0000   1.0000   1.0000
     1.0000   1.0000   1.0000   1.0000   1.0000

     highest occupied level (ev):    -4.9241

!    total energy              =    -263.08869988 Ry
     estimated scf accuracy    <          3.2E-11 Ry

     The total energy is the sum of the following terms:
     one-electron contribution =   -5846.76049109 Ry
     hartree contribution      =    2920.65610310 Ry
     xc contribution           =     -43.92902451 Ry
     ewald contribution        =    2706.94471263 Ry

     convergence has been achieved in  38 iterations

     Forces acting on atoms (cartesian axes, Ry/au):

     atom    1 type  1   force =     0.00005094    0.00032543   -0.00034424
     atom    2 type  2   force =    -0.00006408   -0.00066991    0.02471140
     atom    3 type  2   force =    -0.00005844    0.00054391   -0.02987976
     atom    4 type  2   force =    -0.00000184    0.00209823   -0.07733482
     atom    5 type  2   force =     0.00012794   -0.00250760    0.08183391
     atom    6 type  3   force =    -0.00000563    0.00332215    0.07384444
     atom    7 type  3   force =    -0.00004890   -0.00311220   -0.07283093
     The non-local contrib.  to forces
     atom    1 type  1   force =    -0.00005873   -0.00370207   -0.00495082
     atom    2 type  2   force =    -0.00026880   -0.00940184   -0.10841298
     atom    3 type  2   force =    -0.00028059   -0.00246969    0.08272523
     atom    4 type  2   force =    -0.00041201    0.01272147   -1.14201424
     atom    5 type  2   force =    -0.00018830   -0.01267453    1.13471850
     atom    6 type  3   force =    -0.00036351   -0.01366215    0.22913877
     atom    7 type  3   force =    -0.00047454    0.01610250   -0.23850653
     The ionic contribution  to forces
     atom    1 type  1   force =    -0.00143675   -0.20684790    0.00550755
     atom    2 type  2   force =     0.00063478    0.10399412  -45.50066387
     atom    3 type  2   force =     0.00065479    0.10097323   45.50943858
     atom    4 type  2   force =     0.00076586   -0.04485582   90.76619014
     atom    5 type  2   force =     0.00059093    0.04212237  -90.77202071
     atom    6 type  3   force =    -0.00051292   -0.04134979  -60.93526161
     atom    7 type  3   force =    -0.00069669    0.04596379   60.92680993
     The local contribution  to forces
     atom    1 type  1   force =     0.00139238    0.21094933   -0.00088802
     atom    2 type  2   force =    -0.00058414   -0.09518827   45.63381587
     atom    3 type  2   force =    -0.00058668   -0.09788572  -45.62203417
     atom    4 type  2   force =    -0.00050976    0.03430654  -89.70149296
     atom    5 type  2   force =    -0.00042875   -0.03188149   89.71915985
     atom    6 type  3   force =     0.00071673    0.05840804   60.77999137
     atom    7 type  3   force =     0.00096826   -0.06510454  -60.76111776
     The core correction contribution to forces
     atom    1 type  1   force =     0.00000000    0.00000000    0.00000000
     atom    2 type  2   force =     0.00000000    0.00000000    0.00000000
     atom    3 type  2   force =     0.00000000    0.00000000    0.00000000
     atom    4 type  2   force =     0.00000000    0.00000000    0.00000000
     atom    5 type  2   force =     0.00000000    0.00000000    0.00000000
     atom    6 type  3   force =     0.00000000    0.00000000    0.00000000
     atom    7 type  3   force =     0.00000000    0.00000000    0.00000000
     The Hubbard contrib.    to forces
     atom    1 type  1   force =     0.00000000    0.00000000    0.00000000
     atom    2 type  2   force =     0.00000000    0.00000000    0.00000000
     atom    3 type  2   force =     0.00000000    0.00000000    0.00000000
     atom    4 type  2   force =     0.00000000    0.00000000    0.00000000
     atom    5 type  2   force =     0.00000000    0.00000000    0.00000000
     atom    6 type  3   force =     0.00000000    0.00000000    0.00000000
     atom    7 type  3   force =     0.00000000    0.00000000    0.00000000
     The SCF correction term to forces
     atom    1 type  1   force =    -0.00000003    0.00000002    0.00000892
     atom    2 type  2   force =     0.00000001    0.00000003   -0.00000574
     atom    3 type  2   force =    -0.00000002    0.00000004    0.00001248
     atom    4 type  2   force =    -0.00000000   -0.00000000    0.00000412
     atom    5 type  2   force =    -0.00000000    0.00000000   -0.00000185
     atom    6 type  3   force =     0.00000000    0.00000000   -0.00000220
     atom    7 type  3   force =     0.00000000   -0.00000000    0.00000532

     Total force =     0.158021     Total SCF correction =     0.000018
     Energy error            =      3.0E-02 Ry
     Gradient error          =      8.2E-02 Ry/Bohr

     number of scf cycles    =   3
     number of bfgs steps    =   2

     energy             old  =    -263.0584562277 Ry
     energy             new  =    -263.0886998802 Ry

     CASE: energy            _new < energy            _old

     new trust radius        =       0.1461742876 bohr
     new conv_thr            =            8.2E-11 Ry


ATOMIC_POSITIONS (angstrom)
Cr               2.2012584786        0.3558967108       11.0292155364
N                0.8002025301        1.1699160922        9.6847791865
N                0.8002045202        1.1718889901       12.3615041459
N                2.2007836993        0.3448950928       15.1543210689
N               -0.6002937141        2.0010513556        6.9329848269
Si               0.8005646706        1.1669302346        7.6182761641
Si               0.8005373709        1.1781869674       14.4750657343



     Writing config-only to output data dir ./tmp/crsi2n4.save/ :
     XML data file
     NEW-OLD atomic charge density approx. for the potential

     negative rho (up, down):  6.341E-05 0.000E+00

     total cpu time spent up to now is     1691.1 secs

     Self-consistent Calculation
[tb_dev] Currently allocated     0.00E+00 Mbytes, locked:    0 /   0
[tb_pin] Currently allocated     0.00E+00 Mbytes, locked:    0 /   0

     iteration #  1     ecut=    80.00 Ry     beta= 0.40
     Davidson diagonalization with overlap

---- Real-time Memory Report at c_bands before calling an iterative solver
          1391 MiB given to the printing process from OS
             0 MiB allocation reported by mallinfo(arena+hblkhd)
         15854 MiB available memory on the node where the printing process lives
     GPU memory used/free/total (MiB): 1213 / 10700 / 11914
------------------
     ethr =  1.00E-06,  avg # of iterations = 12.5

     negative rho (up, down):  1.731E-05 0.000E+00

     total cpu time spent up to now is     1732.0 secs

     total energy              =    -263.13294018 Ry
     estimated scf accuracy    <       0.00627266 Ry
[tb_dev] Currently allocated     2.67E-05 Mbytes, locked:    0 /   1
[tb_pin] Currently allocated     0.00E+00 Mbytes, locked:    0 /   0

     iteration #  2     ecut=    80.00 Ry     beta= 0.40
     Davidson diagonalization with overlap

---- Real-time Memory Report at c_bands before calling an iterative solver
          1392 MiB given to the printing process from OS
             0 MiB allocation reported by mallinfo(arena+hblkhd)
         15894 MiB available memory on the node where the printing process lives
     GPU memory used/free/total (MiB): 1213 / 10700 / 11914
------------------
     ethr =  1.49E-05,  avg # of iterations =  4.2

     negative rho (up, down):  8.813E-06 0.000E+00

     total cpu time spent up to now is     1747.2 secs

     total energy              =    -263.13254558 Ry
     estimated scf accuracy    <       0.00426300 Ry
[tb_dev] Currently allocated     2.67E-05 Mbytes, locked:    0 /   1
[tb_pin] Currently allocated     0.00E+00 Mbytes, locked:    0 /   0

     iteration #  3     ecut=    80.00 Ry     beta= 0.40
     Davidson diagonalization with overlap

---- Real-time Memory Report at c_bands before calling an iterative solver
          1392 MiB given to the printing process from OS
             0 MiB allocation reported by mallinfo(arena+hblkhd)
         15891 MiB available memory on the node where the printing process lives
     GPU memory used/free/total (MiB): 1213 / 10700 / 11914
------------------
     ethr =  1.01E-05,  avg # of iterations =  5.6

     negative rho (up, down):  1.971E-06 0.000E+00

     total cpu time spent up to now is     1762.6 secs

     total energy              =    -263.13256373 Ry
     estimated scf accuracy    <       0.00754340 Ry
[tb_dev] Currently allocated     2.67E-05 Mbytes, locked:    0 /   1
[tb_pin] Currently allocated     0.00E+00 Mbytes, locked:    0 /   0

     iteration #  4     ecut=    80.00 Ry     beta= 0.40
     Davidson diagonalization with overlap

---- Real-time Memory Report at c_bands before calling an iterative solver
          1392 MiB given to the printing process from OS
             0 MiB allocation reported by mallinfo(arena+hblkhd)
         15904 MiB available memory on the node where the printing process lives
     GPU memory used/free/total (MiB): 1213 / 10700 / 11914
------------------
     ethr =  1.01E-05,  avg # of iterations =  6.0

     negative rho (up, down):  8.968E-07 0.000E+00

     total cpu time spent up to now is     1778.4 secs

     total energy              =    -263.13325518 Ry
     estimated scf accuracy    <       0.00299592 Ry
[tb_dev] Currently allocated     2.67E-05 Mbytes, locked:    0 /   1
[tb_pin] Currently allocated     0.00E+00 Mbytes, locked:    0 /   0

     iteration #  5     ecut=    80.00 Ry     beta= 0.40
     Davidson diagonalization with overlap

---- Real-time Memory Report at c_bands before calling an iterative solver
          1392 MiB given to the printing process from OS
             0 MiB allocation reported by mallinfo(arena+hblkhd)
         15905 MiB available memory on the node where the printing process lives
     GPU memory used/free/total (MiB): 1213 / 10700 / 11914
------------------
     ethr =  7.13E-06,  avg # of iterations =  4.8

     negative rho (up, down):  1.453E-07 0.000E+00

     total cpu time spent up to now is     1794.4 secs

     total energy              =    -263.13360749 Ry
     estimated scf accuracy    <       0.00013750 Ry
[tb_dev] Currently allocated     2.67E-05 Mbytes, locked:    0 /   1
[tb_pin] Currently allocated     0.00E+00 Mbytes, locked:    0 /   0

     iteration #  6     ecut=    80.00 Ry     beta= 0.40
     Davidson diagonalization with overlap

---- Real-time Memory Report at c_bands before calling an iterative solver
          1392 MiB given to the printing process from OS
             0 MiB allocation reported by mallinfo(arena+hblkhd)
         15901 MiB available memory on the node where the printing process lives
     GPU memory used/free/total (MiB): 1213 / 10700 / 11914
------------------
     ethr =  3.27E-07,  avg # of iterations =  8.3

     negative rho (up, down):  5.738E-08 0.000E+00

     total cpu time spent up to now is     1815.3 secs

     total energy              =    -263.13367256 Ry
     estimated scf accuracy    <       0.00034582 Ry
[tb_dev] Currently allocated     2.67E-05 Mbytes, locked:    0 /   1
[tb_pin] Currently allocated     0.00E+00 Mbytes, locked:    0 /   0

     iteration #  7     ecut=    80.00 Ry     beta= 0.40
     Davidson diagonalization with overlap

---- Real-time Memory Report at c_bands before calling an iterative solver
          1392 MiB given to the printing process from OS
             0 MiB allocation reported by mallinfo(arena+hblkhd)
         15898 MiB available memory on the node where the printing process lives
     GPU memory used/free/total (MiB): 1213 / 10700 / 11914
------------------
     ethr =  3.27E-07,  avg # of iterations =  3.5

     negative rho (up, down):  1.997E-07 0.000E+00

     total cpu time spent up to now is     1828.2 secs

     total energy              =    -263.13364151 Ry
     estimated scf accuracy    <       0.00012814 Ry
[tb_dev] Currently allocated     2.67E-05 Mbytes, locked:    0 /   1
[tb_pin] Currently allocated     0.00E+00 Mbytes, locked:    0 /   0

     iteration #  8     ecut=    80.00 Ry     beta= 0.40
     Davidson diagonalization with overlap

---- Real-time Memory Report at c_bands before calling an iterative solver
          1392 MiB given to the printing process from OS
             0 MiB allocation reported by mallinfo(arena+hblkhd)
         15896 MiB available memory on the node where the printing process lives
     GPU memory used/free/total (MiB): 1213 / 10700 / 11914
------------------
     ethr =  3.05E-07,  avg # of iterations =  7.3

     negative rho (up, down):  1.080E-07 0.000E+00

     total cpu time spent up to now is     1847.1 secs

     total energy              =    -263.13368889 Ry
     estimated scf accuracy    <       0.00032457 Ry
[tb_dev] Currently allocated     2.67E-05 Mbytes, locked:    0 /   1
[tb_pin] Currently allocated     0.00E+00 Mbytes, locked:    0 /   0

     iteration #  9     ecut=    80.00 Ry     beta= 0.40
     Davidson diagonalization with overlap

---- Real-time Memory Report at c_bands before calling an iterative solver
          1392 MiB given to the printing process from OS
             0 MiB allocation reported by mallinfo(arena+hblkhd)
         15882 MiB available memory on the node where the printing process lives
     GPU memory used/free/total (MiB): 1213 / 10700 / 11914
------------------
     ethr =  3.05E-07,  avg # of iterations =  1.9

     negative rho (up, down):  4.843E-08 0.000E+00

     total cpu time spent up to now is     1857.4 secs

     total energy              =    -263.13367597 Ry
     estimated scf accuracy    <       0.00019592 Ry
[tb_dev] Currently allocated     2.67E-05 Mbytes, locked:    0 /   1
[tb_pin] Currently allocated     0.00E+00 Mbytes, locked:    0 /   0

     iteration # 10     ecut=    80.00 Ry     beta= 0.40
     Davidson diagonalization with overlap

---- Real-time Memory Report at c_bands before calling an iterative solver
          1397 MiB given to the printing process from OS
             0 MiB allocation reported by mallinfo(arena+hblkhd)
         15875 MiB available memory on the node where the printing process lives
     GPU memory used/free/total (MiB): 1213 / 10700 / 11914
------------------
     ethr =  3.05E-07,  avg # of iterations =  2.7

     negative rho (up, down):  2.317E-08 0.000E+00

     total cpu time spent up to now is     1868.6 secs

     total energy              =    -263.13367544 Ry
     estimated scf accuracy    <       0.00006700 Ry
[tb_dev] Currently allocated     2.67E-05 Mbytes, locked:    0 /   1
[tb_pin] Currently allocated     0.00E+00 Mbytes, locked:    0 /   0

     iteration # 11     ecut=    80.00 Ry     beta= 0.40
     Davidson diagonalization with overlap

---- Real-time Memory Report at c_bands before calling an iterative solver
          1397 MiB given to the printing process from OS
             0 MiB allocation reported by mallinfo(arena+hblkhd)
         15878 MiB available memory on the node where the printing process lives
     GPU memory used/free/total (MiB): 1213 / 10700 / 11914
------------------
     ethr =  1.60E-07,  avg # of iterations =  5.3

     negative rho (up, down):  1.001E-08 0.000E+00

     total cpu time spent up to now is     1883.8 secs

     total energy              =    -263.13368726 Ry
     estimated scf accuracy    <       0.00000226 Ry
[tb_dev] Currently allocated     2.67E-05 Mbytes, locked:    0 /   1
[tb_pin] Currently allocated     0.00E+00 Mbytes, locked:    0 /   0

     iteration # 12     ecut=    80.00 Ry     beta= 0.40
     Davidson diagonalization with overlap

---- Real-time Memory Report at c_bands before calling an iterative solver
          1397 MiB given to the printing process from OS
             0 MiB allocation reported by mallinfo(arena+hblkhd)
         15889 MiB available memory on the node where the printing process lives
     GPU memory used/free/total (MiB): 1213 / 10700 / 11914
------------------
     ethr =  5.37E-09,  avg # of iterations =  8.4

     total cpu time spent up to now is     1905.5 secs

     total energy              =    -263.13368951 Ry
     estimated scf accuracy    <       0.00000961 Ry
[tb_dev] Currently allocated     2.67E-05 Mbytes, locked:    0 /   1
[tb_pin] Currently allocated     0.00E+00 Mbytes, locked:    0 /   0

     iteration # 13     ecut=    80.00 Ry     beta= 0.40
     Davidson diagonalization with overlap

---- Real-time Memory Report at c_bands before calling an iterative solver
          1397 MiB given to the printing process from OS
             0 MiB allocation reported by mallinfo(arena+hblkhd)
         15892 MiB available memory on the node where the printing process lives
     GPU memory used/free/total (MiB): 1213 / 10700 / 11914
------------------
     ethr =  5.37E-09,  avg # of iterations =  1.1

     total cpu time spent up to now is     1914.2 secs

     total energy              =    -263.13368839 Ry
     estimated scf accuracy    <       0.00000946 Ry
[tb_dev] Currently allocated     2.67E-05 Mbytes, locked:    0 /   1
[tb_pin] Currently allocated     0.00E+00 Mbytes, locked:    0 /   0

     iteration # 14     ecut=    80.00 Ry     beta= 0.40
     Davidson diagonalization with overlap

---- Real-time Memory Report at c_bands before calling an iterative solver
          1398 MiB given to the printing process from OS
             0 MiB allocation reported by mallinfo(arena+hblkhd)
         15887 MiB available memory on the node where the printing process lives
     GPU memory used/free/total (MiB): 1213 / 10700 / 11914
------------------
     ethr =  5.37E-09,  avg # of iterations =  5.8

     total cpu time spent up to now is     1930.2 secs

     total energy              =    -263.13368841 Ry
     estimated scf accuracy    <       0.00000452 Ry
[tb_dev] Currently allocated     2.67E-05 Mbytes, locked:    0 /   1
[tb_pin] Currently allocated     0.00E+00 Mbytes, locked:    0 /   0

     iteration # 15     ecut=    80.00 Ry     beta= 0.40
     Davidson diagonalization with overlap

---- Real-time Memory Report at c_bands before calling an iterative solver
          1398 MiB given to the printing process from OS
             0 MiB allocation reported by mallinfo(arena+hblkhd)
         15897 MiB available memory on the node where the printing process lives
     GPU memory used/free/total (MiB): 1213 / 10700 / 11914
------------------
     ethr =  5.37E-09,  avg # of iterations =  5.2

     total cpu time spent up to now is     1946.6 secs

     total energy              =    -263.13368856 Ry
     estimated scf accuracy    <       0.00000094 Ry
[tb_dev] Currently allocated     2.67E-05 Mbytes, locked:    0 /   1
[tb_pin] Currently allocated     0.00E+00 Mbytes, locked:    0 /   0

     iteration # 16     ecut=    80.00 Ry     beta= 0.40
     Davidson diagonalization with overlap

---- Real-time Memory Report at c_bands before calling an iterative solver
          1398 MiB given to the printing process from OS
             0 MiB allocation reported by mallinfo(arena+hblkhd)
         15895 MiB available memory on the node where the printing process lives
     GPU memory used/free/total (MiB): 1213 / 10700 / 11914
------------------
     ethr =  2.24E-09,  avg # of iterations =  5.5

     total cpu time spent up to now is     1961.6 secs

     total energy              =    -263.13368872 Ry
     estimated scf accuracy    <       0.00000004 Ry
[tb_dev] Currently allocated     2.67E-05 Mbytes, locked:    0 /   1
[tb_pin] Currently allocated     0.00E+00 Mbytes, locked:    0 /   0

     iteration # 17     ecut=    80.00 Ry     beta= 0.40
     Davidson diagonalization with overlap

---- Real-time Memory Report at c_bands before calling an iterative solver
          1399 MiB given to the printing process from OS
             0 MiB allocation reported by mallinfo(arena+hblkhd)
         15895 MiB available memory on the node where the printing process lives
     GPU memory used/free/total (MiB): 1213 / 10700 / 11914
------------------
     ethr =  9.75E-11,  avg # of iterations =  7.4

     total cpu time spent up to now is     1981.8 secs

     total energy              =    -263.13368875 Ry
     estimated scf accuracy    <       0.00000011 Ry
[tb_dev] Currently allocated     2.67E-05 Mbytes, locked:    0 /   1
[tb_pin] Currently allocated     0.00E+00 Mbytes, locked:    0 /   0

     iteration # 18     ecut=    80.00 Ry     beta= 0.40
     Davidson diagonalization with overlap

---- Real-time Memory Report at c_bands before calling an iterative solver
          1399 MiB given to the printing process from OS
             0 MiB allocation reported by mallinfo(arena+hblkhd)
         15891 MiB available memory on the node where the printing process lives
     GPU memory used/free/total (MiB): 1213 / 10700 / 11914
------------------
     ethr =  9.75E-11,  avg # of iterations =  5.8

     total cpu time spent up to now is     1998.3 secs

     total energy              =    -263.13368875 Ry
     estimated scf accuracy    <       0.00000018 Ry
[tb_dev] Currently allocated     2.67E-05 Mbytes, locked:    0 /   1
[tb_pin] Currently allocated     0.00E+00 Mbytes, locked:    0 /   0

     iteration # 19     ecut=    80.00 Ry     beta= 0.40
     Davidson diagonalization with overlap

---- Real-time Memory Report at c_bands before calling an iterative solver
          1399 MiB given to the printing process from OS
             0 MiB allocation reported by mallinfo(arena+hblkhd)
         15895 MiB available memory on the node where the printing process lives
     GPU memory used/free/total (MiB): 1213 / 10700 / 11914
------------------
     ethr =  9.75E-11,  avg # of iterations =  5.7

     total cpu time spent up to now is     2013.8 secs

     total energy              =    -263.13368873 Ry
     estimated scf accuracy    <       0.00000016 Ry
[tb_dev] Currently allocated     2.67E-05 Mbytes, locked:    0 /   1
[tb_pin] Currently allocated     0.00E+00 Mbytes, locked:    0 /   0

     iteration # 20     ecut=    80.00 Ry     beta= 0.40
     Davidson diagonalization with overlap

---- Real-time Memory Report at c_bands before calling an iterative solver
          1400 MiB given to the printing process from OS
             0 MiB allocation reported by mallinfo(arena+hblkhd)
         15890 MiB available memory on the node where the printing process lives
     GPU memory used/free/total (MiB): 1213 / 10700 / 11914
------------------
     ethr =  9.75E-11,  avg # of iterations =  6.0

     total cpu time spent up to now is     2029.8 secs

     total energy              =    -263.13368874 Ry
     estimated scf accuracy    <       0.00000004 Ry
[tb_dev] Currently allocated     2.67E-05 Mbytes, locked:    0 /   1
[tb_pin] Currently allocated     0.00E+00 Mbytes, locked:    0 /   0

     iteration # 21     ecut=    80.00 Ry     beta= 0.40
     Davidson diagonalization with overlap

---- Real-time Memory Report at c_bands before calling an iterative solver
          1400 MiB given to the printing process from OS
             0 MiB allocation reported by mallinfo(arena+hblkhd)
         15889 MiB available memory on the node where the printing process lives
     GPU memory used/free/total (MiB): 1213 / 10700 / 11914
------------------
     ethr =  9.75E-11,  avg # of iterations =  1.5

     total cpu time spent up to now is     2039.4 secs

     total energy              =    -263.13368874 Ry
     estimated scf accuracy    <       0.00000002 Ry
[tb_dev] Currently allocated     2.67E-05 Mbytes, locked:    0 /   1
[tb_pin] Currently allocated     0.00E+00 Mbytes, locked:    0 /   0

     iteration # 22     ecut=    80.00 Ry     beta= 0.40
     Davidson diagonalization with overlap

---- Real-time Memory Report at c_bands before calling an iterative solver
          1400 MiB given to the printing process from OS
             0 MiB allocation reported by mallinfo(arena+hblkhd)
         15889 MiB available memory on the node where the printing process lives
     GPU memory used/free/total (MiB): 1213 / 10700 / 11914
------------------
     ethr =  4.66E-11,  avg # of iterations =  2.8

     total cpu time spent up to now is     2051.5 secs

     total energy              =    -263.13368874 Ry
     estimated scf accuracy    <          7.9E-09 Ry
[tb_dev] Currently allocated     2.67E-05 Mbytes, locked:    0 /   1
[tb_pin] Currently allocated     0.00E+00 Mbytes, locked:    0 /   0

     iteration # 23     ecut=    80.00 Ry     beta= 0.40
     Davidson diagonalization with overlap

---- Real-time Memory Report at c_bands before calling an iterative solver
          1400 MiB given to the printing process from OS
             0 MiB allocation reported by mallinfo(arena+hblkhd)
         15890 MiB available memory on the node where the printing process lives
     GPU memory used/free/total (MiB): 1213 / 10700 / 11914
------------------
     ethr =  1.87E-11,  avg # of iterations =  5.9

     total cpu time spent up to now is     2067.7 secs

     total energy              =    -263.13368874 Ry
     estimated scf accuracy    <          4.3E-09 Ry
[tb_dev] Currently allocated     2.67E-05 Mbytes, locked:    0 /   1
[tb_pin] Currently allocated     0.00E+00 Mbytes, locked:    0 /   0

     iteration # 24     ecut=    80.00 Ry     beta= 0.40
     Davidson diagonalization with overlap

---- Real-time Memory Report at c_bands before calling an iterative solver
          1401 MiB given to the printing process from OS
             0 MiB allocation reported by mallinfo(arena+hblkhd)
         15890 MiB available memory on the node where the printing process lives
     GPU memory used/free/total (MiB): 1213 / 10700 / 11914
------------------
     ethr =  1.03E-11,  avg # of iterations =  2.2

     total cpu time spent up to now is     2078.4 secs

     total energy              =    -263.13368874 Ry
     estimated scf accuracy    <          1.8E-09 Ry
[tb_dev] Currently allocated     2.67E-05 Mbytes, locked:    0 /   1
[tb_pin] Currently allocated     0.00E+00 Mbytes, locked:    0 /   0

     iteration # 25     ecut=    80.00 Ry     beta= 0.40
     Davidson diagonalization with overlap

---- Real-time Memory Report at c_bands before calling an iterative solver
          1401 MiB given to the printing process from OS
             0 MiB allocation reported by mallinfo(arena+hblkhd)
         15887 MiB available memory on the node where the printing process lives
     GPU memory used/free/total (MiB): 1213 / 10700 / 11914
------------------
     ethr =  4.39E-12,  avg # of iterations =  6.5

     total cpu time spent up to now is     2096.4 secs

     total energy              =    -263.13368874 Ry
     estimated scf accuracy    <          3.2E-09 Ry
[tb_dev] Currently allocated     2.67E-05 Mbytes, locked:    0 /   1
[tb_pin] Currently allocated     0.00E+00 Mbytes, locked:    0 /   0

     iteration # 26     ecut=    80.00 Ry     beta= 0.40
     Davidson diagonalization with overlap

---- Real-time Memory Report at c_bands before calling an iterative solver
          1401 MiB given to the printing process from OS
             0 MiB allocation reported by mallinfo(arena+hblkhd)
         15905 MiB available memory on the node where the printing process lives
     GPU memory used/free/total (MiB): 1213 / 10700 / 11914
------------------
     ethr =  4.39E-12,  avg # of iterations =  1.0

     total cpu time spent up to now is     2105.0 secs

     total energy              =    -263.13368874 Ry
     estimated scf accuracy    <          2.4E-09 Ry
[tb_dev] Currently allocated     2.67E-05 Mbytes, locked:    0 /   1
[tb_pin] Currently allocated     0.00E+00 Mbytes, locked:    0 /   0

     iteration # 27     ecut=    80.00 Ry     beta= 0.40
     Davidson diagonalization with overlap

---- Real-time Memory Report at c_bands before calling an iterative solver
          1401 MiB given to the printing process from OS
             0 MiB allocation reported by mallinfo(arena+hblkhd)
         15901 MiB available memory on the node where the printing process lives
     GPU memory used/free/total (MiB): 1213 / 10700 / 11914
------------------
     ethr =  4.39E-12,  avg # of iterations =  2.8

     total cpu time spent up to now is     2116.8 secs

     total energy              =    -263.13368874 Ry
     estimated scf accuracy    <          6.7E-10 Ry
[tb_dev] Currently allocated     2.67E-05 Mbytes, locked:    0 /   1
[tb_pin] Currently allocated     0.00E+00 Mbytes, locked:    0 /   0

     iteration # 28     ecut=    80.00 Ry     beta= 0.40
     Davidson diagonalization with overlap

---- Real-time Memory Report at c_bands before calling an iterative solver
          1401 MiB given to the printing process from OS
             0 MiB allocation reported by mallinfo(arena+hblkhd)
         15898 MiB available memory on the node where the printing process lives
     GPU memory used/free/total (MiB): 1213 / 10700 / 11914
------------------
     ethr =  1.58E-12,  avg # of iterations =  2.9

     total cpu time spent up to now is     2129.6 secs

     total energy              =    -263.13368874 Ry
     estimated scf accuracy    <          4.1E-10 Ry
[tb_dev] Currently allocated     2.67E-05 Mbytes, locked:    0 /   1
[tb_pin] Currently allocated     0.00E+00 Mbytes, locked:    0 /   0

     iteration # 29     ecut=    80.00 Ry     beta= 0.40
     Davidson diagonalization with overlap

---- Real-time Memory Report at c_bands before calling an iterative solver
          1402 MiB given to the printing process from OS
             0 MiB allocation reported by mallinfo(arena+hblkhd)
         15897 MiB available memory on the node where the printing process lives
     GPU memory used/free/total (MiB): 1213 / 10700 / 11914
------------------
     ethr =  9.69E-13,  avg # of iterations =  5.4

     total cpu time spent up to now is     2145.4 secs

     total energy              =    -263.13368874 Ry
     estimated scf accuracy    <          2.4E-10 Ry
[tb_dev] Currently allocated     2.67E-05 Mbytes, locked:    0 /   1
[tb_pin] Currently allocated     0.00E+00 Mbytes, locked:    0 /   0

     iteration # 30     ecut=    80.00 Ry     beta= 0.40
     Davidson diagonalization with overlap

---- Real-time Memory Report at c_bands before calling an iterative solver
          1402 MiB given to the printing process from OS
             0 MiB allocation reported by mallinfo(arena+hblkhd)
         15897 MiB available memory on the node where the printing process lives
     GPU memory used/free/total (MiB): 1213 / 10700 / 11914
------------------
     ethr =  5.72E-13,  avg # of iterations =  1.0

     total cpu time spent up to now is     2153.8 secs

     total energy              =    -263.13368874 Ry
     estimated scf accuracy    <          2.0E-10 Ry
[tb_dev] Currently allocated     2.67E-05 Mbytes, locked:    0 /   1
[tb_pin] Currently allocated     0.00E+00 Mbytes, locked:    0 /   0

     iteration # 31     ecut=    80.00 Ry     beta= 0.40
     Davidson diagonalization with overlap

---- Real-time Memory Report at c_bands before calling an iterative solver
          1402 MiB given to the printing process from OS
             0 MiB allocation reported by mallinfo(arena+hblkhd)
         15896 MiB available memory on the node where the printing process lives
     GPU memory used/free/total (MiB): 1213 / 10700 / 11914
------------------
     ethr =  4.66E-13,  avg # of iterations =  1.2

     total cpu time spent up to now is     2162.9 secs

     total energy              =    -263.13368874 Ry
     estimated scf accuracy    <          1.2E-10 Ry
[tb_dev] Currently allocated     2.67E-05 Mbytes, locked:    0 /   1
[tb_pin] Currently allocated     0.00E+00 Mbytes, locked:    0 /   0

     iteration # 32     ecut=    80.00 Ry     beta= 0.40
     Davidson diagonalization with overlap

---- Real-time Memory Report at c_bands before calling an iterative solver
          1402 MiB given to the printing process from OS
             0 MiB allocation reported by mallinfo(arena+hblkhd)
         15891 MiB available memory on the node where the printing process lives
     GPU memory used/free/total (MiB): 1213 / 10700 / 11914
------------------
     ethr =  2.86E-13,  avg # of iterations =  1.1

     total cpu time spent up to now is     2171.7 secs

     total energy              =    -263.13368874 Ry
     estimated scf accuracy    <          1.2E-10 Ry
[tb_dev] Currently allocated     2.67E-05 Mbytes, locked:    0 /   1
[tb_pin] Currently allocated     0.00E+00 Mbytes, locked:    0 /   0

     iteration # 33     ecut=    80.00 Ry     beta= 0.40
     Davidson diagonalization with overlap

---- Real-time Memory Report at c_bands before calling an iterative solver
          1402 MiB given to the printing process from OS
             0 MiB allocation reported by mallinfo(arena+hblkhd)
         15891 MiB available memory on the node where the printing process lives
     GPU memory used/free/total (MiB): 1213 / 10700 / 11914
------------------
     ethr =  2.75E-13,  avg # of iterations =  1.0

     total cpu time spent up to now is     2180.3 secs

     total energy              =    -263.13368874 Ry
     estimated scf accuracy    <          1.1E-10 Ry
[tb_dev] Currently allocated     2.67E-05 Mbytes, locked:    0 /   1
[tb_pin] Currently allocated     0.00E+00 Mbytes, locked:    0 /   0

     iteration # 34     ecut=    80.00 Ry     beta= 0.40
     Davidson diagonalization with overlap

---- Real-time Memory Report at c_bands before calling an iterative solver
          1403 MiB given to the printing process from OS
             0 MiB allocation reported by mallinfo(arena+hblkhd)
         15891 MiB available memory on the node where the printing process lives
     GPU memory used/free/total (MiB): 1213 / 10700 / 11914
------------------
     ethr =  2.60E-13,  avg # of iterations =  1.0

     total cpu time spent up to now is     2189.0 secs

     total energy              =    -263.13368874 Ry
     estimated scf accuracy    <          8.9E-11 Ry
[tb_dev] Currently allocated     2.67E-05 Mbytes, locked:    0 /   1
[tb_pin] Currently allocated     0.00E+00 Mbytes, locked:    0 /   0

     iteration # 35     ecut=    80.00 Ry     beta= 0.40
     Davidson diagonalization with overlap

---- Real-time Memory Report at c_bands before calling an iterative solver
          1403 MiB given to the printing process from OS
             0 MiB allocation reported by mallinfo(arena+hblkhd)
         15891 MiB available memory on the node where the printing process lives
     GPU memory used/free/total (MiB): 1213 / 10700 / 11914
------------------
     ethr =  2.12E-13,  avg # of iterations =  1.3

     total cpu time spent up to now is     2198.4 secs

     End of self-consistent calculation

          k = 0.0000 0.0000 0.0000 ( 14509 PWs)   bands (ev):

   -77.1470 -48.3529 -48.2804 -48.2488 -24.5171 -24.4260 -20.2666 -19.2819
   -13.2327 -12.3197  -9.8171  -9.1653  -9.0489  -8.9633  -8.8411  -7.8442
    -7.0850  -6.9386  -5.9900  -5.9837  -5.5651

     occupation numbers 
     1.0000   1.0000   1.0000   1.0000   1.0000   1.0000   1.0000   1.0000
     1.0000   1.0000   1.0000   1.0000   1.0000   1.0000   1.0000   1.0000
     1.0000   1.0000   1.0000   1.0000   1.0000

          k = 0.0000 0.1034 0.0000 ( 14525 PWs)   bands (ev):

   -77.1443 -48.3494 -48.3008 -48.2534 -24.3786 -24.2871 -20.1505 -19.2047
   -13.0974 -12.2143  -9.9054  -9.7808  -9.5689  -9.0985  -8.9772  -7.8076
    -7.3275  -6.8456  -6.1277  -6.1175  -5.5002

     occupation numbers 
     1.0000   1.0000   1.0000   1.0000   1.0000   1.0000   1.0000   1.0000
     1.0000   1.0000   1.0000   1.0000   1.0000   1.0000   1.0000   1.0000
     1.0000   1.0000   1.0000   1.0000   1.0000

          k = 0.0000 0.2068 0.0000 ( 14553 PWs)   bands (ev):

   -77.1371 -48.3554 -48.3399 -48.2655 -23.9761 -23.8833 -19.8244 -18.9888
   -12.7672 -12.0115 -11.2303 -11.1171  -9.4345  -9.4003  -9.3153  -7.9582
    -7.8835  -6.5922  -6.5836  -6.4576  -5.5063

     occupation numbers 
     1.0000   1.0000   1.0000   1.0000   1.0000   1.0000   1.0000   1.0000
     1.0000   1.0000   1.0000   1.0000   1.0000   1.0000   1.0000   1.0000
     1.0000   1.0000   1.0000   1.0000   1.0000

          k = 0.0000 0.3102 0.0000 ( 14539 PWs)   bands (ev):

   -77.1276 -48.4262 -48.3277 -48.2814 -23.3568 -23.2616 -19.3603 -18.6865
   -13.2644 -13.1075 -11.7716 -11.2209  -9.8278  -9.7106  -9.1560  -8.7047
    -8.1604  -7.2532  -6.8322  -6.2484  -5.7056

     occupation numbers 
     1.0000   1.0000   1.0000   1.0000   1.0000   1.0000   1.0000   1.0000
     1.0000   1.0000   1.0000   1.0000   1.0000   1.0000   1.0000   1.0000
     1.0000   1.0000   1.0000   1.0000   1.0000

          k = 0.0000 0.4136 0.0000 ( 14485 PWs)   bands (ev):

   -77.1189 -48.4907 -48.3164 -48.2960 -22.6373 -22.5380 -18.8936 -18.3963
   -14.6764 -14.5597 -11.2063 -10.6646 -10.1530 -10.0374  -9.5914  -8.9226
    -8.5768  -7.7065  -7.1344  -5.9271  -5.8612

     occupation numbers 
     1.0000   1.0000   1.0000   1.0000   1.0000   1.0000   1.0000   1.0000
     1.0000   1.0000   1.0000   1.0000   1.0000   1.0000   1.0000   1.0000
     1.0000   1.0000   1.0000   1.0000   1.0000

          k = 0.0000 0.5170 0.0000 ( 14484 PWs)   bands (ev):

   -77.1137 -48.5289 -48.3097 -48.3046 -22.0841 -21.9800 -18.6106 -18.2402
   -15.5974 -15.4775 -10.7645 -10.3549 -10.3329 -10.2181  -9.8795  -9.2744
    -8.5776  -7.9471  -7.3002  -5.9120  -5.7361

     occupation numbers 
     1.0000   1.0000   1.0000   1.0000   1.0000   1.0000   1.0000   1.0000
     1.0000   1.0000   1.0000   1.0000   1.0000   1.0000   1.0000   1.0000
     1.0000   1.0000   1.0000   1.0000   1.0000

          k = 0.0000-0.5170 0.0000 ( 14484 PWs)   bands (ev):

   -77.1137 -48.5289 -48.3097 -48.3046 -22.0841 -21.9800 -18.6106 -18.2402
   -15.5974 -15.4775 -10.7645 -10.3549 -10.3329 -10.2181  -9.8795  -9.2744
    -8.5776  -7.9471  -7.3002  -5.9120  -5.7361

     occupation numbers 
     1.0000   1.0000   1.0000   1.0000   1.0000   1.0000   1.0000   1.0000
     1.0000   1.0000   1.0000   1.0000   1.0000   1.0000   1.0000   1.0000
     1.0000   1.0000   1.0000   1.0000   1.0000

          k = 0.0000-0.4136 0.0000 ( 14485 PWs)   bands (ev):

   -77.1189 -48.4907 -48.3164 -48.2960 -22.6373 -22.5380 -18.8936 -18.3963
   -14.6764 -14.5597 -11.2063 -10.6646 -10.1530 -10.0374  -9.5914  -8.9226
    -8.5768  -7.7065  -7.1344  -5.9271  -5.8612

     occupation numbers 
     1.0000   1.0000   1.0000   1.0000   1.0000   1.0000   1.0000   1.0000
     1.0000   1.0000   1.0000   1.0000   1.0000   1.0000   1.0000   1.0000
     1.0000   1.0000   1.0000   1.0000   1.0000

          k = 0.0000-0.3102 0.0000 ( 14539 PWs)   bands (ev):

   -77.1276 -48.4262 -48.3277 -48.2814 -23.3568 -23.2616 -19.3603 -18.6865
   -13.2644 -13.1075 -11.7716 -11.2209  -9.8278  -9.7106  -9.1560  -8.7047
    -8.1604  -7.2532  -6.8322  -6.2484  -5.7056

     occupation numbers 
     1.0000   1.0000   1.0000   1.0000   1.0000   1.0000   1.0000   1.0000
     1.0000   1.0000   1.0000   1.0000   1.0000   1.0000   1.0000   1.0000
     1.0000   1.0000   1.0000   1.0000   1.0000

          k = 0.0000-0.2068 0.0000 ( 14553 PWs)   bands (ev):

   -77.1371 -48.3554 -48.3399 -48.2655 -23.9761 -23.8833 -19.8244 -18.9888
   -12.7672 -12.0115 -11.2303 -11.1171  -9.4345  -9.4003  -9.3153  -7.9582
    -7.8835  -6.5922  -6.5836  -6.4576  -5.5063

     occupation numbers 
     1.0000   1.0000   1.0000   1.0000   1.0000   1.0000   1.0000   1.0000
     1.0000   1.0000   1.0000   1.0000   1.0000   1.0000   1.0000   1.0000
     1.0000   1.0000   1.0000   1.0000   1.0000

          k = 0.0000-0.1034 0.0000 ( 14525 PWs)   bands (ev):

   -77.1443 -48.3494 -48.3008 -48.2534 -24.3786 -24.2871 -20.1505 -19.2047
   -13.0974 -12.2143  -9.9054  -9.7808  -9.5689  -9.0985  -8.9772  -7.8076
    -7.3275  -6.8456  -6.1277  -6.1175  -5.5002

     occupation numbers 
     1.0000   1.0000   1.0000   1.0000   1.0000   1.0000   1.0000   1.0000
     1.0000   1.0000   1.0000   1.0000   1.0000   1.0000   1.0000   1.0000
     1.0000   1.0000   1.0000   1.0000   1.0000

          k = 0.0909 0.0517 0.0000 ( 14561 PWs)   bands (ev):

   -77.1441 -48.3492 -48.2907 -48.2650 -24.3751 -24.2835 -20.1466 -19.2018
   -13.0925 -12.2103  -9.8288  -9.6602  -9.4883  -9.2469  -9.1273  -7.8042
    -7.2407  -6.9418  -6.1401  -6.1061  -5.4966

     occupation numbers 
     1.0000   1.0000   1.0000   1.0000   1.0000   1.0000   1.0000   1.0000
     1.0000   1.0000   1.0000   1.0000   1.0000   1.0000   1.0000   1.0000
     1.0000   1.0000   1.0000   1.0000   1.0000

          k = 0.0909 0.1551 0.0000 ( 14541 PWs)   bands (ev):

   -77.1391 -48.3429 -48.3318 -48.2695 -24.1043 -24.0120 -19.9253 -19.0549
   -12.8507 -12.0327 -10.7424 -10.6308  -9.5408  -9.4485  -9.3462  -7.8383
    -7.7123  -6.7250  -6.5705  -6.2118  -5.4737

     occupation numbers 
     1.0000   1.0000   1.0000   1.0000   1.0000   1.0000   1.0000   1.0000
     1.0000   1.0000   1.0000   1.0000   1.0000   1.0000   1.0000   1.0000
     1.0000   1.0000   1.0000   1.0000   1.0000

          k = 0.0909 0.2585 0.0000 ( 14530 PWs)   bands (ev):

   -77.1308 -48.3943 -48.3319 -48.2839 -23.5914 -23.4973 -19.5283 -18.7936
   -12.7560 -12.4310 -11.7377 -11.3410 -10.0007  -9.8866  -9.1731  -8.3881
    -7.9640  -7.2658  -6.4903  -6.4692  -5.5921

     occupation numbers 
     1.0000   1.0000   1.0000   1.0000   1.0000   1.0000   1.0000   1.0000
     1.0000   1.0000   1.0000   1.0000   1.0000   1.0000   1.0000   1.0000
     1.0000   1.0000   1.0000   1.0000   1.0000

          k = 0.0909 0.3619 0.0000 ( 14507 PWs)   bands (ev):

   -77.1217 -48.4597 -48.3201 -48.3013 -22.9123 -22.8149 -19.0565 -18.4906
   -13.9656 -13.8442 -11.4260 -10.8796 -10.4706 -10.3617  -9.2045  -8.8567
    -8.3672  -7.7526  -6.8791  -6.3245  -5.6892

     occupation numbers 
     1.0000   1.0000   1.0000   1.0000   1.0000   1.0000   1.0000   1.0000
     1.0000   1.0000   1.0000   1.0000   1.0000   1.0000   1.0000   1.0000
     1.0000   1.0000   1.0000   1.0000   1.0000

          k = 0.0909 0.4653 0.0000 ( 14482 PWs)   bands (ev):

   -77.1147 -48.5090 -48.3150 -48.3111 -22.2459 -22.1437 -18.6731 -18.2608
   -15.1428 -15.0260 -10.9569 -10.8281 -10.6353 -10.2897  -9.7341  -9.0689
    -8.6134  -7.9637  -7.1886  -6.3269  -5.5969

     occupation numbers 
     1.0000   1.0000   1.0000   1.0000   1.0000   1.0000   1.0000   1.0000
     1.0000   1.0000   1.0000   1.0000   1.0000   1.0000   1.0000   1.0000
     1.0000   1.0000   1.0000   1.0000   1.0000

          k = 0.0909 0.5687 0.0000 ( 14530 PWs)   bands (ev):

   -77.1121 -48.5273 -48.3202 -48.3077 -21.9397 -21.8344 -18.5342 -18.1881
   -15.6136 -15.4936 -10.9738 -10.9008 -10.4896 -10.2272  -9.7995  -9.2902
    -8.5616  -8.0995  -7.2855  -6.3442  -5.5437

     occupation numbers 
     1.0000   1.0000   1.0000   1.0000   1.0000   1.0000   1.0000   1.0000
     1.0000   1.0000   1.0000   1.0000   1.0000   1.0000   1.0000   1.0000
     1.0000   1.0000   1.0000   1.0000   1.0000

          k = 0.0909-0.4653 0.0000 ( 14482 PWs)   bands (ev):

   -77.1147 -48.5090 -48.3150 -48.3111 -22.2458 -22.1437 -18.6731 -18.2607
   -15.1430 -15.0259 -10.9567 -10.8281 -10.6353 -10.2898  -9.7342  -9.0688
    -8.6133  -7.9636  -7.1889  -6.3275  -5.5961

     occupation numbers 
     1.0000   1.0000   1.0000   1.0000   1.0000   1.0000   1.0000   1.0000
     1.0000   1.0000   1.0000   1.0000   1.0000   1.0000   1.0000   1.0000
     1.0000   1.0000   1.0000   1.0000   1.0000

          k = 0.0909-0.3619 0.0000 ( 14507 PWs)   bands (ev):

   -77.1217 -48.4598 -48.3201 -48.3013 -22.9123 -22.8149 -19.0566 -18.4905
   -13.9660 -13.8440 -11.4260 -10.8794 -10.4702 -10.3619  -9.2047  -8.8567
    -8.3674  -7.7521  -6.8797  -6.3251  -5.6880

     occupation numbers 
     1.0000   1.0000   1.0000   1.0000   1.0000   1.0000   1.0000   1.0000
     1.0000   1.0000   1.0000   1.0000   1.0000   1.0000   1.0000   1.0000
     1.0000   1.0000   1.0000   1.0000   1.0000

          k = 0.0909-0.2585 0.0000 ( 14530 PWs)   bands (ev):

   -77.1308 -48.3943 -48.3319 -48.2839 -23.5914 -23.4973 -19.5284 -18.7935
   -12.7563 -12.4312 -11.7378 -11.3409  -9.9994  -9.8871  -9.1732  -8.3884
    -7.9637  -7.2662  -6.4905  -6.4693  -5.5914

     occupation numbers 
     1.0000   1.0000   1.0000   1.0000   1.0000   1.0000   1.0000   1.0000
     1.0000   1.0000   1.0000   1.0000   1.0000   1.0000   1.0000   1.0000
     1.0000   1.0000   1.0000   1.0000   1.0000

          k = 0.0909-0.1551 0.0000 ( 14541 PWs)   bands (ev):

   -77.1391 -48.3429 -48.3319 -48.2694 -24.1043 -24.0120 -19.9253 -19.0548
   -12.8507 -12.0326 -10.7443 -10.6301  -9.5397  -9.4475  -9.3469  -7.8378
    -7.7128  -6.7246  -6.5716  -6.2114  -5.4734

     occupation numbers 
     1.0000   1.0000   1.0000   1.0000   1.0000   1.0000   1.0000   1.0000
     1.0000   1.0000   1.0000   1.0000   1.0000   1.0000   1.0000   1.0000
     1.0000   1.0000   1.0000   1.0000   1.0000

          k = 0.0909-0.0517 0.0000 ( 14561 PWs)   bands (ev):

   -77.1441 -48.3492 -48.2907 -48.2649 -24.3751 -24.2835 -20.1466 -19.2017
   -13.0925 -12.2102  -9.8297  -9.6613  -9.4881  -9.2438  -9.1285  -7.8040
    -7.2413  -6.9413  -6.1428  -6.1037  -5.4965

     occupation numbers 
     1.0000   1.0000   1.0000   1.0000   1.0000   1.0000   1.0000   1.0000
     1.0000   1.0000   1.0000   1.0000   1.0000   1.0000   1.0000   1.0000
     1.0000   1.0000   1.0000   1.0000   1.0000

          k = 0.1818 0.1034 0.0000 ( 14557 PWs)   bands (ev):

   -77.1363 -48.3396 -48.3374 -48.2886 -23.9622 -23.8694 -19.8095 -18.9773
   -12.7401 -11.9744 -11.1014 -10.9882  -9.6187  -9.5016  -9.3826  -7.9043
    -7.8645  -6.6909  -6.5570  -6.4897  -5.4931

     occupation numbers 
     1.0000   1.0000   1.0000   1.0000   1.0000   1.0000   1.0000   1.0000
     1.0000   1.0000   1.0000   1.0000   1.0000   1.0000   1.0000   1.0000
     1.0000   1.0000   1.0000   1.0000   1.0000

          k = 0.1818 0.2068 0.0000 ( 14545 PWs)   bands (ev):

   -77.1302 -48.3853 -48.3313 -48.2968 -23.5810 -23.4869 -19.5172 -18.7846
   -12.7017 -12.3508 -11.6855 -11.3170 -10.1258 -10.0125  -9.1654  -8.3503
    -7.9630  -7.2562  -6.5317  -6.5036  -5.5771

     occupation numbers 
     1.0000   1.0000   1.0000   1.0000   1.0000   1.0000   1.0000   1.0000
     1.0000   1.0000   1.0000   1.0000   1.0000   1.0000   1.0000   1.0000
     1.0000   1.0000   1.0000   1.0000   1.0000

          k = 0.1818 0.3102 0.0000 ( 14487 PWs)   bands (ev):

   -77.1222 -48.4371 -48.3211 -48.3178 -23.0018 -22.9051 -19.1075 -18.5172
   -13.4782 -13.3450 -11.4506 -11.0119 -10.9302 -10.8388  -8.9519  -8.8244
    -8.1145  -7.9817  -6.7022  -6.6058  -5.6130

     occupation numbers 
     1.0000   1.0000   1.0000   1.0000   1.0000   1.0000   1.0000   1.0000
     1.0000   1.0000   1.0000   1.0000   1.0000   1.0000   1.0000   1.0000
     1.0000   1.0000   1.0000   1.0000   1.0000

          k = 0.1818 0.4136 0.0000 ( 14478 PWs)   bands (ev):

   -77.1149 -48.4804 -48.3413 -48.3115 -22.3448 -22.2438 -18.7046 -18.2614
   -14.4912 -14.3753 -11.7408 -11.6384 -10.8736 -10.3205  -9.3156  -8.8788
    -8.6610  -8.0569  -7.0569  -6.9189  -5.4794

     occupation numbers 
     1.0000   1.0000   1.0000   1.0000   1.0000   1.0000   1.0000   1.0000
     1.0000   1.0000   1.0000   1.0000   1.0000   1.0000   1.0000   1.0000
     1.0000   1.0000   1.0000   1.0000   1.0000

          k = 0.1818 0.5170 0.0000 ( 14479 PWs)   bands (ev):

   -77.1105 -48.5050 -48.3562 -48.3058 -21.8573 -21.7519 -18.4616 -18.1168
   -15.1879 -15.0712 -12.1278 -12.0255 -10.3734  -9.9470  -9.6669  -9.1426
    -8.6300  -8.2131  -7.2995  -7.1287  -5.3425

     occupation numbers 
     1.0000   1.0000   1.0000   1.0000   1.0000   1.0000   1.0000   1.0000
     1.0000   1.0000   1.0000   1.0000   1.0000   1.0000   1.0000   1.0000
     1.0000   1.0000   1.0000   1.0000   1.0000

          k = 0.1818 0.6204 0.0000 ( 14479 PWs)   bands (ev):

   -77.1105 -48.5050 -48.3562 -48.3058 -21.8573 -21.7519 -18.4617 -18.1168
   -15.1882 -15.0711 -12.1274 -12.0256 -10.3734  -9.9472  -9.6671  -9.1419
    -8.6301  -8.2133  -7.2997  -7.1288  -5.3423

     occupation numbers 
     1.0000   1.0000   1.0000   1.0000   1.0000   1.0000   1.0000   1.0000
     1.0000   1.0000   1.0000   1.0000   1.0000   1.0000   1.0000   1.0000
     1.0000   1.0000   1.0000   1.0000   1.0000

          k = 0.1818-0.4136 0.0000 ( 14478 PWs)   bands (ev):

   -77.1149 -48.4805 -48.3412 -48.3115 -22.3447 -22.2439 -18.7047 -18.2612
   -14.4921 -14.3750 -11.7396 -11.6389 -10.8736 -10.3205  -9.3159  -8.8789
    -8.6611  -8.0567  -7.0575  -6.9191  -5.4787

     occupation numbers 
     1.0000   1.0000   1.0000   1.0000   1.0000   1.0000   1.0000   1.0000
     1.0000   1.0000   1.0000   1.0000   1.0000   1.0000   1.0000   1.0000
     1.0000   1.0000   1.0000   1.0000   1.0000

          k = 0.1818-0.3102 0.0000 ( 14487 PWs)   bands (ev):

   -77.1222 -48.4372 -48.3211 -48.3178 -23.0018 -22.9051 -19.1076 -18.5170
   -13.4795 -13.3447 -11.4507 -11.0101 -10.9304 -10.8390  -8.9522  -8.8246
    -8.1148  -7.9815  -6.7030  -6.6059  -5.6119

     occupation numbers 
     1.0000   1.0000   1.0000   1.0000   1.0000   1.0000   1.0000   1.0000
     1.0000   1.0000   1.0000   1.0000   1.0000   1.0000   1.0000   1.0000
     1.0000   1.0000   1.0000   1.0000   1.0000

          k = 0.1818-0.2068 0.0000 ( 14545 PWs)   bands (ev):

   -77.1302 -48.3854 -48.3313 -48.2967 -23.5809 -23.4869 -19.5173 -18.7845
   -12.7022 -12.3512 -11.6860 -11.3169 -10.1231 -10.0135  -9.1655  -8.3508
    -7.9621  -7.2572  -6.5316  -6.5043  -5.5761

     occupation numbers 
     1.0000   1.0000   1.0000   1.0000   1.0000   1.0000   1.0000   1.0000
     1.0000   1.0000   1.0000   1.0000   1.0000   1.0000   1.0000   1.0000
     1.0000   1.0000   1.0000   1.0000   1.0000

          k = 0.1818-0.1034 0.0000 ( 14557 PWs)   bands (ev):

   -77.1363 -48.3396 -48.3375 -48.2885 -23.9622 -23.8695 -19.8095 -18.9772
   -12.7401 -11.9744 -11.1033 -10.9875  -9.6161  -9.5026  -9.3827  -7.9041
    -7.8645  -6.6906  -6.5576  -6.4904  -5.4926

     occupation numbers 
     1.0000   1.0000   1.0000   1.0000   1.0000   1.0000   1.0000   1.0000
     1.0000   1.0000   1.0000   1.0000   1.0000   1.0000   1.0000   1.0000
     1.0000   1.0000   1.0000   1.0000   1.0000

          k = 0.1818-0.0000 0.0000 ( 14573 PWs)   bands (ev):

   -77.1386 -48.3422 -48.3111 -48.2944 -24.0940 -24.0017 -19.9143 -19.0466
   -12.8353 -12.0180 -10.6446 -10.5284  -9.6267  -9.5254  -9.4083  -7.8411
    -7.6511  -6.8083  -6.5710  -6.2102  -5.4691

     occupation numbers 
     1.0000   1.0000   1.0000   1.0000   1.0000   1.0000   1.0000   1.0000
     1.0000   1.0000   1.0000   1.0000   1.0000   1.0000   1.0000   1.0000
     1.0000   1.0000   1.0000   1.0000   1.0000

          k = 0.2727 0.1551 0.0000 ( 14551 PWs)   bands (ev):

   -77.1261 -48.4101 -48.3262 -48.3081 -23.3267 -23.2315 -19.3288 -18.6615
   -13.1328 -12.9703 -11.7334 -11.1945 -10.0378  -9.9227  -9.1244  -8.6528
    -8.1588  -7.2116  -6.8999  -6.3438  -5.6830

     occupation numbers 
     1.0000   1.0000   1.0000   1.0000   1.0000   1.0000   1.0000   1.0000
     1.0000   1.0000   1.0000   1.0000   1.0000   1.0000   1.0000   1.0000
     1.0000   1.0000   1.0000   1.0000   1.0000

          k = 0.2727 0.2585 0.0000 ( 14499 PWs)   bands (ev):

   -77.1204 -48.4475 -48.3230 -48.3186 -22.8853 -22.7880 -19.0281 -18.4672
   -13.8421 -13.7205 -11.4034 -10.8724 -10.6514 -10.5486  -9.1600  -8.8270
    -8.3647  -7.7278  -6.9364  -6.4119  -5.6602

     occupation numbers 
     1.0000   1.0000   1.0000   1.0000   1.0000   1.0000   1.0000   1.0000
     1.0000   1.0000   1.0000   1.0000   1.0000   1.0000   1.0000   1.0000
     1.0000   1.0000   1.0000   1.0000   1.0000

          k = 0.2727 0.3619 0.0000 ( 14446 PWs)   bands (ev):

   -77.1142 -48.4731 -48.3538 -48.3107 -22.3277 -22.2269 -18.6870 -18.2465
   -14.4124 -14.2968 -11.8530 -11.7502 -10.8666 -10.3107  -9.2826  -8.8624
    -8.6626  -8.0455  -7.0901  -6.9653  -5.4670

     occupation numbers 
     1.0000   1.0000   1.0000   1.0000   1.0000   1.0000   1.0000   1.0000
     1.0000   1.0000   1.0000   1.0000   1.0000   1.0000   1.0000   1.0000
     1.0000   1.0000   1.0000   1.0000   1.0000

          k = 0.2727 0.4653 0.0000 ( 14474 PWs)   bands (ev):

   -77.1094 -48.4812 -48.3889 -48.3046 -21.8219 -21.7167 -18.4198 -18.0734
   -14.7180 -14.6023 -12.9174 -12.8151 -10.3417  -9.7923  -9.3732  -9.1439
    -8.5825  -8.3141  -7.6805  -7.2876  -5.2359

     occupation numbers 
     1.0000   1.0000   1.0000   1.0000   1.0000   1.0000   1.0000   1.0000
     1.0000   1.0000   1.0000   1.0000   1.0000   1.0000   1.0000   1.0000
     1.0000   1.0000   1.0000   1.0000   1.0000

          k = 0.2727 0.5687 0.0000 ( 14432 PWs)   bands (ev):

   -77.1076 -48.4796 -48.4066 -48.3023 -21.6078 -21.5004 -18.3202 -18.0087
   -14.7882 -14.6714 -13.3698 -13.2687  -9.9682  -9.6637  -9.5390  -8.9191
    -8.8068  -8.3671  -8.0518  -7.3564  -5.1200

     occupation numbers 
     1.0000   1.0000   1.0000   1.0000   1.0000   1.0000   1.0000   1.0000
     1.0000   1.0000   1.0000   1.0000   1.0000   1.0000   1.0000   1.0000
     1.0000   1.0000   1.0000   1.0000   1.0000

          k = 0.2727 0.6721 0.0000 ( 14474 PWs)   bands (ev):

   -77.1094 -48.4812 -48.3889 -48.3046 -21.8217 -21.7168 -18.4199 -18.0732
   -14.7193 -14.6018 -12.9158 -12.8158 -10.3417  -9.7927  -9.3733  -9.1434
    -8.5825  -8.3144  -7.6806  -7.2878  -5.2357

     occupation numbers 
     1.0000   1.0000   1.0000   1.0000   1.0000   1.0000   1.0000   1.0000
     1.0000   1.0000   1.0000   1.0000   1.0000   1.0000   1.0000   1.0000
     1.0000   1.0000   1.0000   1.0000   1.0000

          k = 0.2727-0.3619 0.0000 ( 14446 PWs)   bands (ev):

   -77.1142 -48.4732 -48.3537 -48.3107 -22.3276 -22.2270 -18.6872 -18.2462
   -14.4141 -14.2962 -11.8509 -11.7509 -10.8667 -10.3104  -9.2829  -8.8625
    -8.6627  -8.0456  -7.0907  -6.9652  -5.4664

     occupation numbers 
     1.0000   1.0000   1.0000   1.0000   1.0000   1.0000   1.0000   1.0000
     1.0000   1.0000   1.0000   1.0000   1.0000   1.0000   1.0000   1.0000
     1.0000   1.0000   1.0000   1.0000   1.0000

          k = 0.2727-0.2585 0.0000 ( 14499 PWs)   bands (ev):

   -77.1204 -48.4475 -48.3229 -48.3186 -22.8852 -22.7881 -19.0283 -18.4670
   -13.8436 -13.7200 -11.4035 -10.8719 -10.6494 -10.5494  -9.1604  -8.8270
    -8.3645  -7.7282  -6.9374  -6.4121  -5.6590

     occupation numbers 
     1.0000   1.0000   1.0000   1.0000   1.0000   1.0000   1.0000   1.0000
     1.0000   1.0000   1.0000   1.0000   1.0000   1.0000   1.0000   1.0000
     1.0000   1.0000   1.0000   1.0000   1.0000

          k = 0.2727-0.1551 0.0000 ( 14551 PWs)   bands (ev):

   -77.1261 -48.4102 -48.3262 -48.3080 -23.3266 -23.2316 -19.3289 -18.6613
   -13.1338 -12.9702 -11.7336 -11.1943 -10.0355  -9.9236  -9.1247  -8.6529
    -8.1581  -7.2122  -6.9010  -6.3438  -5.6821

     occupation numbers 
     1.0000   1.0000   1.0000   1.0000   1.0000   1.0000   1.0000   1.0000
     1.0000   1.0000   1.0000   1.0000   1.0000   1.0000   1.0000   1.0000
     1.0000   1.0000   1.0000   1.0000   1.0000

          k = 0.2727-0.0517 0.0000 ( 14554 PWs)   bands (ev):

   -77.1295 -48.3769 -48.3306 -48.3103 -23.5650 -23.4710 -19.5012 -18.7728
   -12.6784 -12.3282 -11.6747 -11.3093 -10.1453 -10.0367  -9.1525  -8.3499
    -7.9723  -7.2708  -6.5408  -6.4861  -5.5948

     occupation numbers 
     1.0000   1.0000   1.0000   1.0000   1.0000   1.0000   1.0000   1.0000
     1.0000   1.0000   1.0000   1.0000   1.0000   1.0000   1.0000   1.0000
     1.0000   1.0000   1.0000   1.0000   1.0000

          k = 0.2727 0.0517 0.0000 ( 14554 PWs)   bands (ev):

   -77.1295 -48.3769 -48.3306 -48.3104 -23.5650 -23.4710 -19.5012 -18.7728
   -12.6782 -12.3280 -11.6745 -11.3093 -10.1465 -10.0362  -9.1525  -8.3498
    -7.9728  -7.2702  -6.5409  -6.4857  -5.5951

     occupation numbers 
     1.0000   1.0000   1.0000   1.0000   1.0000   1.0000   1.0000   1.0000
     1.0000   1.0000   1.0000   1.0000   1.0000   1.0000   1.0000   1.0000
     1.0000   1.0000   1.0000   1.0000   1.0000

          k = 0.3636 0.2068 0.0000 ( 14479 PWs)   bands (ev):

   -77.1167 -48.4773 -48.3249 -48.3140 -22.5873 -22.4882 -18.8431 -18.3551
   -14.5504 -14.4350 -11.1726 -10.6324 -10.3818 -10.2682  -9.5393  -8.8886
    -8.5682  -7.6677  -7.2240  -6.0303  -5.8248

     occupation numbers 
     1.0000   1.0000   1.0000   1.0000   1.0000   1.0000   1.0000   1.0000
     1.0000   1.0000   1.0000   1.0000   1.0000   1.0000   1.0000   1.0000
     1.0000   1.0000   1.0000   1.0000   1.0000

          k = 0.3636 0.3102 0.0000 ( 14484 PWs)   bands (ev):

   -77.1128 -48.4967 -48.3412 -48.3090 -22.1982 -22.0963 -18.6248 -18.2202
   -15.0236 -14.9085 -11.0851 -10.9979 -10.7295 -10.2764  -9.6860  -9.0346
    -8.6003  -7.9335  -7.2691  -6.4062  -5.5800

     occupation numbers 
     1.0000   1.0000   1.0000   1.0000   1.0000   1.0000   1.0000   1.0000
     1.0000   1.0000   1.0000   1.0000   1.0000   1.0000   1.0000   1.0000
     1.0000   1.0000   1.0000   1.0000   1.0000

          k = 0.3636 0.4136 0.0000 ( 14456 PWs)   bands (ev):

   -77.1091 -48.4939 -48.3772 -48.3043 -21.8186 -21.7134 -18.4242 -18.0856
   -15.0881 -14.9729 -12.2915 -12.1894 -10.3571  -9.9256  -9.6412  -9.1094
    -8.6264  -8.1924  -7.3583  -7.1767  -5.3332

     occupation numbers 
     1.0000   1.0000   1.0000   1.0000   1.0000   1.0000   1.0000   1.0000
     1.0000   1.0000   1.0000   1.0000   1.0000   1.0000   1.0000   1.0000
     1.0000   1.0000   1.0000   1.0000   1.0000

          k = 0.3636 0.5170 0.0000 ( 14455 PWs)   bands (ev):

   -77.1070 -48.4689 -48.4220 -48.3016 -21.5857 -21.4784 -18.3012 -17.9937
   -14.7170 -14.6002 -13.4696 -13.3692  -9.9533  -9.6582  -9.5317  -8.8975
    -8.8218  -8.3728  -8.0530  -7.3701  -5.1254

     occupation numbers 
     1.0000   1.0000   1.0000   1.0000   1.0000   1.0000   1.0000   1.0000
     1.0000   1.0000   1.0000   1.0000   1.0000   1.0000   1.0000   1.0000
     1.0000   1.0000   1.0000   1.0000   1.0000

          k = 0.3636 0.6204 0.0000 ( 14455 PWs)   bands (ev):

   -77.1070 -48.4690 -48.4219 -48.3016 -21.5856 -21.4784 -18.3013 -17.9936
   -14.7183 -14.5997 -13.4682 -13.3697  -9.9534  -9.6584  -9.5316  -8.8976
    -8.8214  -8.3732  -8.0530  -7.3701  -5.1253

     occupation numbers 
     1.0000   1.0000   1.0000   1.0000   1.0000   1.0000   1.0000   1.0000
     1.0000   1.0000   1.0000   1.0000   1.0000   1.0000   1.0000   1.0000
     1.0000   1.0000   1.0000   1.0000   1.0000

          k = 0.3636 0.7238 0.0000 ( 14456 PWs)   bands (ev):

   -77.1091 -48.4940 -48.3771 -48.3043 -21.8184 -21.7135 -18.4244 -18.0853
   -15.0897 -14.9723 -12.2897 -12.1901 -10.3573  -9.9254  -9.6413  -9.1091
    -8.6266  -8.1930  -7.3585  -7.1767  -5.3329

     occupation numbers 
     1.0000   1.0000   1.0000   1.0000   1.0000   1.0000   1.0000   1.0000
     1.0000   1.0000   1.0000   1.0000   1.0000   1.0000   1.0000   1.0000
     1.0000   1.0000   1.0000   1.0000   1.0000

          k = 0.3636-0.3102 0.0000 ( 14484 PWs)   bands (ev):

   -77.1128 -48.4968 -48.3411 -48.3090 -22.1980 -22.0964 -18.6250 -18.2199
   -15.0251 -14.9079 -11.0835 -10.9982 -10.7297 -10.2760  -9.6859  -9.0347
    -8.6005  -7.9340  -7.2698  -6.4063  -5.5792

     occupation numbers 
     1.0000   1.0000   1.0000   1.0000   1.0000   1.0000   1.0000   1.0000
     1.0000   1.0000   1.0000   1.0000   1.0000   1.0000   1.0000   1.0000
     1.0000   1.0000   1.0000   1.0000   1.0000

          k = 0.3636-0.2068 0.0000 ( 14479 PWs)   bands (ev):

   -77.1167 -48.4774 -48.3248 -48.3141 -22.5871 -22.4883 -18.8433 -18.3548
   -14.5518 -14.4345 -11.1728 -10.6320 -10.3796 -10.2690  -9.5394  -8.8886
    -8.5682  -7.6681  -7.2249  -6.0310  -5.8234

     occupation numbers 
     1.0000   1.0000   1.0000   1.0000   1.0000   1.0000   1.0000   1.0000
     1.0000   1.0000   1.0000   1.0000   1.0000   1.0000   1.0000   1.0000
     1.0000   1.0000   1.0000   1.0000   1.0000

          k = 0.3636-0.1034 0.0000 ( 14506 PWs)   bands (ev):

   -77.1197 -48.4461 -48.3289 -48.3179 -22.8665 -22.7693 -19.0114 -18.4553
   -13.8570 -13.7340 -11.3909 -10.8640 -10.6343 -10.5328  -9.1733  -8.8299
    -8.3736  -7.7586  -6.9020  -6.3529  -5.7219

     occupation numbers 
     1.0000   1.0000   1.0000   1.0000   1.0000   1.0000   1.0000   1.0000
     1.0000   1.0000   1.0000   1.0000   1.0000   1.0000   1.0000   1.0000
     1.0000   1.0000   1.0000   1.0000   1.0000

          k = 0.3636 0.0000 0.0000 ( 14493 PWs)   bands (ev):

   -77.1208 -48.4277 -48.3372 -48.3194 -22.9668 -22.8702 -19.0743 -18.4925
   -13.4381 -13.3041 -11.4233 -11.0685 -10.9785 -10.8381  -8.9323  -8.8373
    -8.1396  -7.9908  -6.6861  -6.5817  -5.6651

     occupation numbers 
     1.0000   1.0000   1.0000   1.0000   1.0000   1.0000   1.0000   1.0000
     1.0000   1.0000   1.0000   1.0000   1.0000   1.0000   1.0000   1.0000
     1.0000   1.0000   1.0000   1.0000   1.0000

          k = 0.3636 0.1034 0.0000 ( 14506 PWs)   bands (ev):

   -77.1197 -48.4460 -48.3290 -48.3179 -22.8666 -22.7693 -19.0113 -18.4554
   -13.8560 -13.7344 -11.3907 -10.8642 -10.6360 -10.5322  -9.1731  -8.8300
    -8.3741  -7.7577  -6.9017  -6.3532  -5.7221

     occupation numbers 
     1.0000   1.0000   1.0000   1.0000   1.0000   1.0000   1.0000   1.0000
     1.0000   1.0000   1.0000   1.0000   1.0000   1.0000   1.0000   1.0000
     1.0000   1.0000   1.0000   1.0000   1.0000

          k = 0.4545 0.2585 0.0000 ( 14447 PWs)   bands (ev):

   -77.1111 -48.5171 -48.3345 -48.3070 -22.0176 -21.9138 -18.5455 -18.1860
   -15.4883 -15.3710 -10.7317 -10.5721 -10.4590 -10.3207  -9.8401  -9.2317
    -8.5509  -7.9053  -7.4014  -5.8965  -5.8134

     occupation numbers 
     1.0000   1.0000   1.0000   1.0000   1.0000   1.0000   1.0000   1.0000
     1.0000   1.0000   1.0000   1.0000   1.0000   1.0000   1.0000   1.0000
     1.0000   1.0000   1.0000   1.0000   1.0000

          k = 0.4545 0.3619 0.0000 ( 14473 PWs)   bands (ev):

   -77.1098 -48.5157 -48.3483 -48.3052 -21.8756 -21.7706 -18.4726 -18.1369
   -15.5103 -15.3928 -11.1788 -11.0876 -10.4937 -10.2044  -9.7736  -9.2439
    -8.5418  -8.0685  -7.3645  -6.3947  -5.5526

     occupation numbers 
     1.0000   1.0000   1.0000   1.0000   1.0000   1.0000   1.0000   1.0000
     1.0000   1.0000   1.0000   1.0000   1.0000   1.0000   1.0000   1.0000
     1.0000   1.0000   1.0000   1.0000   1.0000

          k = 0.4545 0.4653 0.0000 ( 14430 PWs)   bands (ev):

   -77.1087 -48.4937 -48.3801 -48.3039 -21.8028 -21.6976 -18.4131 -18.0782
   -15.1026 -14.9869 -12.2860 -12.1850 -10.3477  -9.9231  -9.6488  -9.1332
    -8.6219  -8.1902  -7.3442  -7.1538  -5.3569

     occupation numbers 
     1.0000   1.0000   1.0000   1.0000   1.0000   1.0000   1.0000   1.0000
     1.0000   1.0000   1.0000   1.0000   1.0000   1.0000   1.0000   1.0000
     1.0000   1.0000   1.0000   1.0000   1.0000

          k = 0.4545 0.5687 0.0000 ( 14406 PWs)   bands (ev):

   -77.1083 -48.4735 -48.4040 -48.3034 -21.7845 -21.6795 -18.3902 -18.0515
   -14.6931 -14.5756 -12.9778 -12.8791 -10.3186  -9.7655  -9.3980  -9.1737
    -8.5811  -8.3013  -7.6492  -7.2918  -5.2666

     occupation numbers 
     1.0000   1.0000   1.0000   1.0000   1.0000   1.0000   1.0000   1.0000
     1.0000   1.0000   1.0000   1.0000   1.0000   1.0000   1.0000   1.0000
     1.0000   1.0000   1.0000   1.0000   1.0000

          k = 0.4545 0.6721 0.0000 ( 14430 PWs)   bands (ev):

   -77.1087 -48.4938 -48.3800 -48.3039 -21.8026 -21.6976 -18.4133 -18.0780
   -15.1038 -14.9864 -12.2846 -12.1856 -10.3479  -9.9227  -9.6487  -9.1336
    -8.6219  -8.1907  -7.3442  -7.1537  -5.3568

     occupation numbers 
     1.0000   1.0000   1.0000   1.0000   1.0000   1.0000   1.0000   1.0000
     1.0000   1.0000   1.0000   1.0000   1.0000   1.0000   1.0000   1.0000
     1.0000   1.0000   1.0000   1.0000   1.0000

          k = 0.4545 0.7755 0.0000 ( 14473 PWs)   bands (ev):

   -77.1098 -48.5158 -48.3482 -48.3052 -21.8753 -21.7707 -18.4729 -18.1366
   -15.5116 -15.3922 -11.1770 -11.0883 -10.4943 -10.2038  -9.7735  -9.2438
    -8.5420  -8.0692  -7.3649  -6.3947  -5.5523

     occupation numbers 
     1.0000   1.0000   1.0000   1.0000   1.0000   1.0000   1.0000   1.0000
     1.0000   1.0000   1.0000   1.0000   1.0000   1.0000   1.0000   1.0000
     1.0000   1.0000   1.0000   1.0000   1.0000

          k = 0.4545-0.2585 0.0000 ( 14447 PWs)   bands (ev):

   -77.1111 -48.5172 -48.3344 -48.3070 -22.0173 -21.9140 -18.5457 -18.1857
   -15.4897 -15.3704 -10.7322 -10.5700 -10.4597 -10.3202  -9.8399  -9.2318
    -8.5510  -7.9057  -7.4023  -5.8976  -5.8118

     occupation numbers 
     1.0000   1.0000   1.0000   1.0000   1.0000   1.0000   1.0000   1.0000
     1.0000   1.0000   1.0000   1.0000   1.0000   1.0000   1.0000   1.0000
     1.0000   1.0000   1.0000   1.0000   1.0000

          k = 0.4545-0.1551 0.0000 ( 14436 PWs)   bands (ev):

   -77.1124 -48.4974 -48.3433 -48.3086 -22.1833 -22.0817 -18.6140 -18.2129
   -15.0423 -14.9251 -11.0643 -10.9833 -10.7265 -10.2693  -9.6975  -9.0494
    -8.6011  -7.9444  -7.2479  -6.3523  -5.6309

     occupation numbers 
     1.0000   1.0000   1.0000   1.0000   1.0000   1.0000   1.0000   1.0000
     1.0000   1.0000   1.0000   1.0000   1.0000   1.0000   1.0000   1.0000
     1.0000   1.0000   1.0000   1.0000   1.0000

          k = 0.4545-0.0517 0.0000 ( 14468 PWs)   bands (ev):

   -77.1131 -48.4704 -48.3639 -48.3096 -22.2932 -22.1926 -18.6586 -18.2263
   -14.4281 -14.3104 -11.8561 -11.7578 -10.8457 -10.2875  -9.3162  -8.8840
    -8.6649  -8.0527  -7.0664  -6.9079  -5.5236

     occupation numbers 
     1.0000   1.0000   1.0000   1.0000   1.0000   1.0000   1.0000   1.0000
     1.0000   1.0000   1.0000   1.0000   1.0000   1.0000   1.0000   1.0000
     1.0000   1.0000   1.0000   1.0000   1.0000

          k = 0.4545 0.0517 0.0000 ( 14468 PWs)   bands (ev):

   -77.1131 -48.4704 -48.3639 -48.3096 -22.2933 -22.1926 -18.6585 -18.2264
   -14.4274 -14.3107 -11.8569 -11.7575 -10.8456 -10.2877  -9.3162  -8.8839
    -8.6648  -8.0524  -7.0664  -6.9081  -5.5236

     occupation numbers 
     1.0000   1.0000   1.0000   1.0000   1.0000   1.0000   1.0000   1.0000
     1.0000   1.0000   1.0000   1.0000   1.0000   1.0000   1.0000   1.0000
     1.0000   1.0000   1.0000   1.0000   1.0000

          k = 0.4545 0.1551 0.0000 ( 14436 PWs)   bands (ev):

   -77.1123 -48.4973 -48.3434 -48.3086 -22.1835 -22.0816 -18.6138 -18.2132
   -15.0410 -14.9256 -11.0655 -10.9831 -10.7262 -10.2698  -9.6976  -9.0492
    -8.6008  -7.9439  -7.2476  -6.3526  -5.6310

     occupation numbers 
     1.0000   1.0000   1.0000   1.0000   1.0000   1.0000   1.0000   1.0000
     1.0000   1.0000   1.0000   1.0000   1.0000   1.0000   1.0000   1.0000
     1.0000   1.0000   1.0000   1.0000   1.0000

          k =-0.4545-0.2585 0.0000 ( 14447 PWs)   bands (ev):

   -77.1111 -48.5171 -48.3345 -48.3070 -22.0176 -21.9138 -18.5455 -18.1860
   -15.4883 -15.3710 -10.7317 -10.5721 -10.4590 -10.3207  -9.8401  -9.2317
    -8.5509  -7.9053  -7.4014  -5.8965  -5.8134

     occupation numbers 
     1.0000   1.0000   1.0000   1.0000   1.0000   1.0000   1.0000   1.0000
     1.0000   1.0000   1.0000   1.0000   1.0000   1.0000   1.0000   1.0000
     1.0000   1.0000   1.0000   1.0000   1.0000

          k =-0.4545-0.1551 0.0000 ( 14436 PWs)   bands (ev):

   -77.1123 -48.4973 -48.3434 -48.3086 -22.1835 -22.0816 -18.6138 -18.2132
   -15.0410 -14.9256 -11.0655 -10.9831 -10.7262 -10.2698  -9.6976  -9.0492
    -8.6008  -7.9439  -7.2476  -6.3526  -5.6310

     occupation numbers 
     1.0000   1.0000   1.0000   1.0000   1.0000   1.0000   1.0000   1.0000
     1.0000   1.0000   1.0000   1.0000   1.0000   1.0000   1.0000   1.0000
     1.0000   1.0000   1.0000   1.0000   1.0000

          k =-0.4545-0.0517 0.0000 ( 14468 PWs)   bands (ev):

   -77.1131 -48.4704 -48.3639 -48.3096 -22.2933 -22.1926 -18.6585 -18.2264
   -14.4274 -14.3107 -11.8569 -11.7575 -10.8456 -10.2877  -9.3162  -8.8839
    -8.6648  -8.0524  -7.0664  -6.9081  -5.5236

     occupation numbers 
     1.0000   1.0000   1.0000   1.0000   1.0000   1.0000   1.0000   1.0000
     1.0000   1.0000   1.0000   1.0000   1.0000   1.0000   1.0000   1.0000
     1.0000   1.0000   1.0000   1.0000   1.0000

          k =-0.4545 0.0517 0.0000 ( 14468 PWs)   bands (ev):

   -77.1131 -48.4704 -48.3639 -48.3096 -22.2932 -22.1926 -18.6586 -18.2263
   -14.4281 -14.3104 -11.8561 -11.7578 -10.8457 -10.2875  -9.3162  -8.8840
    -8.6649  -8.0527  -7.0664  -6.9079  -5.5236

     occupation numbers 
     1.0000   1.0000   1.0000   1.0000   1.0000   1.0000   1.0000   1.0000
     1.0000   1.0000   1.0000   1.0000   1.0000   1.0000   1.0000   1.0000
     1.0000   1.0000   1.0000   1.0000   1.0000

          k =-0.4545 0.1551 0.0000 ( 14436 PWs)   bands (ev):

   -77.1124 -48.4974 -48.3433 -48.3086 -22.1833 -22.0817 -18.6140 -18.2129
   -15.0423 -14.9251 -11.0643 -10.9833 -10.7265 -10.2693  -9.6975  -9.0494
    -8.6011  -7.9444  -7.2479  -6.3523  -5.6309

     occupation numbers 
     1.0000   1.0000   1.0000   1.0000   1.0000   1.0000   1.0000   1.0000
     1.0000   1.0000   1.0000   1.0000   1.0000   1.0000   1.0000   1.0000
     1.0000   1.0000   1.0000   1.0000   1.0000

          k =-0.4545 0.2585 0.0000 ( 14447 PWs)   bands (ev):

   -77.1111 -48.5172 -48.3344 -48.3070 -22.0173 -21.9140 -18.5457 -18.1857
   -15.4897 -15.3704 -10.7322 -10.5700 -10.4597 -10.3202  -9.8399  -9.2318
    -8.5510  -7.9057  -7.4023  -5.8976  -5.8118

     occupation numbers 
     1.0000   1.0000   1.0000   1.0000   1.0000   1.0000   1.0000   1.0000
     1.0000   1.0000   1.0000   1.0000   1.0000   1.0000   1.0000   1.0000
     1.0000   1.0000   1.0000   1.0000   1.0000

          k =-0.4545-0.7755 0.0000 ( 14473 PWs)   bands (ev):

   -77.1098 -48.5158 -48.3482 -48.3052 -21.8753 -21.7707 -18.4729 -18.1366
   -15.5116 -15.3922 -11.1770 -11.0883 -10.4943 -10.2038  -9.7735  -9.2438
    -8.5420  -8.0692  -7.3649  -6.3947  -5.5523

     occupation numbers 
     1.0000   1.0000   1.0000   1.0000   1.0000   1.0000   1.0000   1.0000
     1.0000   1.0000   1.0000   1.0000   1.0000   1.0000   1.0000   1.0000
     1.0000   1.0000   1.0000   1.0000   1.0000

          k =-0.4545-0.6721 0.0000 ( 14430 PWs)   bands (ev):

   -77.1087 -48.4938 -48.3800 -48.3039 -21.8026 -21.6976 -18.4133 -18.0780
   -15.1038 -14.9864 -12.2846 -12.1856 -10.3479  -9.9227  -9.6487  -9.1336
    -8.6219  -8.1907  -7.3442  -7.1537  -5.3568

     occupation numbers 
     1.0000   1.0000   1.0000   1.0000   1.0000   1.0000   1.0000   1.0000
     1.0000   1.0000   1.0000   1.0000   1.0000   1.0000   1.0000   1.0000
     1.0000   1.0000   1.0000   1.0000   1.0000

          k =-0.4545-0.5687 0.0000 ( 14406 PWs)   bands (ev):

   -77.1083 -48.4735 -48.4040 -48.3034 -21.7845 -21.6795 -18.3902 -18.0515
   -14.6931 -14.5756 -12.9778 -12.8791 -10.3186  -9.7655  -9.3980  -9.1737
    -8.5811  -8.3013  -7.6492  -7.2918  -5.2666

     occupation numbers 
     1.0000   1.0000   1.0000   1.0000   1.0000   1.0000   1.0000   1.0000
     1.0000   1.0000   1.0000   1.0000   1.0000   1.0000   1.0000   1.0000
     1.0000   1.0000   1.0000   1.0000   1.0000

          k =-0.4545-0.4653 0.0000 ( 14430 PWs)   bands (ev):

   -77.1087 -48.4937 -48.3801 -48.3039 -21.8028 -21.6976 -18.4131 -18.0782
   -15.1026 -14.9869 -12.2860 -12.1850 -10.3477  -9.9231  -9.6488  -9.1332
    -8.6219  -8.1902  -7.3442  -7.1538  -5.3569

     occupation numbers 
     1.0000   1.0000   1.0000   1.0000   1.0000   1.0000   1.0000   1.0000
     1.0000   1.0000   1.0000   1.0000   1.0000   1.0000   1.0000   1.0000
     1.0000   1.0000   1.0000   1.0000   1.0000

          k =-0.4545-0.3619 0.0000 ( 14473 PWs)   bands (ev):

   -77.1098 -48.5157 -48.3483 -48.3052 -21.8756 -21.7706 -18.4726 -18.1369
   -15.5103 -15.3928 -11.1788 -11.0876 -10.4937 -10.2044  -9.7736  -9.2439
    -8.5418  -8.0685  -7.3645  -6.3947  -5.5526

     occupation numbers 
     1.0000   1.0000   1.0000   1.0000   1.0000   1.0000   1.0000   1.0000
     1.0000   1.0000   1.0000   1.0000   1.0000   1.0000   1.0000   1.0000
     1.0000   1.0000   1.0000   1.0000   1.0000

          k =-0.3636-0.2068 0.0000 ( 14479 PWs)   bands (ev):

   -77.1167 -48.4773 -48.3249 -48.3140 -22.5873 -22.4882 -18.8431 -18.3551
   -14.5504 -14.4350 -11.1726 -10.6324 -10.3818 -10.2682  -9.5393  -8.8886
    -8.5682  -7.6677  -7.2240  -6.0303  -5.8248

     occupation numbers 
     1.0000   1.0000   1.0000   1.0000   1.0000   1.0000   1.0000   1.0000
     1.0000   1.0000   1.0000   1.0000   1.0000   1.0000   1.0000   1.0000
     1.0000   1.0000   1.0000   1.0000   1.0000

          k =-0.3636-0.1034 0.0000 ( 14506 PWs)   bands (ev):

   -77.1197 -48.4460 -48.3290 -48.3179 -22.8666 -22.7693 -19.0113 -18.4554
   -13.8560 -13.7344 -11.3907 -10.8642 -10.6360 -10.5322  -9.1731  -8.8300
    -8.3741  -7.7577  -6.9017  -6.3532  -5.7221

     occupation numbers 
     1.0000   1.0000   1.0000   1.0000   1.0000   1.0000   1.0000   1.0000
     1.0000   1.0000   1.0000   1.0000   1.0000   1.0000   1.0000   1.0000
     1.0000   1.0000   1.0000   1.0000   1.0000

          k =-0.3636 0.0000 0.0000 ( 14493 PWs)   bands (ev):

   -77.1208 -48.4277 -48.3372 -48.3194 -22.9668 -22.8702 -19.0743 -18.4925
   -13.4381 -13.3041 -11.4233 -11.0685 -10.9785 -10.8381  -8.9323  -8.8373
    -8.1396  -7.9908  -6.6861  -6.5817  -5.6651

     occupation numbers 
     1.0000   1.0000   1.0000   1.0000   1.0000   1.0000   1.0000   1.0000
     1.0000   1.0000   1.0000   1.0000   1.0000   1.0000   1.0000   1.0000
     1.0000   1.0000   1.0000   1.0000   1.0000

          k =-0.3636 0.1034 0.0000 ( 14506 PWs)   bands (ev):

   -77.1197 -48.4461 -48.3289 -48.3179 -22.8665 -22.7693 -19.0114 -18.4553
   -13.8570 -13.7340 -11.3909 -10.8640 -10.6343 -10.5328  -9.1733  -8.8299
    -8.3736  -7.7586  -6.9020  -6.3529  -5.7219

     occupation numbers 
     1.0000   1.0000   1.0000   1.0000   1.0000   1.0000   1.0000   1.0000
     1.0000   1.0000   1.0000   1.0000   1.0000   1.0000   1.0000   1.0000
     1.0000   1.0000   1.0000   1.0000   1.0000

          k =-0.3636 0.2068 0.0000 ( 14479 PWs)   bands (ev):

   -77.1167 -48.4774 -48.3248 -48.3141 -22.5871 -22.4883 -18.8433 -18.3548
   -14.5518 -14.4345 -11.1728 -10.6320 -10.3796 -10.2690  -9.5394  -8.8886
    -8.5682  -7.6681  -7.2249  -6.0310  -5.8234

     occupation numbers 
     1.0000   1.0000   1.0000   1.0000   1.0000   1.0000   1.0000   1.0000
     1.0000   1.0000   1.0000   1.0000   1.0000   1.0000   1.0000   1.0000
     1.0000   1.0000   1.0000   1.0000   1.0000

          k =-0.3636 0.3102 0.0000 ( 14484 PWs)   bands (ev):

   -77.1128 -48.4968 -48.3411 -48.3090 -22.1980 -22.0964 -18.6250 -18.2199
   -15.0251 -14.9079 -11.0835 -10.9982 -10.7297 -10.2760  -9.6859  -9.0347
    -8.6005  -7.9340  -7.2698  -6.4063  -5.5792

     occupation numbers 
     1.0000   1.0000   1.0000   1.0000   1.0000   1.0000   1.0000   1.0000
     1.0000   1.0000   1.0000   1.0000   1.0000   1.0000   1.0000   1.0000
     1.0000   1.0000   1.0000   1.0000   1.0000

          k =-0.3636-0.7238 0.0000 ( 14456 PWs)   bands (ev):

   -77.1091 -48.4940 -48.3771 -48.3043 -21.8184 -21.7135 -18.4244 -18.0853
   -15.0897 -14.9723 -12.2897 -12.1901 -10.3573  -9.9254  -9.6413  -9.1091
    -8.6266  -8.1930  -7.3585  -7.1767  -5.3329

     occupation numbers 
     1.0000   1.0000   1.0000   1.0000   1.0000   1.0000   1.0000   1.0000
     1.0000   1.0000   1.0000   1.0000   1.0000   1.0000   1.0000   1.0000
     1.0000   1.0000   1.0000   1.0000   1.0000

          k =-0.3636-0.6204 0.0000 ( 14455 PWs)   bands (ev):

   -77.1070 -48.4690 -48.4219 -48.3016 -21.5856 -21.4784 -18.3013 -17.9936
   -14.7183 -14.5997 -13.4682 -13.3697  -9.9534  -9.6584  -9.5316  -8.8976
    -8.8214  -8.3732  -8.0530  -7.3701  -5.1253

     occupation numbers 
     1.0000   1.0000   1.0000   1.0000   1.0000   1.0000   1.0000   1.0000
     1.0000   1.0000   1.0000   1.0000   1.0000   1.0000   1.0000   1.0000
     1.0000   1.0000   1.0000   1.0000   1.0000

          k =-0.3636-0.5170 0.0000 ( 14455 PWs)   bands (ev):

   -77.1070 -48.4689 -48.4220 -48.3016 -21.5857 -21.4784 -18.3012 -17.9937
   -14.7170 -14.6002 -13.4696 -13.3692  -9.9533  -9.6582  -9.5317  -8.8975
    -8.8218  -8.3728  -8.0530  -7.3701  -5.1254

     occupation numbers 
     1.0000   1.0000   1.0000   1.0000   1.0000   1.0000   1.0000   1.0000
     1.0000   1.0000   1.0000   1.0000   1.0000   1.0000   1.0000   1.0000
     1.0000   1.0000   1.0000   1.0000   1.0000

          k =-0.3636-0.4136 0.0000 ( 14456 PWs)   bands (ev):

   -77.1091 -48.4939 -48.3772 -48.3043 -21.8186 -21.7134 -18.4242 -18.0856
   -15.0881 -14.9729 -12.2915 -12.1894 -10.3571  -9.9256  -9.6412  -9.1094
    -8.6264  -8.1924  -7.3583  -7.1767  -5.3332

     occupation numbers 
     1.0000   1.0000   1.0000   1.0000   1.0000   1.0000   1.0000   1.0000
     1.0000   1.0000   1.0000   1.0000   1.0000   1.0000   1.0000   1.0000
     1.0000   1.0000   1.0000   1.0000   1.0000

          k =-0.3636-0.3102 0.0000 ( 14484 PWs)   bands (ev):

   -77.1128 -48.4967 -48.3412 -48.3090 -22.1982 -22.0963 -18.6248 -18.2202
   -15.0236 -14.9085 -11.0851 -10.9979 -10.7295 -10.2764  -9.6860  -9.0346
    -8.6003  -7.9335  -7.2691  -6.4062  -5.5800

     occupation numbers 
     1.0000   1.0000   1.0000   1.0000   1.0000   1.0000   1.0000   1.0000
     1.0000   1.0000   1.0000   1.0000   1.0000   1.0000   1.0000   1.0000
     1.0000   1.0000   1.0000   1.0000   1.0000

          k =-0.2727-0.1551 0.0000 ( 14551 PWs)   bands (ev):

   -77.1261 -48.4101 -48.3262 -48.3081 -23.3267 -23.2315 -19.3288 -18.6615
   -13.1328 -12.9703 -11.7334 -11.1945 -10.0378  -9.9227  -9.1244  -8.6528
    -8.1588  -7.2116  -6.8999  -6.3438  -5.6830

     occupation numbers 
     1.0000   1.0000   1.0000   1.0000   1.0000   1.0000   1.0000   1.0000
     1.0000   1.0000   1.0000   1.0000   1.0000   1.0000   1.0000   1.0000
     1.0000   1.0000   1.0000   1.0000   1.0000

          k =-0.2727-0.0517 0.0000 ( 14554 PWs)   bands (ev):

   -77.1295 -48.3769 -48.3306 -48.3104 -23.5650 -23.4710 -19.5012 -18.7728
   -12.6782 -12.3280 -11.6745 -11.3093 -10.1465 -10.0362  -9.1525  -8.3498
    -7.9728  -7.2702  -6.5409  -6.4857  -5.5951

     occupation numbers 
     1.0000   1.0000   1.0000   1.0000   1.0000   1.0000   1.0000   1.0000
     1.0000   1.0000   1.0000   1.0000   1.0000   1.0000   1.0000   1.0000
     1.0000   1.0000   1.0000   1.0000   1.0000

          k =-0.2727 0.0517 0.0000 ( 14554 PWs)   bands (ev):

   -77.1295 -48.3769 -48.3306 -48.3103 -23.5650 -23.4710 -19.5012 -18.7728
   -12.6784 -12.3282 -11.6747 -11.3093 -10.1453 -10.0367  -9.1525  -8.3499
    -7.9723  -7.2708  -6.5408  -6.4861  -5.5948

     occupation numbers 
     1.0000   1.0000   1.0000   1.0000   1.0000   1.0000   1.0000   1.0000
     1.0000   1.0000   1.0000   1.0000   1.0000   1.0000   1.0000   1.0000
     1.0000   1.0000   1.0000   1.0000   1.0000

          k =-0.2727 0.1551 0.0000 ( 14551 PWs)   bands (ev):

   -77.1261 -48.4102 -48.3262 -48.3080 -23.3266 -23.2316 -19.3289 -18.6613
   -13.1338 -12.9702 -11.7336 -11.1943 -10.0355  -9.9236  -9.1247  -8.6529
    -8.1581  -7.2122  -6.9010  -6.3438  -5.6821

     occupation numbers 
     1.0000   1.0000   1.0000   1.0000   1.0000   1.0000   1.0000   1.0000
     1.0000   1.0000   1.0000   1.0000   1.0000   1.0000   1.0000   1.0000
     1.0000   1.0000   1.0000   1.0000   1.0000

          k =-0.2727 0.2585 0.0000 ( 14499 PWs)   bands (ev):

   -77.1204 -48.4475 -48.3229 -48.3186 -22.8852 -22.7881 -19.0283 -18.4670
   -13.8436 -13.7200 -11.4035 -10.8719 -10.6494 -10.5494  -9.1604  -8.8270
    -8.3645  -7.7282  -6.9374  -6.4121  -5.6590

     occupation numbers 
     1.0000   1.0000   1.0000   1.0000   1.0000   1.0000   1.0000   1.0000
     1.0000   1.0000   1.0000   1.0000   1.0000   1.0000   1.0000   1.0000
     1.0000   1.0000   1.0000   1.0000   1.0000

          k =-0.2727 0.3619 0.0000 ( 14446 PWs)   bands (ev):

   -77.1142 -48.4732 -48.3537 -48.3107 -22.3276 -22.2270 -18.6872 -18.2462
   -14.4141 -14.2962 -11.8509 -11.7509 -10.8667 -10.3104  -9.2829  -8.8625
    -8.6627  -8.0456  -7.0907  -6.9652  -5.4664

     occupation numbers 
     1.0000   1.0000   1.0000   1.0000   1.0000   1.0000   1.0000   1.0000
     1.0000   1.0000   1.0000   1.0000   1.0000   1.0000   1.0000   1.0000
     1.0000   1.0000   1.0000   1.0000   1.0000

          k =-0.2727-0.6721 0.0000 ( 14474 PWs)   bands (ev):

   -77.1094 -48.4812 -48.3889 -48.3046 -21.8217 -21.7168 -18.4199 -18.0732
   -14.7193 -14.6018 -12.9158 -12.8158 -10.3417  -9.7927  -9.3733  -9.1434
    -8.5825  -8.3144  -7.6806  -7.2878  -5.2357

     occupation numbers 
     1.0000   1.0000   1.0000   1.0000   1.0000   1.0000   1.0000   1.0000
     1.0000   1.0000   1.0000   1.0000   1.0000   1.0000   1.0000   1.0000
     1.0000   1.0000   1.0000   1.0000   1.0000

          k =-0.2727-0.5687 0.0000 ( 14432 PWs)   bands (ev):

   -77.1076 -48.4796 -48.4066 -48.3023 -21.6078 -21.5004 -18.3202 -18.0087
   -14.7882 -14.6714 -13.3698 -13.2687  -9.9682  -9.6637  -9.5390  -8.9191
    -8.8068  -8.3671  -8.0518  -7.3564  -5.1200

     occupation numbers 
     1.0000   1.0000   1.0000   1.0000   1.0000   1.0000   1.0000   1.0000
     1.0000   1.0000   1.0000   1.0000   1.0000   1.0000   1.0000   1.0000
     1.0000   1.0000   1.0000   1.0000   1.0000

          k =-0.2727-0.4653 0.0000 ( 14474 PWs)   bands (ev):

   -77.1094 -48.4812 -48.3889 -48.3046 -21.8219 -21.7167 -18.4198 -18.0734
   -14.7180 -14.6023 -12.9174 -12.8151 -10.3417  -9.7923  -9.3732  -9.1439
    -8.5825  -8.3141  -7.6805  -7.2876  -5.2359

     occupation numbers 
     1.0000   1.0000   1.0000   1.0000   1.0000   1.0000   1.0000   1.0000
     1.0000   1.0000   1.0000   1.0000   1.0000   1.0000   1.0000   1.0000
     1.0000   1.0000   1.0000   1.0000   1.0000

          k =-0.2727-0.3619 0.0000 ( 14446 PWs)   bands (ev):

   -77.1142 -48.4731 -48.3538 -48.3107 -22.3277 -22.2269 -18.6870 -18.2465
   -14.4124 -14.2968 -11.8530 -11.7502 -10.8666 -10.3107  -9.2826  -8.8624
    -8.6626  -8.0455  -7.0901  -6.9653  -5.4670

     occupation numbers 
     1.0000   1.0000   1.0000   1.0000   1.0000   1.0000   1.0000   1.0000
     1.0000   1.0000   1.0000   1.0000   1.0000   1.0000   1.0000   1.0000
     1.0000   1.0000   1.0000   1.0000   1.0000

          k =-0.2727-0.2585 0.0000 ( 14499 PWs)   bands (ev):

   -77.1204 -48.4475 -48.3230 -48.3186 -22.8853 -22.7880 -19.0281 -18.4672
   -13.8421 -13.7205 -11.4034 -10.8724 -10.6514 -10.5486  -9.1600  -8.8270
    -8.3647  -7.7278  -6.9364  -6.4119  -5.6602

     occupation numbers 
     1.0000   1.0000   1.0000   1.0000   1.0000   1.0000   1.0000   1.0000
     1.0000   1.0000   1.0000   1.0000   1.0000   1.0000   1.0000   1.0000
     1.0000   1.0000   1.0000   1.0000   1.0000

          k =-0.1818-0.1034 0.0000 ( 14557 PWs)   bands (ev):

   -77.1363 -48.3396 -48.3374 -48.2886 -23.9622 -23.8694 -19.8095 -18.9773
   -12.7401 -11.9744 -11.1014 -10.9882  -9.6187  -9.5016  -9.3826  -7.9043
    -7.8645  -6.6909  -6.5570  -6.4897  -5.4931

     occupation numbers 
     1.0000   1.0000   1.0000   1.0000   1.0000   1.0000   1.0000   1.0000
     1.0000   1.0000   1.0000   1.0000   1.0000   1.0000   1.0000   1.0000
     1.0000   1.0000   1.0000   1.0000   1.0000

          k =-0.1818 0.0000 0.0000 ( 14573 PWs)   bands (ev):

   -77.1386 -48.3422 -48.3111 -48.2944 -24.0940 -24.0017 -19.9143 -19.0466
   -12.8353 -12.0180 -10.6446 -10.5284  -9.6267  -9.5254  -9.4083  -7.8411
    -7.6511  -6.8083  -6.5710  -6.2102  -5.4691

     occupation numbers 
     1.0000   1.0000   1.0000   1.0000   1.0000   1.0000   1.0000   1.0000
     1.0000   1.0000   1.0000   1.0000   1.0000   1.0000   1.0000   1.0000
     1.0000   1.0000   1.0000   1.0000   1.0000

          k =-0.1818 0.1034 0.0000 ( 14557 PWs)   bands (ev):

   -77.1363 -48.3396 -48.3375 -48.2885 -23.9622 -23.8695 -19.8095 -18.9772
   -12.7401 -11.9744 -11.1033 -10.9875  -9.6161  -9.5026  -9.3827  -7.9041
    -7.8645  -6.6906  -6.5576  -6.4904  -5.4926

     occupation numbers 
     1.0000   1.0000   1.0000   1.0000   1.0000   1.0000   1.0000   1.0000
     1.0000   1.0000   1.0000   1.0000   1.0000   1.0000   1.0000   1.0000
     1.0000   1.0000   1.0000   1.0000   1.0000

          k =-0.1818 0.2068 0.0000 ( 14545 PWs)   bands (ev):

   -77.1302 -48.3854 -48.3313 -48.2967 -23.5809 -23.4869 -19.5173 -18.7845
   -12.7022 -12.3512 -11.6860 -11.3169 -10.1231 -10.0135  -9.1655  -8.3508
    -7.9621  -7.2572  -6.5316  -6.5043  -5.5761

     occupation numbers 
     1.0000   1.0000   1.0000   1.0000   1.0000   1.0000   1.0000   1.0000
     1.0000   1.0000   1.0000   1.0000   1.0000   1.0000   1.0000   1.0000
     1.0000   1.0000   1.0000   1.0000   1.0000

          k =-0.1818 0.3102 0.0000 ( 14487 PWs)   bands (ev):

   -77.1222 -48.4372 -48.3211 -48.3178 -23.0018 -22.9051 -19.1076 -18.5170
   -13.4795 -13.3447 -11.4507 -11.0101 -10.9304 -10.8390  -8.9522  -8.8246
    -8.1148  -7.9815  -6.7030  -6.6059  -5.6119

     occupation numbers 
     1.0000   1.0000   1.0000   1.0000   1.0000   1.0000   1.0000   1.0000
     1.0000   1.0000   1.0000   1.0000   1.0000   1.0000   1.0000   1.0000
     1.0000   1.0000   1.0000   1.0000   1.0000

          k =-0.1818 0.4136 0.0000 ( 14478 PWs)   bands (ev):

   -77.1149 -48.4805 -48.3412 -48.3115 -22.3447 -22.2439 -18.7047 -18.2612
   -14.4921 -14.3750 -11.7396 -11.6389 -10.8736 -10.3205  -9.3159  -8.8789
    -8.6611  -8.0567  -7.0575  -6.9191  -5.4787

     occupation numbers 
     1.0000   1.0000   1.0000   1.0000   1.0000   1.0000   1.0000   1.0000
     1.0000   1.0000   1.0000   1.0000   1.0000   1.0000   1.0000   1.0000
     1.0000   1.0000   1.0000   1.0000   1.0000

          k =-0.1818-0.6204 0.0000 ( 14479 PWs)   bands (ev):

   -77.1105 -48.5050 -48.3562 -48.3058 -21.8573 -21.7519 -18.4617 -18.1168
   -15.1882 -15.0711 -12.1274 -12.0256 -10.3734  -9.9472  -9.6671  -9.1419
    -8.6301  -8.2133  -7.2997  -7.1288  -5.3423

     occupation numbers 
     1.0000   1.0000   1.0000   1.0000   1.0000   1.0000   1.0000   1.0000
     1.0000   1.0000   1.0000   1.0000   1.0000   1.0000   1.0000   1.0000
     1.0000   1.0000   1.0000   1.0000   1.0000

          k =-0.1818-0.5170 0.0000 ( 14479 PWs)   bands (ev):

   -77.1105 -48.5050 -48.3562 -48.3058 -21.8573 -21.7519 -18.4616 -18.1168
   -15.1879 -15.0712 -12.1278 -12.0255 -10.3734  -9.9470  -9.6669  -9.1426
    -8.6300  -8.2131  -7.2995  -7.1287  -5.3425

     occupation numbers 
     1.0000   1.0000   1.0000   1.0000   1.0000   1.0000   1.0000   1.0000
     1.0000   1.0000   1.0000   1.0000   1.0000   1.0000   1.0000   1.0000
     1.0000   1.0000   1.0000   1.0000   1.0000

          k =-0.1818-0.4136 0.0000 ( 14478 PWs)   bands (ev):

   -77.1149 -48.4804 -48.3413 -48.3115 -22.3448 -22.2438 -18.7046 -18.2614
   -14.4912 -14.3753 -11.7408 -11.6384 -10.8736 -10.3205  -9.3156  -8.8788
    -8.6610  -8.0569  -7.0569  -6.9189  -5.4794

     occupation numbers 
     1.0000   1.0000   1.0000   1.0000   1.0000   1.0000   1.0000   1.0000
     1.0000   1.0000   1.0000   1.0000   1.0000   1.0000   1.0000   1.0000
     1.0000   1.0000   1.0000   1.0000   1.0000

          k =-0.1818-0.3102 0.0000 ( 14487 PWs)   bands (ev):

   -77.1222 -48.4371 -48.3211 -48.3178 -23.0018 -22.9051 -19.1075 -18.5172
   -13.4782 -13.3450 -11.4506 -11.0119 -10.9302 -10.8388  -8.9519  -8.8244
    -8.1145  -7.9817  -6.7022  -6.6058  -5.6130

     occupation numbers 
     1.0000   1.0000   1.0000   1.0000   1.0000   1.0000   1.0000   1.0000
     1.0000   1.0000   1.0000   1.0000   1.0000   1.0000   1.0000   1.0000
     1.0000   1.0000   1.0000   1.0000   1.0000

          k =-0.1818-0.2068 0.0000 ( 14545 PWs)   bands (ev):

   -77.1302 -48.3853 -48.3313 -48.2968 -23.5810 -23.4869 -19.5172 -18.7846
   -12.7017 -12.3508 -11.6855 -11.3170 -10.1258 -10.0125  -9.1654  -8.3503
    -7.9630  -7.2562  -6.5317  -6.5036  -5.5771

     occupation numbers 
     1.0000   1.0000   1.0000   1.0000   1.0000   1.0000   1.0000   1.0000
     1.0000   1.0000   1.0000   1.0000   1.0000   1.0000   1.0000   1.0000
     1.0000   1.0000   1.0000   1.0000   1.0000

          k =-0.0909-0.0517 0.0000 ( 14561 PWs)   bands (ev):

   -77.1441 -48.3492 -48.2907 -48.2650 -24.3751 -24.2835 -20.1466 -19.2018
   -13.0925 -12.2103  -9.8288  -9.6602  -9.4883  -9.2469  -9.1273  -7.8042
    -7.2407  -6.9418  -6.1401  -6.1061  -5.4966

     occupation numbers 
     1.0000   1.0000   1.0000   1.0000   1.0000   1.0000   1.0000   1.0000
     1.0000   1.0000   1.0000   1.0000   1.0000   1.0000   1.0000   1.0000
     1.0000   1.0000   1.0000   1.0000   1.0000

          k =-0.0909 0.0517 0.0000 ( 14561 PWs)   bands (ev):

   -77.1441 -48.3492 -48.2907 -48.2649 -24.3751 -24.2835 -20.1466 -19.2017
   -13.0925 -12.2102  -9.8297  -9.6613  -9.4881  -9.2438  -9.1285  -7.8040
    -7.2413  -6.9413  -6.1428  -6.1037  -5.4965

     occupation numbers 
     1.0000   1.0000   1.0000   1.0000   1.0000   1.0000   1.0000   1.0000
     1.0000   1.0000   1.0000   1.0000   1.0000   1.0000   1.0000   1.0000
     1.0000   1.0000   1.0000   1.0000   1.0000

          k =-0.0909 0.1551 0.0000 ( 14541 PWs)   bands (ev):

   -77.1391 -48.3429 -48.3319 -48.2694 -24.1043 -24.0120 -19.9253 -19.0548
   -12.8507 -12.0326 -10.7443 -10.6301  -9.5397  -9.4475  -9.3469  -7.8378
    -7.7128  -6.7246  -6.5716  -6.2114  -5.4734

     occupation numbers 
     1.0000   1.0000   1.0000   1.0000   1.0000   1.0000   1.0000   1.0000
     1.0000   1.0000   1.0000   1.0000   1.0000   1.0000   1.0000   1.0000
     1.0000   1.0000   1.0000   1.0000   1.0000

          k =-0.0909 0.2585 0.0000 ( 14530 PWs)   bands (ev):

   -77.1308 -48.3943 -48.3319 -48.2839 -23.5914 -23.4973 -19.5284 -18.7935
   -12.7563 -12.4312 -11.7378 -11.3409  -9.9994  -9.8871  -9.1732  -8.3884
    -7.9637  -7.2662  -6.4905  -6.4693  -5.5914

     occupation numbers 
     1.0000   1.0000   1.0000   1.0000   1.0000   1.0000   1.0000   1.0000
     1.0000   1.0000   1.0000   1.0000   1.0000   1.0000   1.0000   1.0000
     1.0000   1.0000   1.0000   1.0000   1.0000

          k =-0.0909 0.3619 0.0000 ( 14507 PWs)   bands (ev):

   -77.1217 -48.4598 -48.3201 -48.3013 -22.9123 -22.8149 -19.0566 -18.4905
   -13.9660 -13.8440 -11.4260 -10.8794 -10.4702 -10.3619  -9.2047  -8.8567
    -8.3674  -7.7521  -6.8797  -6.3251  -5.6880

     occupation numbers 
     1.0000   1.0000   1.0000   1.0000   1.0000   1.0000   1.0000   1.0000
     1.0000   1.0000   1.0000   1.0000   1.0000   1.0000   1.0000   1.0000
     1.0000   1.0000   1.0000   1.0000   1.0000

          k =-0.0909 0.4653 0.0000 ( 14482 PWs)   bands (ev):

   -77.1147 -48.5090 -48.3150 -48.3111 -22.2458 -22.1437 -18.6731 -18.2607
   -15.1430 -15.0259 -10.9567 -10.8281 -10.6353 -10.2898  -9.7342  -9.0688
    -8.6133  -7.9636  -7.1889  -6.3275  -5.5961

     occupation numbers 
     1.0000   1.0000   1.0000   1.0000   1.0000   1.0000   1.0000   1.0000
     1.0000   1.0000   1.0000   1.0000   1.0000   1.0000   1.0000   1.0000
     1.0000   1.0000   1.0000   1.0000   1.0000

          k =-0.0909-0.5687 0.0000 ( 14530 PWs)   bands (ev):

   -77.1121 -48.5273 -48.3202 -48.3077 -21.9397 -21.8344 -18.5342 -18.1881
   -15.6136 -15.4936 -10.9738 -10.9008 -10.4896 -10.2272  -9.7995  -9.2902
    -8.5616  -8.0995  -7.2855  -6.3442  -5.5437

     occupation numbers 
     1.0000   1.0000   1.0000   1.0000   1.0000   1.0000   1.0000   1.0000
     1.0000   1.0000   1.0000   1.0000   1.0000   1.0000   1.0000   1.0000
     1.0000   1.0000   1.0000   1.0000   1.0000

          k =-0.0909-0.4653 0.0000 ( 14482 PWs)   bands (ev):

   -77.1147 -48.5090 -48.3150 -48.3111 -22.2459 -22.1437 -18.6731 -18.2608
   -15.1428 -15.0260 -10.9569 -10.8281 -10.6353 -10.2897  -9.7341  -9.0689
    -8.6134  -7.9637  -7.1886  -6.3269  -5.5969

     occupation numbers 
     1.0000   1.0000   1.0000   1.0000   1.0000   1.0000   1.0000   1.0000
     1.0000   1.0000   1.0000   1.0000   1.0000   1.0000   1.0000   1.0000
     1.0000   1.0000   1.0000   1.0000   1.0000

          k =-0.0909-0.3619 0.0000 ( 14507 PWs)   bands (ev):

   -77.1217 -48.4597 -48.3201 -48.3013 -22.9123 -22.8149 -19.0565 -18.4906
   -13.9656 -13.8442 -11.4260 -10.8796 -10.4706 -10.3617  -9.2045  -8.8567
    -8.3672  -7.7526  -6.8791  -6.3245  -5.6892

     occupation numbers 
     1.0000   1.0000   1.0000   1.0000   1.0000   1.0000   1.0000   1.0000
     1.0000   1.0000   1.0000   1.0000   1.0000   1.0000   1.0000   1.0000
     1.0000   1.0000   1.0000   1.0000   1.0000

          k =-0.0909-0.2585 0.0000 ( 14530 PWs)   bands (ev):

   -77.1308 -48.3943 -48.3319 -48.2839 -23.5914 -23.4973 -19.5283 -18.7936
   -12.7560 -12.4310 -11.7377 -11.3410 -10.0007  -9.8866  -9.1731  -8.3881
    -7.9640  -7.2658  -6.4903  -6.4692  -5.5921

     occupation numbers 
     1.0000   1.0000   1.0000   1.0000   1.0000   1.0000   1.0000   1.0000
     1.0000   1.0000   1.0000   1.0000   1.0000   1.0000   1.0000   1.0000
     1.0000   1.0000   1.0000   1.0000   1.0000

          k =-0.0909-0.1551 0.0000 ( 14541 PWs)   bands (ev):

   -77.1391 -48.3429 -48.3318 -48.2695 -24.1043 -24.0120 -19.9253 -19.0549
   -12.8507 -12.0327 -10.7424 -10.6308  -9.5408  -9.4485  -9.3462  -7.8383
    -7.7123  -6.7250  -6.5705  -6.2118  -5.4737

     occupation numbers 
     1.0000   1.0000   1.0000   1.0000   1.0000   1.0000   1.0000   1.0000
     1.0000   1.0000   1.0000   1.0000   1.0000   1.0000   1.0000   1.0000
     1.0000   1.0000   1.0000   1.0000   1.0000

     highest occupied level (ev):    -5.1200

!    total energy              =    -263.13368874 Ry
     estimated scf accuracy    <          6.9E-11 Ry

     The total energy is the sum of the following terms:
     one-electron contribution =   -5942.68336101 Ry
     hartree contribution      =    2968.41914490 Ry
     xc contribution           =     -43.99798352 Ry
     ewald contribution        =    2755.12851088 Ry

     convergence has been achieved in  35 iterations

     Forces acting on atoms (cartesian axes, Ry/au):

     atom    1 type  1   force =    -0.00006164   -0.00122894   -0.00458976
     atom    2 type  2   force =     0.00001830    0.00016967    0.01411607
     atom    3 type  2   force =     0.00008314    0.00128531   -0.01352127
     atom    4 type  2   force =     0.00014049    0.00390906   -0.07816095
     atom    5 type  2   force =     0.00007909   -0.00441495    0.08552874
     atom    6 type  3   force =    -0.00003554    0.00529671    0.06597235
     atom    7 type  3   force =    -0.00022384   -0.00501686   -0.06934518
     The non-local contrib.  to forces
     atom    1 type  1   force =    -0.00010540   -0.00440123   -0.00663621
     atom    2 type  2   force =    -0.00008960   -0.00818576   -0.11809071
     atom    3 type  2   force =    -0.00004188   -0.00164386    0.10157950
     atom    4 type  2   force =    -0.00034390    0.01346395   -1.14662934
     atom    5 type  2   force =    -0.00025194   -0.01337799    1.14924890
     atom    6 type  3   force =    -0.00037335   -0.00869035    0.21485361
     atom    7 type  3   force =    -0.00086631    0.01148780   -0.22688674
     The ionic contribution  to forces
     atom    1 type  1   force =    -0.00274599   -0.23354208    0.07653789
     atom    2 type  2   force =     0.00122313    0.11779789  -45.29069829
     atom    3 type  2   force =     0.00126376    0.11323349   45.23761564
     atom    4 type  2   force =     0.00141214   -0.03712179   90.76276442
     atom    5 type  2   force =     0.00061483    0.03364871  -90.79250869
     atom    6 type  3   force =    -0.00047477   -0.03276786  -60.94481503
     atom    7 type  3   force =    -0.00129311    0.03875164   60.95110406
     The local contribution  to forces
     atom    1 type  1   force =     0.00264694    0.23677944   -0.07440362
     atom    2 type  2   force =    -0.00125801   -0.10937734   45.42300756
     atom    3 type  2   force =    -0.00128152   -0.11023918  -45.35263970
     atom    4 type  2   force =    -0.00107053    0.02763211  -89.69420813
     atom    5 type  2   force =    -0.00042657   -0.02462045   89.72888036
     atom    6 type  3   force =     0.00066980    0.04682013   60.79602651
     atom    7 type  3   force =     0.00179281   -0.05519107  -60.79347507
     The core correction contribution to forces
     atom    1 type  1   force =     0.00000000    0.00000000    0.00000000
     atom    2 type  2   force =     0.00000000    0.00000000    0.00000000
     atom    3 type  2   force =     0.00000000    0.00000000    0.00000000
     atom    4 type  2   force =     0.00000000    0.00000000    0.00000000
     atom    5 type  2   force =     0.00000000    0.00000000    0.00000000
     atom    6 type  3   force =     0.00000000    0.00000000    0.00000000
     atom    7 type  3   force =     0.00000000    0.00000000    0.00000000
     The Hubbard contrib.    to forces
     atom    1 type  1   force =     0.00000000    0.00000000    0.00000000
     atom    2 type  2   force =     0.00000000    0.00000000    0.00000000
     atom    3 type  2   force =     0.00000000    0.00000000    0.00000000
     atom    4 type  2   force =     0.00000000    0.00000000    0.00000000
     atom    5 type  2   force =     0.00000000    0.00000000    0.00000000
     atom    6 type  3   force =     0.00000000    0.00000000    0.00000000
     atom    7 type  3   force =     0.00000000    0.00000000    0.00000000
     The SCF correction term to forces
     atom    1 type  1   force =     0.00000003    0.00000015    0.00000135
     atom    2 type  2   force =    -0.00000000    0.00000009   -0.00001332
     atom    3 type  2   force =    -0.00000000    0.00000007    0.00001246
     atom    4 type  2   force =    -0.00000000    0.00000000    0.00000127
     atom    5 type  2   force =     0.00000000    0.00000000   -0.00000267
     atom    6 type  3   force =    -0.00000000    0.00000000   -0.00000358
     atom    7 type  3   force =    -0.00000000   -0.00000000    0.00000174

     Total force =     0.151920     Total SCF correction =     0.000019
     Energy error            =      4.5E-02 Ry
     Gradient error          =      8.6E-02 Ry/Bohr

     number of scf cycles    =   4
     number of bfgs steps    =   3

     energy             old  =    -263.0886998802 Ry
     energy             new  =    -263.1336887440 Ry

     CASE: energy            _new < energy            _old

     new trust radius        =       0.2192614314 bohr
     new conv_thr            =            8.6E-11 Ry


ATOMIC_POSITIONS (angstrom)
Cr               2.2013345902        0.3569391206       11.0290194437
N                0.8001558949        1.1687857227        9.7245373839
N                0.8002083922        1.1721774581       12.3148424296
N                2.2006727837        0.3432664692       15.0407985761
N               -0.6002636591        2.0026809811        7.0490015311
Si               0.8006558790        1.1663311919        7.7335714624
Si               0.8004936748        1.1785844999       14.3643758364



     Writing config-only to output data dir ./tmp/crsi2n4.save/ :
     XML data file
     NEW-OLD atomic charge density approx. for the potential

     negative rho (up, down):  2.193E-04 0.000E+00

     total cpu time spent up to now is     2200.3 secs

     Self-consistent Calculation
[tb_dev] Currently allocated     0.00E+00 Mbytes, locked:    0 /   0
[tb_pin] Currently allocated     0.00E+00 Mbytes, locked:    0 /   0

     iteration #  1     ecut=    80.00 Ry     beta= 0.40
     Davidson diagonalization with overlap

---- Real-time Memory Report at c_bands before calling an iterative solver
          1403 MiB given to the printing process from OS
             0 MiB allocation reported by mallinfo(arena+hblkhd)
         15905 MiB available memory on the node where the printing process lives
     GPU memory used/free/total (MiB): 1213 / 10700 / 11914
------------------
     ethr =  1.00E-06,  avg # of iterations = 13.6

     negative rho (up, down):  5.032E-05 0.000E+00

     total cpu time spent up to now is     2244.7 secs

     total energy              =    -263.19449613 Ry
     estimated scf accuracy    <       0.01603080 Ry
[tb_dev] Currently allocated     2.67E-05 Mbytes, locked:    0 /   1
[tb_pin] Currently allocated     0.00E+00 Mbytes, locked:    0 /   0

     iteration #  2     ecut=    80.00 Ry     beta= 0.40
     Davidson diagonalization with overlap

---- Real-time Memory Report at c_bands before calling an iterative solver
          1403 MiB given to the printing process from OS
             0 MiB allocation reported by mallinfo(arena+hblkhd)
         15908 MiB available memory on the node where the printing process lives
     GPU memory used/free/total (MiB): 1213 / 10700 / 11914
------------------
     ethr =  3.82E-05,  avg # of iterations =  5.0

     negative rho (up, down):  2.780E-05 0.000E+00

     total cpu time spent up to now is     2261.1 secs

     total energy              =    -263.19372438 Ry
     estimated scf accuracy    <       0.01687089 Ry
[tb_dev] Currently allocated     2.67E-05 Mbytes, locked:    0 /   1
[tb_pin] Currently allocated     0.00E+00 Mbytes, locked:    0 /   0

     iteration #  3     ecut=    80.00 Ry     beta= 0.40
     Davidson diagonalization with overlap

---- Real-time Memory Report at c_bands before calling an iterative solver
          1403 MiB given to the printing process from OS
             0 MiB allocation reported by mallinfo(arena+hblkhd)
         15917 MiB available memory on the node where the printing process lives
     GPU memory used/free/total (MiB): 1213 / 10700 / 11914
------------------
     ethr =  3.82E-05,  avg # of iterations =  5.2

     negative rho (up, down):  5.508E-06 0.000E+00

     total cpu time spent up to now is     2276.8 secs

     total energy              =    -263.19519462 Ry
     estimated scf accuracy    <       0.00792359 Ry
[tb_dev] Currently allocated     2.67E-05 Mbytes, locked:    0 /   1
[tb_pin] Currently allocated     0.00E+00 Mbytes, locked:    0 /   0

     iteration #  4     ecut=    80.00 Ry     beta= 0.40
     Davidson diagonalization with overlap

---- Real-time Memory Report at c_bands before calling an iterative solver
          1403 MiB given to the printing process from OS
             0 MiB allocation reported by mallinfo(arena+hblkhd)
         15915 MiB available memory on the node where the printing process lives
     GPU memory used/free/total (MiB): 1213 / 10700 / 11914
------------------
     ethr =  1.89E-05,  avg # of iterations =  5.8

     negative rho (up, down):  1.678E-06 0.000E+00

     total cpu time spent up to now is     2292.9 secs

     total energy              =    -263.19547630 Ry
     estimated scf accuracy    <       0.01170389 Ry
[tb_dev] Currently allocated     2.67E-05 Mbytes, locked:    0 /   1
[tb_pin] Currently allocated     0.00E+00 Mbytes, locked:    0 /   0

     iteration #  5     ecut=    80.00 Ry     beta= 0.40
     Davidson diagonalization with overlap

---- Real-time Memory Report at c_bands before calling an iterative solver
          1403 MiB given to the printing process from OS
             0 MiB allocation reported by mallinfo(arena+hblkhd)
         15915 MiB available memory on the node where the printing process lives
     GPU memory used/free/total (MiB): 1213 / 10700 / 11914
------------------
     ethr =  1.89E-05,  avg # of iterations =  5.5

     negative rho (up, down):  2.111E-07 0.000E+00

     total cpu time spent up to now is     2309.3 secs

     total energy              =    -263.19675354 Ry
     estimated scf accuracy    <       0.00018070 Ry
[tb_dev] Currently allocated     2.67E-05 Mbytes, locked:    0 /   1
[tb_pin] Currently allocated     0.00E+00 Mbytes, locked:    0 /   0

     iteration #  6     ecut=    80.00 Ry     beta= 0.40
     Davidson diagonalization with overlap

---- Real-time Memory Report at c_bands before calling an iterative solver
          1403 MiB given to the printing process from OS
             0 MiB allocation reported by mallinfo(arena+hblkhd)
         15915 MiB available memory on the node where the printing process lives
     GPU memory used/free/total (MiB): 1213 / 10700 / 11914
------------------
     ethr =  4.30E-07,  avg # of iterations =  8.3

     negative rho (up, down):  1.634E-07 0.000E+00

     total cpu time spent up to now is     2331.3 secs

     total energy              =    -263.19686641 Ry
     estimated scf accuracy    <       0.00029839 Ry
[tb_dev] Currently allocated     2.67E-05 Mbytes, locked:    0 /   1
[tb_pin] Currently allocated     0.00E+00 Mbytes, locked:    0 /   0

     iteration #  7     ecut=    80.00 Ry     beta= 0.40
     Davidson diagonalization with overlap

---- Real-time Memory Report at c_bands before calling an iterative solver
          1403 MiB given to the printing process from OS
             0 MiB allocation reported by mallinfo(arena+hblkhd)
         15921 MiB available memory on the node where the printing process lives
     GPU memory used/free/total (MiB): 1213 / 10700 / 11914
------------------
     ethr =  4.30E-07,  avg # of iterations =  2.2

     negative rho (up, down):  2.312E-07 0.000E+00

     total cpu time spent up to now is     2341.6 secs

     total energy              =    -263.19683641 Ry
     estimated scf accuracy    <       0.00013436 Ry
[tb_dev] Currently allocated     2.67E-05 Mbytes, locked:    0 /   1
[tb_pin] Currently allocated     0.00E+00 Mbytes, locked:    0 /   0

     iteration #  8     ecut=    80.00 Ry     beta= 0.40
     Davidson diagonalization with overlap

---- Real-time Memory Report at c_bands before calling an iterative solver
          1403 MiB given to the printing process from OS
             0 MiB allocation reported by mallinfo(arena+hblkhd)
         15910 MiB available memory on the node where the printing process lives
     GPU memory used/free/total (MiB): 1213 / 10700 / 11914
------------------
     ethr =  3.20E-07,  avg # of iterations =  6.5

     negative rho (up, down):  1.286E-07 0.000E+00

     total cpu time spent up to now is     2358.8 secs

     total energy              =    -263.19687555 Ry
     estimated scf accuracy    <       0.00018909 Ry
[tb_dev] Currently allocated     2.67E-05 Mbytes, locked:    0 /   1
[tb_pin] Currently allocated     0.00E+00 Mbytes, locked:    0 /   0

     iteration #  9     ecut=    80.00 Ry     beta= 0.40
     Davidson diagonalization with overlap

---- Real-time Memory Report at c_bands before calling an iterative solver
          1403 MiB given to the printing process from OS
             0 MiB allocation reported by mallinfo(arena+hblkhd)
         15912 MiB available memory on the node where the printing process lives
     GPU memory used/free/total (MiB): 1213 / 10700 / 11914
------------------
     ethr =  3.20E-07,  avg # of iterations =  2.2

     negative rho (up, down):  7.123E-08 0.000E+00

     total cpu time spent up to now is     2369.9 secs

     total energy              =    -263.19685773 Ry
     estimated scf accuracy    <       0.00008370 Ry
[tb_dev] Currently allocated     2.67E-05 Mbytes, locked:    0 /   1
[tb_pin] Currently allocated     0.00E+00 Mbytes, locked:    0 /   0

     iteration # 10     ecut=    80.00 Ry     beta= 0.40
     Davidson diagonalization with overlap

---- Real-time Memory Report at c_bands before calling an iterative solver
          1403 MiB given to the printing process from OS
             0 MiB allocation reported by mallinfo(arena+hblkhd)
         15901 MiB available memory on the node where the printing process lives
     GPU memory used/free/total (MiB): 1213 / 10700 / 11914
------------------
     ethr =  1.99E-07,  avg # of iterations =  6.2

     negative rho (up, down):  3.533E-08 0.000E+00

     total cpu time spent up to now is     2386.3 secs

     total energy              =    -263.19687910 Ry
     estimated scf accuracy    <       0.00008344 Ry
[tb_dev] Currently allocated     2.67E-05 Mbytes, locked:    0 /   1
[tb_pin] Currently allocated     0.00E+00 Mbytes, locked:    0 /   0

     iteration # 11     ecut=    80.00 Ry     beta= 0.40
     Davidson diagonalization with overlap

---- Real-time Memory Report at c_bands before calling an iterative solver
          1403 MiB given to the printing process from OS
             0 MiB allocation reported by mallinfo(arena+hblkhd)
         15912 MiB available memory on the node where the printing process lives
     GPU memory used/free/total (MiB): 1213 / 10700 / 11914
------------------
     ethr =  1.99E-07,  avg # of iterations =  1.1

     negative rho (up, down):  1.380E-08 0.000E+00

     total cpu time spent up to now is     2395.2 secs

     total energy              =    -263.19687367 Ry
     estimated scf accuracy    <       0.00004611 Ry
[tb_dev] Currently allocated     2.67E-05 Mbytes, locked:    0 /   1
[tb_pin] Currently allocated     0.00E+00 Mbytes, locked:    0 /   0

     iteration # 12     ecut=    80.00 Ry     beta= 0.40
     Davidson diagonalization with overlap

---- Real-time Memory Report at c_bands before calling an iterative solver
          1403 MiB given to the printing process from OS
             0 MiB allocation reported by mallinfo(arena+hblkhd)
         15908 MiB available memory on the node where the printing process lives
     GPU memory used/free/total (MiB): 1213 / 10700 / 11914
------------------
     ethr =  1.10E-07,  avg # of iterations =  5.8

     total cpu time spent up to now is     2411.3 secs

     total energy              =    -263.19688175 Ry
     estimated scf accuracy    <       0.00000330 Ry
[tb_dev] Currently allocated     2.67E-05 Mbytes, locked:    0 /   1
[tb_pin] Currently allocated     0.00E+00 Mbytes, locked:    0 /   0

     iteration # 13     ecut=    80.00 Ry     beta= 0.40
     Davidson diagonalization with overlap

---- Real-time Memory Report at c_bands before calling an iterative solver
          1403 MiB given to the printing process from OS
             0 MiB allocation reported by mallinfo(arena+hblkhd)
         15911 MiB available memory on the node where the printing process lives
     GPU memory used/free/total (MiB): 1213 / 10700 / 11914
------------------
     ethr =  7.86E-09,  avg # of iterations =  4.1

     total cpu time spent up to now is     2425.0 secs

     total energy              =    -263.19688183 Ry
     estimated scf accuracy    <       0.00000491 Ry
[tb_dev] Currently allocated     2.67E-05 Mbytes, locked:    0 /   1
[tb_pin] Currently allocated     0.00E+00 Mbytes, locked:    0 /   0

     iteration # 14     ecut=    80.00 Ry     beta= 0.40
     Davidson diagonalization with overlap

---- Real-time Memory Report at c_bands before calling an iterative solver
          1403 MiB given to the printing process from OS
             0 MiB allocation reported by mallinfo(arena+hblkhd)
         15907 MiB available memory on the node where the printing process lives
     GPU memory used/free/total (MiB): 1213 / 10700 / 11914
------------------
     ethr =  7.86E-09,  avg # of iterations =  4.1

     total cpu time spent up to now is     2439.5 secs

     total energy              =    -263.19688195 Ry
     estimated scf accuracy    <       0.00000082 Ry
[tb_dev] Currently allocated     2.67E-05 Mbytes, locked:    0 /   1
[tb_pin] Currently allocated     0.00E+00 Mbytes, locked:    0 /   0

     iteration # 15     ecut=    80.00 Ry     beta= 0.40
     Davidson diagonalization with overlap

---- Real-time Memory Report at c_bands before calling an iterative solver
          1403 MiB given to the printing process from OS
             0 MiB allocation reported by mallinfo(arena+hblkhd)
         15902 MiB available memory on the node where the printing process lives
     GPU memory used/free/total (MiB): 1213 / 10700 / 11914
------------------
     ethr =  1.96E-09,  avg # of iterations =  6.0

     total cpu time spent up to now is     2455.3 secs

     total energy              =    -263.19688217 Ry
     estimated scf accuracy    <       0.00000014 Ry
[tb_dev] Currently allocated     2.67E-05 Mbytes, locked:    0 /   1
[tb_pin] Currently allocated     0.00E+00 Mbytes, locked:    0 /   0

     iteration # 16     ecut=    80.00 Ry     beta= 0.40
     Davidson diagonalization with overlap

---- Real-time Memory Report at c_bands before calling an iterative solver
          1403 MiB given to the printing process from OS
             0 MiB allocation reported by mallinfo(arena+hblkhd)
         15908 MiB available memory on the node where the printing process lives
     GPU memory used/free/total (MiB): 1213 / 10700 / 11914
------------------
     ethr =  3.23E-10,  avg # of iterations =  4.5

     total cpu time spent up to now is     2470.0 secs

     total energy              =    -263.19688211 Ry
     estimated scf accuracy    <       0.00000024 Ry
[tb_dev] Currently allocated     2.67E-05 Mbytes, locked:    0 /   1
[tb_pin] Currently allocated     0.00E+00 Mbytes, locked:    0 /   0

     iteration # 17     ecut=    80.00 Ry     beta= 0.40
     Davidson diagonalization with overlap

---- Real-time Memory Report at c_bands before calling an iterative solver
          1403 MiB given to the printing process from OS
             0 MiB allocation reported by mallinfo(arena+hblkhd)
         15903 MiB available memory on the node where the printing process lives
     GPU memory used/free/total (MiB): 1213 / 10700 / 11914
------------------
     ethr =  3.23E-10,  avg # of iterations =  6.3

     total cpu time spent up to now is     2486.6 secs

     total energy              =    -263.19688217 Ry
     estimated scf accuracy    <       0.00000012 Ry
[tb_dev] Currently allocated     2.67E-05 Mbytes, locked:    0 /   1
[tb_pin] Currently allocated     0.00E+00 Mbytes, locked:    0 /   0

     iteration # 18     ecut=    80.00 Ry     beta= 0.40
     Davidson diagonalization with overlap

---- Real-time Memory Report at c_bands before calling an iterative solver
          1403 MiB given to the printing process from OS
             0 MiB allocation reported by mallinfo(arena+hblkhd)
         15904 MiB available memory on the node where the printing process lives
     GPU memory used/free/total (MiB): 1213 / 10700 / 11914
------------------
     ethr =  2.91E-10,  avg # of iterations =  1.0

     total cpu time spent up to now is     2495.0 secs

     total energy              =    -263.19688215 Ry
     estimated scf accuracy    <       0.00000009 Ry
[tb_dev] Currently allocated     2.67E-05 Mbytes, locked:    0 /   1
[tb_pin] Currently allocated     0.00E+00 Mbytes, locked:    0 /   0

     iteration # 19     ecut=    80.00 Ry     beta= 0.40
     Davidson diagonalization with overlap

---- Real-time Memory Report at c_bands before calling an iterative solver
          1403 MiB given to the printing process from OS
             0 MiB allocation reported by mallinfo(arena+hblkhd)
         15902 MiB available memory on the node where the printing process lives
     GPU memory used/free/total (MiB): 1213 / 10700 / 11914
------------------
     ethr =  2.22E-10,  avg # of iterations =  5.5

     total cpu time spent up to now is     2511.5 secs

     total energy              =    -263.19688216 Ry
     estimated scf accuracy    <          8.1E-09 Ry
[tb_dev] Currently allocated     2.67E-05 Mbytes, locked:    0 /   1
[tb_pin] Currently allocated     0.00E+00 Mbytes, locked:    0 /   0

     iteration # 20     ecut=    80.00 Ry     beta= 0.40
     Davidson diagonalization with overlap

---- Real-time Memory Report at c_bands before calling an iterative solver
          1403 MiB given to the printing process from OS
             0 MiB allocation reported by mallinfo(arena+hblkhd)
         15909 MiB available memory on the node where the printing process lives
     GPU memory used/free/total (MiB): 1213 / 10700 / 11914
------------------
     ethr =  1.92E-11,  avg # of iterations =  7.4

     total cpu time spent up to now is     2530.2 secs

     total energy              =    -263.19688216 Ry
     estimated scf accuracy    <       0.00000005 Ry
[tb_dev] Currently allocated     2.67E-05 Mbytes, locked:    0 /   1
[tb_pin] Currently allocated     0.00E+00 Mbytes, locked:    0 /   0

     iteration # 21     ecut=    80.00 Ry     beta= 0.40
     Davidson diagonalization with overlap

---- Real-time Memory Report at c_bands before calling an iterative solver
          1403 MiB given to the printing process from OS
             0 MiB allocation reported by mallinfo(arena+hblkhd)
         15913 MiB available memory on the node where the printing process lives
     GPU memory used/free/total (MiB): 1213 / 10700 / 11914
------------------
     ethr =  1.92E-11,  avg # of iterations =  5.9

     total cpu time spent up to now is     2546.3 secs

     total energy              =    -263.19688216 Ry
     estimated scf accuracy    <          6.0E-09 Ry
[tb_dev] Currently allocated     2.67E-05 Mbytes, locked:    0 /   1
[tb_pin] Currently allocated     0.00E+00 Mbytes, locked:    0 /   0

     iteration # 22     ecut=    80.00 Ry     beta= 0.40
     Davidson diagonalization with overlap

---- Real-time Memory Report at c_bands before calling an iterative solver
          1404 MiB given to the printing process from OS
             0 MiB allocation reported by mallinfo(arena+hblkhd)
         15915 MiB available memory on the node where the printing process lives
     GPU memory used/free/total (MiB): 1213 / 10700 / 11914
------------------
     ethr =  1.42E-11,  avg # of iterations =  5.4

     total cpu time spent up to now is     2562.6 secs

     total energy              =    -263.19688216 Ry
     estimated scf accuracy    <          6.8E-10 Ry
[tb_dev] Currently allocated     2.67E-05 Mbytes, locked:    0 /   1
[tb_pin] Currently allocated     0.00E+00 Mbytes, locked:    0 /   0

     iteration # 23     ecut=    80.00 Ry     beta= 0.40
     Davidson diagonalization with overlap

---- Real-time Memory Report at c_bands before calling an iterative solver
          1404 MiB given to the printing process from OS
             0 MiB allocation reported by mallinfo(arena+hblkhd)
         15906 MiB available memory on the node where the printing process lives
     GPU memory used/free/total (MiB): 1213 / 10700 / 11914
------------------
     ethr =  1.61E-12,  avg # of iterations =  5.5

     total cpu time spent up to now is     2578.3 secs

     total energy              =    -263.19688216 Ry
     estimated scf accuracy    <          4.3E-10 Ry
[tb_dev] Currently allocated     2.67E-05 Mbytes, locked:    0 /   1
[tb_pin] Currently allocated     0.00E+00 Mbytes, locked:    0 /   0

     iteration # 24     ecut=    80.00 Ry     beta= 0.40
     Davidson diagonalization with overlap

---- Real-time Memory Report at c_bands before calling an iterative solver
          1405 MiB given to the printing process from OS
             0 MiB allocation reported by mallinfo(arena+hblkhd)
         15907 MiB available memory on the node where the printing process lives
     GPU memory used/free/total (MiB): 1213 / 10700 / 11914
------------------
     ethr =  1.03E-12,  avg # of iterations =  2.8

     total cpu time spent up to now is     2590.4 secs

     total energy              =    -263.19688216 Ry
     estimated scf accuracy    <          1.4E-10 Ry
[tb_dev] Currently allocated     2.67E-05 Mbytes, locked:    0 /   1
[tb_pin] Currently allocated     0.00E+00 Mbytes, locked:    0 /   0

     iteration # 25     ecut=    80.00 Ry     beta= 0.40
     Davidson diagonalization with overlap

---- Real-time Memory Report at c_bands before calling an iterative solver
          1405 MiB given to the printing process from OS
             0 MiB allocation reported by mallinfo(arena+hblkhd)
         15906 MiB available memory on the node where the printing process lives
     GPU memory used/free/total (MiB): 1213 / 10700 / 11914
------------------
     ethr =  3.42E-13,  avg # of iterations =  5.3

     total cpu time spent up to now is     2605.8 secs

     End of self-consistent calculation

          k = 0.0000 0.0000 0.0000 ( 14509 PWs)   bands (ev):

   -77.4497 -48.6477 -48.5980 -48.5660 -24.6167 -24.4083 -20.7823 -19.7039
   -13.5164 -12.3131  -9.9419  -9.2535  -9.0359  -9.0031  -8.7784  -7.9608
    -7.6278  -7.4790  -6.4835  -6.4593  -5.6658

     occupation numbers 
     1.0000   1.0000   1.0000   1.0000   1.0000   1.0000   1.0000   1.0000
     1.0000   1.0000   1.0000   1.0000   1.0000   1.0000   1.0000   1.0000
     1.0000   1.0000   1.0000   1.0000   1.0000

          k = 0.0000 0.1034 0.0000 ( 14525 PWs)   bands (ev):

   -77.4470 -48.6441 -48.6188 -48.5706 -24.4777 -24.2687 -20.6666 -19.6294
   -13.3843 -12.2166 -10.0041  -9.8161  -9.6068  -9.1719  -8.9158  -7.9443
    -7.8653  -7.3853  -6.6229  -6.5791  -5.6312

     occupation numbers 
     1.0000   1.0000   1.0000   1.0000   1.0000   1.0000   1.0000   1.0000
     1.0000   1.0000   1.0000   1.0000   1.0000   1.0000   1.0000   1.0000
     1.0000   1.0000   1.0000   1.0000   1.0000

          k = 0.0000 0.2068 0.0000 ( 14553 PWs)   bands (ev):

   -77.4397 -48.6744 -48.6343 -48.5830 -24.0735 -23.8627 -20.3426 -19.4219
   -13.0572 -12.0392 -11.3204 -11.0812  -9.5390  -9.5097  -9.2566  -8.4886
    -8.0675  -7.1312  -7.0061  -6.9555  -5.7142

     occupation numbers 
     1.0000   1.0000   1.0000   1.0000   1.0000   1.0000   1.0000   1.0000
     1.0000   1.0000   1.0000   1.0000   1.0000   1.0000   1.0000   1.0000
     1.0000   1.0000   1.0000   1.0000   1.0000

          k = 0.0000 0.3102 0.0000 ( 14539 PWs)   bands (ev):

   -77.4301 -48.7466 -48.6216 -48.5991 -23.4510 -23.2366 -19.8841 -19.1339
   -13.3904 -13.1060 -12.0230 -11.3013  -9.9046  -9.6546  -9.4188  -9.1003
    -8.4230  -7.5806  -7.3386  -6.7788  -5.9674

     occupation numbers 
     1.0000   1.0000   1.0000   1.0000   1.0000   1.0000   1.0000   1.0000
     1.0000   1.0000   1.0000   1.0000   1.0000   1.0000   1.0000   1.0000
     1.0000   1.0000   1.0000   1.0000   1.0000

          k = 0.0000 0.4136 0.0000 ( 14485 PWs)   bands (ev):

   -77.4212 -48.8125 -48.6139 -48.6099 -22.7259 -22.5049 -19.4285 -18.8632
   -14.7698 -14.5293 -11.5814 -10.8504 -10.2310 -10.0495  -9.9830  -9.1278
    -8.8263  -7.9221  -7.6446  -6.4480  -6.1216

     occupation numbers 
     1.0000   1.0000   1.0000   1.0000   1.0000   1.0000   1.0000   1.0000
     1.0000   1.0000   1.0000   1.0000   1.0000   1.0000   1.0000   1.0000
     1.0000   1.0000   1.0000   1.0000   1.0000

          k = 0.0000 0.5170 0.0000 ( 14484 PWs)   bands (ev):

   -77.4160 -48.8513 -48.6227 -48.6029 -22.1658 -21.9364 -19.1579 -18.7244
   -15.6867 -15.4424 -11.2229 -10.7357 -10.4115 -10.2904 -10.1646  -9.4593
    -8.7206  -8.0939  -7.8126  -6.2472  -6.1524

     occupation numbers 
     1.0000   1.0000   1.0000   1.0000   1.0000   1.0000   1.0000   1.0000
     1.0000   1.0000   1.0000   1.0000   1.0000   1.0000   1.0000   1.0000
     1.0000   1.0000   1.0000   1.0000   1.0000

          k = 0.0000-0.5170 0.0000 ( 14484 PWs)   bands (ev):

   -77.4160 -48.8513 -48.6227 -48.6029 -22.1658 -21.9364 -19.1579 -18.7244
   -15.6867 -15.4424 -11.2229 -10.7357 -10.4115 -10.2904 -10.1646  -9.4593
    -8.7206  -8.0939  -7.8126  -6.2472  -6.1524

     occupation numbers 
     1.0000   1.0000   1.0000   1.0000   1.0000   1.0000   1.0000   1.0000
     1.0000   1.0000   1.0000   1.0000   1.0000   1.0000   1.0000   1.0000
     1.0000   1.0000   1.0000   1.0000   1.0000

          k = 0.0000-0.4136 0.0000 ( 14485 PWs)   bands (ev):

   -77.4212 -48.8125 -48.6139 -48.6099 -22.7259 -22.5049 -19.4285 -18.8632
   -14.7698 -14.5293 -11.5814 -10.8504 -10.2310 -10.0495  -9.9830  -9.1278
    -8.8263  -7.9221  -7.6446  -6.4480  -6.1216

     occupation numbers 
     1.0000   1.0000   1.0000   1.0000   1.0000   1.0000   1.0000   1.0000
     1.0000   1.0000   1.0000   1.0000   1.0000   1.0000   1.0000   1.0000
     1.0000   1.0000   1.0000   1.0000   1.0000

          k = 0.0000-0.3102 0.0000 ( 14539 PWs)   bands (ev):

   -77.4301 -48.7466 -48.6216 -48.5991 -23.4510 -23.2366 -19.8841 -19.1339
   -13.3904 -13.1060 -12.0230 -11.3013  -9.9046  -9.6546  -9.4188  -9.1003
    -8.4230  -7.5806  -7.3386  -6.7788  -5.9674

     occupation numbers 
     1.0000   1.0000   1.0000   1.0000   1.0000   1.0000   1.0000   1.0000
     1.0000   1.0000   1.0000   1.0000   1.0000   1.0000   1.0000   1.0000
     1.0000   1.0000   1.0000   1.0000   1.0000

          k = 0.0000-0.2068 0.0000 ( 14553 PWs)   bands (ev):

   -77.4397 -48.6744 -48.6343 -48.5830 -24.0735 -23.8627 -20.3426 -19.4219
   -13.0572 -12.0392 -11.3204 -11.0812  -9.5390  -9.5097  -9.2566  -8.4886
    -8.0675  -7.1312  -7.0061  -6.9555  -5.7142

     occupation numbers 
     1.0000   1.0000   1.0000   1.0000   1.0000   1.0000   1.0000   1.0000
     1.0000   1.0000   1.0000   1.0000   1.0000   1.0000   1.0000   1.0000
     1.0000   1.0000   1.0000   1.0000   1.0000

          k = 0.0000-0.1034 0.0000 ( 14525 PWs)   bands (ev):

   -77.4470 -48.6441 -48.6188 -48.5706 -24.4777 -24.2687 -20.6666 -19.6294
   -13.3843 -12.2166 -10.0041  -9.8161  -9.6068  -9.1719  -8.9158  -7.9443
    -7.8653  -7.3853  -6.6229  -6.5791  -5.6312

     occupation numbers 
     1.0000   1.0000   1.0000   1.0000   1.0000   1.0000   1.0000   1.0000
     1.0000   1.0000   1.0000   1.0000   1.0000   1.0000   1.0000   1.0000
     1.0000   1.0000   1.0000   1.0000   1.0000

          k = 0.0909 0.0517 0.0000 ( 14561 PWs)   bands (ev):

   -77.4468 -48.6439 -48.6085 -48.5825 -24.4742 -24.2652 -20.6627 -19.6266
   -13.3793 -12.2129  -9.9326  -9.7151  -9.4859  -9.3289  -9.0756  -7.9396
    -7.7796  -7.4830  -6.6261  -6.5742  -5.6284

     occupation numbers 
     1.0000   1.0000   1.0000   1.0000   1.0000   1.0000   1.0000   1.0000
     1.0000   1.0000   1.0000   1.0000   1.0000   1.0000   1.0000   1.0000
     1.0000   1.0000   1.0000   1.0000   1.0000

          k = 0.0909 0.1551 0.0000 ( 14541 PWs)   bands (ev):

   -77.4418 -48.6507 -48.6371 -48.5871 -24.2024 -23.9923 -20.4426 -19.4853
   -13.1428 -12.0530 -10.8286 -10.5855  -9.6525  -9.5343  -9.3081  -8.2534
    -7.9933  -7.2649  -7.0567  -6.6614  -5.6609

     occupation numbers 
     1.0000   1.0000   1.0000   1.0000   1.0000   1.0000   1.0000   1.0000
     1.0000   1.0000   1.0000   1.0000   1.0000   1.0000   1.0000   1.0000
     1.0000   1.0000   1.0000   1.0000   1.0000

          k = 0.0909 0.2585 0.0000 ( 14530 PWs)   bands (ev):

   -77.4333 -48.7141 -48.6259 -48.6017 -23.6871 -23.4742 -20.0494 -19.2353
   -12.9723 -12.4576 -11.8622 -11.3868 -10.0863  -9.8479  -9.3134  -8.8975
    -8.1717  -7.7168  -7.0077  -6.9223  -5.8513

     occupation numbers 
     1.0000   1.0000   1.0000   1.0000   1.0000   1.0000   1.0000   1.0000
     1.0000   1.0000   1.0000   1.0000   1.0000   1.0000   1.0000   1.0000
     1.0000   1.0000   1.0000   1.0000   1.0000

          k = 0.0909 0.3619 0.0000 ( 14507 PWs)   bands (ev):

   -77.4241 -48.7809 -48.6194 -48.6137 -23.0036 -22.7856 -19.5861 -18.9494
   -14.0652 -13.8213 -11.7541 -11.0075 -10.5579 -10.3289  -9.6412  -9.0441
    -8.7058  -8.0274  -7.3243  -6.8127  -6.0012

     occupation numbers 
     1.0000   1.0000   1.0000   1.0000   1.0000   1.0000   1.0000   1.0000
     1.0000   1.0000   1.0000   1.0000   1.0000   1.0000   1.0000   1.0000
     1.0000   1.0000   1.0000   1.0000   1.0000

          k = 0.0909 0.4653 0.0000 ( 14482 PWs)   bands (ev):

   -77.4170 -48.8311 -48.6333 -48.6044 -22.3304 -22.1043 -19.2158 -18.7392
   -15.2335 -14.9920 -11.3223 -10.9601 -10.6769 -10.4927 -10.1690  -9.3279
    -8.7862  -8.1719  -7.6263  -6.7612  -5.9350

     occupation numbers 
     1.0000   1.0000   1.0000   1.0000   1.0000   1.0000   1.0000   1.0000
     1.0000   1.0000   1.0000   1.0000   1.0000   1.0000   1.0000   1.0000
     1.0000   1.0000   1.0000   1.0000   1.0000

          k = 0.0909 0.5687 0.0000 ( 14530 PWs)   bands (ev):

   -77.4144 -48.8497 -48.6385 -48.6009 -22.0195 -21.7879 -19.0847 -18.6764
   -15.7031 -15.4585 -11.1615 -11.0841 -10.6753 -10.5912 -10.2250  -9.4623
    -8.7167  -8.2774  -7.7058  -6.7620  -5.8775

     occupation numbers 
     1.0000   1.0000   1.0000   1.0000   1.0000   1.0000   1.0000   1.0000
     1.0000   1.0000   1.0000   1.0000   1.0000   1.0000   1.0000   1.0000
     1.0000   1.0000   1.0000   1.0000   1.0000

          k = 0.0909-0.4653 0.0000 ( 14482 PWs)   bands (ev):

   -77.4170 -48.8311 -48.6332 -48.6044 -22.3303 -22.1044 -19.2159 -18.7392
   -15.2337 -14.9919 -11.3222 -10.9598 -10.6771 -10.4927 -10.1692  -9.3276
    -8.7862  -8.1720  -7.6267  -6.7619  -5.9341

     occupation numbers 
     1.0000   1.0000   1.0000   1.0000   1.0000   1.0000   1.0000   1.0000
     1.0000   1.0000   1.0000   1.0000   1.0000   1.0000   1.0000   1.0000
     1.0000   1.0000   1.0000   1.0000   1.0000

          k = 0.0909-0.3619 0.0000 ( 14507 PWs)   bands (ev):

   -77.4241 -48.7809 -48.6193 -48.6137 -23.0036 -22.7856 -19.5862 -18.9493
   -14.0658 -13.8211 -11.7541 -11.0073 -10.5573 -10.3291  -9.6415  -9.0442
    -8.7061  -8.0266  -7.3252  -6.8134  -5.9999

     occupation numbers 
     1.0000   1.0000   1.0000   1.0000   1.0000   1.0000   1.0000   1.0000
     1.0000   1.0000   1.0000   1.0000   1.0000   1.0000   1.0000   1.0000
     1.0000   1.0000   1.0000   1.0000   1.0000

          k = 0.0909-0.2585 0.0000 ( 14530 PWs)   bands (ev):

   -77.4333 -48.7142 -48.6259 -48.6016 -23.6871 -23.4742 -20.0495 -19.2352
   -12.9726 -12.4578 -11.8623 -11.3866 -10.0848  -9.8485  -9.3135  -8.8979
    -8.1714  -7.7171  -7.0076  -6.9229  -5.8503

     occupation numbers 
     1.0000   1.0000   1.0000   1.0000   1.0000   1.0000   1.0000   1.0000
     1.0000   1.0000   1.0000   1.0000   1.0000   1.0000   1.0000   1.0000
     1.0000   1.0000   1.0000   1.0000   1.0000

          k = 0.0909-0.1551 0.0000 ( 14541 PWs)   bands (ev):

   -77.4418 -48.6508 -48.6371 -48.5870 -24.2024 -23.9923 -20.4426 -19.4852
   -13.1429 -12.0529 -10.8309 -10.5844  -9.6518  -9.5323  -9.3093  -8.2541
    -7.9924  -7.2645  -7.0583  -6.6610  -5.6604

     occupation numbers 
     1.0000   1.0000   1.0000   1.0000   1.0000   1.0000   1.0000   1.0000
     1.0000   1.0000   1.0000   1.0000   1.0000   1.0000   1.0000   1.0000
     1.0000   1.0000   1.0000   1.0000   1.0000

          k = 0.0909-0.0517 0.0000 ( 14561 PWs)   bands (ev):

   -77.4468 -48.6439 -48.6086 -48.5824 -24.4742 -24.2652 -20.6627 -19.6266
   -13.3793 -12.2129  -9.9337  -9.7170  -9.4847  -9.3254  -9.0773  -7.9393
    -7.7803  -7.4823  -6.6296  -6.5711  -5.6283

     occupation numbers 
     1.0000   1.0000   1.0000   1.0000   1.0000   1.0000   1.0000   1.0000
     1.0000   1.0000   1.0000   1.0000   1.0000   1.0000   1.0000   1.0000
     1.0000   1.0000   1.0000   1.0000   1.0000

          k = 0.1818 0.1034 0.0000 ( 14557 PWs)   bands (ev):

   -77.4389 -48.6566 -48.6335 -48.6064 -24.0598 -23.8490 -20.3274 -19.4109
   -13.0320 -12.0036 -11.1839 -10.9417  -9.7043  -9.5214  -9.4528  -8.4147
    -8.0727  -7.2310  -7.0113  -6.9485  -5.7056

     occupation numbers 
     1.0000   1.0000   1.0000   1.0000   1.0000   1.0000   1.0000   1.0000
     1.0000   1.0000   1.0000   1.0000   1.0000   1.0000   1.0000   1.0000
     1.0000   1.0000   1.0000   1.0000   1.0000

          k = 0.1818 0.2068 0.0000 ( 14545 PWs)   bands (ev):

   -77.4327 -48.7051 -48.6254 -48.6148 -23.6768 -23.4639 -20.0380 -19.2267
   -12.9274 -12.3773 -11.7975 -11.3587 -10.2159  -9.9766  -9.3076  -8.8603
    -8.1756  -7.7076  -7.0621  -6.9378  -5.8401

     occupation numbers 
     1.0000   1.0000   1.0000   1.0000   1.0000   1.0000   1.0000   1.0000
     1.0000   1.0000   1.0000   1.0000   1.0000   1.0000   1.0000   1.0000
     1.0000   1.0000   1.0000   1.0000   1.0000

          k = 0.1818 0.3102 0.0000 ( 14487 PWs)   bands (ev):

   -77.4246 -48.7578 -48.6363 -48.6146 -23.0942 -22.8772 -19.6352 -18.9733
   -13.5857 -13.3297 -11.7489 -11.1097 -11.0001 -10.8429  -9.3527  -9.0542
    -8.5741  -8.1710  -7.1324  -7.0919  -5.9357

     occupation numbers 
     1.0000   1.0000   1.0000   1.0000   1.0000   1.0000   1.0000   1.0000
     1.0000   1.0000   1.0000   1.0000   1.0000   1.0000   1.0000   1.0000
     1.0000   1.0000   1.0000   1.0000   1.0000

          k = 0.1818 0.4136 0.0000 ( 14478 PWs)   bands (ev):

   -77.4172 -48.8020 -48.6600 -48.6047 -22.4313 -22.2075 -19.2439 -18.7357
   -14.5842 -14.3439 -11.8447 -11.6304 -11.2391 -10.5049  -9.7784  -9.2721
    -8.8292  -8.2342  -7.4710  -7.3649  -5.8254

     occupation numbers 
     1.0000   1.0000   1.0000   1.0000   1.0000   1.0000   1.0000   1.0000
     1.0000   1.0000   1.0000   1.0000   1.0000   1.0000   1.0000   1.0000
     1.0000   1.0000   1.0000   1.0000   1.0000

          k = 0.1818 0.5170 0.0000 ( 14479 PWs)   bands (ev):

   -77.4128 -48.8270 -48.6752 -48.5989 -21.9373 -21.7056 -19.0131 -18.6069
   -15.2786 -15.0366 -12.2282 -12.0071 -10.8101 -10.3098 -10.1066  -9.4389
    -8.7900  -8.3633  -7.7037  -7.5252  -5.6701

     occupation numbers 
     1.0000   1.0000   1.0000   1.0000   1.0000   1.0000   1.0000   1.0000
     1.0000   1.0000   1.0000   1.0000   1.0000   1.0000   1.0000   1.0000
     1.0000   1.0000   1.0000   1.0000   1.0000

          k = 0.1818 0.6204 0.0000 ( 14479 PWs)   bands (ev):

   -77.4128 -48.8270 -48.6752 -48.5989 -21.9372 -21.7056 -19.0131 -18.6068
   -15.2790 -15.0364 -12.2278 -12.0073 -10.8101 -10.3100 -10.1070  -9.4379
    -8.7904  -8.3636  -7.7039  -7.5253  -5.6698

     occupation numbers 
     1.0000   1.0000   1.0000   1.0000   1.0000   1.0000   1.0000   1.0000
     1.0000   1.0000   1.0000   1.0000   1.0000   1.0000   1.0000   1.0000
     1.0000   1.0000   1.0000   1.0000   1.0000

          k = 0.1818-0.4136 0.0000 ( 14478 PWs)   bands (ev):

   -77.4172 -48.8020 -48.6599 -48.6047 -22.4312 -22.2075 -19.2440 -18.7355
   -14.5852 -14.3434 -11.8433 -11.6310 -11.2392 -10.5049  -9.7788  -9.2720
    -8.8292  -8.2340  -7.4718  -7.3651  -5.8245

     occupation numbers 
     1.0000   1.0000   1.0000   1.0000   1.0000   1.0000   1.0000   1.0000
     1.0000   1.0000   1.0000   1.0000   1.0000   1.0000   1.0000   1.0000
     1.0000   1.0000   1.0000   1.0000   1.0000

          k = 0.1818-0.3102 0.0000 ( 14487 PWs)   bands (ev):

   -77.4246 -48.7579 -48.6362 -48.6146 -23.0941 -22.8772 -19.6353 -18.9730
   -13.5872 -13.3291 -11.7490 -11.1077 -10.9996 -10.8437  -9.3534  -9.0543
    -8.5748  -8.1702  -7.1332  -7.0922  -5.9343

     occupation numbers 
     1.0000   1.0000   1.0000   1.0000   1.0000   1.0000   1.0000   1.0000
     1.0000   1.0000   1.0000   1.0000   1.0000   1.0000   1.0000   1.0000
     1.0000   1.0000   1.0000   1.0000   1.0000

          k = 0.1818-0.2068 0.0000 ( 14545 PWs)   bands (ev):

   -77.4327 -48.7052 -48.6254 -48.6146 -23.6767 -23.4640 -20.0382 -19.2265
   -12.9279 -12.3778 -11.7979 -11.3584 -10.2128  -9.9780  -9.3078  -8.8609
    -8.1744  -7.7091  -7.0618  -6.9387  -5.8388

     occupation numbers 
     1.0000   1.0000   1.0000   1.0000   1.0000   1.0000   1.0000   1.0000
     1.0000   1.0000   1.0000   1.0000   1.0000   1.0000   1.0000   1.0000
     1.0000   1.0000   1.0000   1.0000   1.0000

          k = 0.1818-0.1034 0.0000 ( 14557 PWs)   bands (ev):

   -77.4389 -48.6567 -48.6335 -48.6063 -24.0597 -23.8490 -20.3275 -19.4108
   -13.0321 -12.0035 -11.1861 -10.9406  -9.7014  -9.5214  -9.4542  -8.4153
    -8.0717  -7.2306  -7.0140  -6.9476  -5.7049

     occupation numbers 
     1.0000   1.0000   1.0000   1.0000   1.0000   1.0000   1.0000   1.0000
     1.0000   1.0000   1.0000   1.0000   1.0000   1.0000   1.0000   1.0000
     1.0000   1.0000   1.0000   1.0000   1.0000

          k = 0.1818-0.0000 0.0000 ( 14573 PWs)   bands (ev):

   -77.4412 -48.6366 -48.6295 -48.6122 -24.1922 -23.9821 -20.4315 -19.4773
   -13.1278 -12.0396 -10.7211 -10.4724  -9.7250  -9.5874  -9.4300  -8.1907
    -8.0023  -7.3496  -7.0529  -6.6572  -5.6594

     occupation numbers 
     1.0000   1.0000   1.0000   1.0000   1.0000   1.0000   1.0000   1.0000
     1.0000   1.0000   1.0000   1.0000   1.0000   1.0000   1.0000   1.0000
     1.0000   1.0000   1.0000   1.0000   1.0000

          k = 0.2727 0.1551 0.0000 ( 14551 PWs)   bands (ev):

   -77.4285 -48.7304 -48.6264 -48.6198 -23.4213 -23.2069 -19.8520 -19.1099
   -13.2596 -12.9668 -11.9756 -11.2758 -10.1245  -9.8768  -9.3698  -9.0627
    -8.4250  -7.5489  -7.3902  -6.8738  -5.9541

     occupation numbers 
     1.0000   1.0000   1.0000   1.0000   1.0000   1.0000   1.0000   1.0000
     1.0000   1.0000   1.0000   1.0000   1.0000   1.0000   1.0000   1.0000
     1.0000   1.0000   1.0000   1.0000   1.0000

          k = 0.2727 0.2585 0.0000 ( 14499 PWs)   bands (ev):

   -77.4228 -48.7685 -48.6412 -48.6122 -22.9770 -22.7592 -19.5572 -18.9268
   -13.9383 -13.6945 -11.7298 -10.9991 -10.7443 -10.5225  -9.5935  -9.0190
    -8.7058  -8.0102  -7.3708  -6.9042  -5.9744

     occupation numbers 
     1.0000   1.0000   1.0000   1.0000   1.0000   1.0000   1.0000   1.0000
     1.0000   1.0000   1.0000   1.0000   1.0000   1.0000   1.0000   1.0000
     1.0000   1.0000   1.0000   1.0000   1.0000

          k = 0.2727 0.3619 0.0000 ( 14446 PWs)   bands (ev):

   -77.4164 -48.7946 -48.6727 -48.6039 -22.4146 -22.1909 -19.2260 -18.7212
   -14.5027 -14.2629 -11.9570 -11.7367 -11.2432 -10.4987  -9.7440  -9.2638
    -8.8224  -8.2263  -7.5043  -7.4096  -5.8121

     occupation numbers 
     1.0000   1.0000   1.0000   1.0000   1.0000   1.0000   1.0000   1.0000
     1.0000   1.0000   1.0000   1.0000   1.0000   1.0000   1.0000   1.0000
     1.0000   1.0000   1.0000   1.0000   1.0000

          k = 0.2727 0.4653 0.0000 ( 14474 PWs)   bands (ev):

   -77.4116 -48.8028 -48.7084 -48.5975 -21.9025 -21.6713 -18.9709 -18.5638
   -14.8084 -14.5673 -13.0141 -12.7874 -10.7873 -10.1077  -9.8217  -9.5398
    -8.7305  -8.5220  -8.0487  -7.6323  -5.5759

     occupation numbers 
     1.0000   1.0000   1.0000   1.0000   1.0000   1.0000   1.0000   1.0000
     1.0000   1.0000   1.0000   1.0000   1.0000   1.0000   1.0000   1.0000
     1.0000   1.0000   1.0000   1.0000   1.0000

          k = 0.2727 0.5687 0.0000 ( 14432 PWs)   bands (ev):

   -77.4098 -48.8013 -48.7264 -48.5952 -21.6849 -21.4496 -18.8777 -18.5066
   -14.8804 -14.6377 -13.4631 -13.2370 -10.4594 -10.1132  -9.9318  -9.2448
    -9.0670  -8.6013  -8.2877  -7.6571  -5.4494

     occupation numbers 
     1.0000   1.0000   1.0000   1.0000   1.0000   1.0000   1.0000   1.0000
     1.0000   1.0000   1.0000   1.0000   1.0000   1.0000   1.0000   1.0000
     1.0000   1.0000   1.0000   1.0000   1.0000

          k = 0.2727 0.6721 0.0000 ( 14474 PWs)   bands (ev):

   -77.4116 -48.8029 -48.7084 -48.5976 -21.9023 -21.6714 -18.9711 -18.5636
   -14.8100 -14.5665 -13.0123 -12.7883 -10.7873 -10.1085  -9.8219  -9.5388
    -8.7305  -8.5224  -8.0491  -7.6324  -5.5755

     occupation numbers 
     1.0000   1.0000   1.0000   1.0000   1.0000   1.0000   1.0000   1.0000
     1.0000   1.0000   1.0000   1.0000   1.0000   1.0000   1.0000   1.0000
     1.0000   1.0000   1.0000   1.0000   1.0000

          k = 0.2727-0.3619 0.0000 ( 14446 PWs)   bands (ev):

   -77.4164 -48.7947 -48.6725 -48.6039 -22.4144 -22.1910 -19.2262 -18.7209
   -14.5047 -14.2620 -11.9546 -11.7377 -11.2434 -10.4984  -9.7444  -9.2642
    -8.8225  -8.2264  -7.5051  -7.4096  -5.8111

     occupation numbers 
     1.0000   1.0000   1.0000   1.0000   1.0000   1.0000   1.0000   1.0000
     1.0000   1.0000   1.0000   1.0000   1.0000   1.0000   1.0000   1.0000
     1.0000   1.0000   1.0000   1.0000   1.0000

          k = 0.2727-0.2585 0.0000 ( 14499 PWs)   bands (ev):

   -77.4228 -48.7686 -48.6410 -48.6123 -22.9769 -22.7593 -19.5575 -18.9264
   -13.9401 -13.6937 -11.7300 -10.9984 -10.7418 -10.5237  -9.5939  -9.0192
    -8.7060  -8.0105  -7.3720  -6.9044  -5.9727

     occupation numbers 
     1.0000   1.0000   1.0000   1.0000   1.0000   1.0000   1.0000   1.0000
     1.0000   1.0000   1.0000   1.0000   1.0000   1.0000   1.0000   1.0000
     1.0000   1.0000   1.0000   1.0000   1.0000

          k = 0.2727-0.1551 0.0000 ( 14551 PWs)   bands (ev):

   -77.4285 -48.7305 -48.6262 -48.6198 -23.4212 -23.2069 -19.8522 -19.1097
   -13.2608 -12.9665 -11.9758 -11.2754 -10.1218  -9.8780  -9.3702  -9.0628
    -8.4241  -7.5501  -7.3913  -6.8738  -5.9527

     occupation numbers 
     1.0000   1.0000   1.0000   1.0000   1.0000   1.0000   1.0000   1.0000
     1.0000   1.0000   1.0000   1.0000   1.0000   1.0000   1.0000   1.0000
     1.0000   1.0000   1.0000   1.0000   1.0000

          k = 0.2727-0.0517 0.0000 ( 14554 PWs)   bands (ev):

   -77.4320 -48.6967 -48.6287 -48.6242 -23.6609 -23.4482 -20.0220 -19.2154
   -12.9036 -12.3518 -11.7823 -11.3503 -10.2409 -10.0072  -9.2951  -8.8591
    -8.1873  -7.7236  -7.0753  -6.9140  -5.8592

     occupation numbers 
     1.0000   1.0000   1.0000   1.0000   1.0000   1.0000   1.0000   1.0000
     1.0000   1.0000   1.0000   1.0000   1.0000   1.0000   1.0000   1.0000
     1.0000   1.0000   1.0000   1.0000   1.0000

          k = 0.2727 0.0517 0.0000 ( 14554 PWs)   bands (ev):

   -77.4320 -48.6966 -48.6288 -48.6242 -23.6610 -23.4482 -20.0219 -19.2154
   -12.9034 -12.3516 -11.7821 -11.3505 -10.2423 -10.0065  -9.2949  -8.8590
    -8.1883  -7.7224  -7.0754  -6.9136  -5.8596

     occupation numbers 
     1.0000   1.0000   1.0000   1.0000   1.0000   1.0000   1.0000   1.0000
     1.0000   1.0000   1.0000   1.0000   1.0000   1.0000   1.0000   1.0000
     1.0000   1.0000   1.0000   1.0000   1.0000

          k = 0.3636 0.2068 0.0000 ( 14479 PWs)   bands (ev):

   -77.4190 -48.7989 -48.6431 -48.6074 -22.6767 -22.4560 -19.3771 -18.8235
   -14.6383 -14.3994 -11.5509 -10.8240 -10.4691 -10.2236  -9.9940  -9.0959
    -8.8125  -7.8959  -7.7177  -6.5450  -6.0988

     occupation numbers 
     1.0000   1.0000   1.0000   1.0000   1.0000   1.0000   1.0000   1.0000
     1.0000   1.0000   1.0000   1.0000   1.0000   1.0000   1.0000   1.0000
     1.0000   1.0000   1.0000   1.0000   1.0000

          k = 0.3636 0.3102 0.0000 ( 14484 PWs)   bands (ev):

   -77.4150 -48.8187 -48.6598 -48.6022 -22.2836 -22.0580 -19.1667 -18.6999
   -15.1093 -14.8700 -11.3339 -11.1381 -10.8558 -10.5214 -10.1248  -9.2959
    -8.7679  -8.1578  -7.6870  -6.8540  -5.9083

     occupation numbers 
     1.0000   1.0000   1.0000   1.0000   1.0000   1.0000   1.0000   1.0000
     1.0000   1.0000   1.0000   1.0000   1.0000   1.0000   1.0000   1.0000
     1.0000   1.0000   1.0000   1.0000   1.0000

          k = 0.3636 0.4136 0.0000 ( 14456 PWs)   bands (ev):

   -77.4113 -48.8159 -48.6964 -48.5973 -21.8993 -21.6680 -18.9751 -18.5766
   -15.1740 -14.9338 -12.3961 -12.1733 -10.8001 -10.2892 -10.0872  -9.4062
    -8.7887  -8.3429  -7.7678  -7.5613  -5.6586

     occupation numbers 
     1.0000   1.0000   1.0000   1.0000   1.0000   1.0000   1.0000   1.0000
     1.0000   1.0000   1.0000   1.0000   1.0000   1.0000   1.0000   1.0000
     1.0000   1.0000   1.0000   1.0000   1.0000

          k = 0.3636 0.5170 0.0000 ( 14455 PWs)   bands (ev):

   -77.4091 -48.7908 -48.7417 -48.5944 -21.6632 -21.4280 -18.8586 -18.4922
   -14.8039 -14.5613 -13.5685 -13.3430 -10.4476 -10.1125  -9.9223  -9.2247
    -9.0874  -8.6140  -8.2738  -7.6679  -5.4546

     occupation numbers 
     1.0000   1.0000   1.0000   1.0000   1.0000   1.0000   1.0000   1.0000
     1.0000   1.0000   1.0000   1.0000   1.0000   1.0000   1.0000   1.0000
     1.0000   1.0000   1.0000   1.0000   1.0000

          k = 0.3636 0.6204 0.0000 ( 14455 PWs)   bands (ev):

   -77.4091 -48.7909 -48.7416 -48.5944 -21.6631 -21.4280 -18.8587 -18.4921
   -14.8054 -14.5606 -13.5669 -13.3438 -10.4478 -10.1128  -9.9223  -9.2246
    -9.0871  -8.6143  -8.2740  -7.6678  -5.4545

     occupation numbers 
     1.0000   1.0000   1.0000   1.0000   1.0000   1.0000   1.0000   1.0000
     1.0000   1.0000   1.0000   1.0000   1.0000   1.0000   1.0000   1.0000
     1.0000   1.0000   1.0000   1.0000   1.0000

          k = 0.3636 0.7238 0.0000 ( 14456 PWs)   bands (ev):

   -77.4113 -48.8160 -48.6963 -48.5973 -21.8991 -21.6681 -18.9754 -18.5763
   -15.1758 -14.9328 -12.3940 -12.1743 -10.8004 -10.2891 -10.0874  -9.4058
    -8.7890  -8.3438  -7.7679  -7.5612  -5.6581

     occupation numbers 
     1.0000   1.0000   1.0000   1.0000   1.0000   1.0000   1.0000   1.0000
     1.0000   1.0000   1.0000   1.0000   1.0000   1.0000   1.0000   1.0000
     1.0000   1.0000   1.0000   1.0000   1.0000

          k = 0.3636-0.3102 0.0000 ( 14484 PWs)   bands (ev):

   -77.4150 -48.8188 -48.6596 -48.6022 -22.2833 -22.0581 -19.1671 -18.6995
   -15.1111 -14.8691 -11.3338 -11.1366 -10.8565 -10.5210 -10.1247  -9.2961
    -8.7682  -8.1587  -7.6876  -6.8543  -5.9070

     occupation numbers 
     1.0000   1.0000   1.0000   1.0000   1.0000   1.0000   1.0000   1.0000
     1.0000   1.0000   1.0000   1.0000   1.0000   1.0000   1.0000   1.0000
     1.0000   1.0000   1.0000   1.0000   1.0000

          k = 0.3636-0.2068 0.0000 ( 14479 PWs)   bands (ev):

   -77.4190 -48.7990 -48.6430 -48.6075 -22.6765 -22.4561 -19.3774 -18.8231
   -14.6399 -14.3987 -11.5512 -10.8234 -10.4666 -10.2248  -9.9940  -9.0960
    -8.8127  -7.8967  -7.7184  -6.5456  -6.0971

     occupation numbers 
     1.0000   1.0000   1.0000   1.0000   1.0000   1.0000   1.0000   1.0000
     1.0000   1.0000   1.0000   1.0000   1.0000   1.0000   1.0000   1.0000
     1.0000   1.0000   1.0000   1.0000   1.0000

          k = 0.3636-0.1034 0.0000 ( 14506 PWs)   bands (ev):

   -77.4221 -48.7672 -48.6472 -48.6115 -22.9583 -22.7407 -19.5405 -18.9154
   -13.9504 -13.7045 -11.7200 -10.9941 -10.7294 -10.5111  -9.6128  -9.0143
    -8.7150  -8.0441  -7.3303  -6.8527  -6.0306

     occupation numbers 
     1.0000   1.0000   1.0000   1.0000   1.0000   1.0000   1.0000   1.0000
     1.0000   1.0000   1.0000   1.0000   1.0000   1.0000   1.0000   1.0000
     1.0000   1.0000   1.0000   1.0000   1.0000

          k = 0.3636 0.0000 0.0000 ( 14493 PWs)   bands (ev):

   -77.4232 -48.7485 -48.6557 -48.6130 -23.0594 -22.8427 -19.6016 -18.9498
   -13.5388 -13.2812 -11.7225 -11.1737 -11.0110 -10.8958  -9.3608  -9.0357
    -8.5943  -8.1885  -7.1129  -7.0704  -5.9873

     occupation numbers 
     1.0000   1.0000   1.0000   1.0000   1.0000   1.0000   1.0000   1.0000
     1.0000   1.0000   1.0000   1.0000   1.0000   1.0000   1.0000   1.0000
     1.0000   1.0000   1.0000   1.0000   1.0000

          k = 0.3636 0.1034 0.0000 ( 14506 PWs)   bands (ev):

   -77.4221 -48.7671 -48.6473 -48.6115 -22.9584 -22.7406 -19.5403 -18.9156
   -13.9492 -13.7051 -11.7198 -10.9945 -10.7313 -10.5101  -9.6127  -9.0142
    -8.7152  -8.0430  -7.3301  -6.8529  -6.0312

     occupation numbers 
     1.0000   1.0000   1.0000   1.0000   1.0000   1.0000   1.0000   1.0000
     1.0000   1.0000   1.0000   1.0000   1.0000   1.0000   1.0000   1.0000
     1.0000   1.0000   1.0000   1.0000   1.0000

          k = 0.4545 0.2585 0.0000 ( 14447 PWs)   bands (ev):

   -77.4133 -48.8395 -48.6530 -48.6000 -22.1005 -21.8717 -19.0917 -18.6719
   -15.5722 -15.3308 -11.1934 -10.7068 -10.6577 -10.4149 -10.2555  -9.4186
    -8.6878  -8.0615  -7.8977  -6.3515  -6.1145

     occupation numbers 
     1.0000   1.0000   1.0000   1.0000   1.0000   1.0000   1.0000   1.0000
     1.0000   1.0000   1.0000   1.0000   1.0000   1.0000   1.0000   1.0000
     1.0000   1.0000   1.0000   1.0000   1.0000

          k = 0.4545 0.3619 0.0000 ( 14473 PWs)   bands (ev):

   -77.4120 -48.8381 -48.6670 -48.5982 -21.9566 -21.7256 -19.0222 -18.6269
   -15.5942 -15.3525 -11.3044 -11.1918 -10.8177 -10.5912 -10.2042  -9.4221
    -8.6966  -8.2565  -7.7620  -6.8277  -5.8745

     occupation numbers 
     1.0000   1.0000   1.0000   1.0000   1.0000   1.0000   1.0000   1.0000
     1.0000   1.0000   1.0000   1.0000   1.0000   1.0000   1.0000   1.0000
     1.0000   1.0000   1.0000   1.0000   1.0000

          k = 0.4545 0.4653 0.0000 ( 14430 PWs)   bands (ev):

   -77.4109 -48.8158 -48.6993 -48.5969 -21.8835 -21.6522 -18.9641 -18.5698
   -15.1869 -14.9460 -12.3926 -12.1714 -10.7927 -10.2945 -10.0914  -9.4335
    -8.7760  -8.3374  -7.7461  -7.5471  -5.6850

     occupation numbers 
     1.0000   1.0000   1.0000   1.0000   1.0000   1.0000   1.0000   1.0000
     1.0000   1.0000   1.0000   1.0000   1.0000   1.0000   1.0000   1.0000
     1.0000   1.0000   1.0000   1.0000   1.0000

          k = 0.4545 0.5687 0.0000 ( 14406 PWs)   bands (ev):

   -77.4105 -48.7954 -48.7235 -48.5964 -21.8654 -21.6345 -18.9413 -18.5431
   -14.7768 -14.5334 -13.0819 -12.8596 -10.7684 -10.0890  -9.8498  -9.5675
    -8.7203  -8.5060  -8.0151  -7.6383  -5.6088

     occupation numbers 
     1.0000   1.0000   1.0000   1.0000   1.0000   1.0000   1.0000   1.0000
     1.0000   1.0000   1.0000   1.0000   1.0000   1.0000   1.0000   1.0000
     1.0000   1.0000   1.0000   1.0000   1.0000

          k = 0.4545 0.6721 0.0000 ( 14430 PWs)   bands (ev):

   -77.4109 -48.8158 -48.6992 -48.5969 -21.8833 -21.6523 -18.9644 -18.5695
   -15.1883 -14.9453 -12.3909 -12.1721 -10.7930 -10.2941 -10.0912  -9.4342
    -8.7759  -8.3380  -7.7461  -7.5469  -5.6848

     occupation numbers 
     1.0000   1.0000   1.0000   1.0000   1.0000   1.0000   1.0000   1.0000
     1.0000   1.0000   1.0000   1.0000   1.0000   1.0000   1.0000   1.0000
     1.0000   1.0000   1.0000   1.0000   1.0000

          k = 0.4545 0.7755 0.0000 ( 14473 PWs)   bands (ev):

   -77.4120 -48.8382 -48.6669 -48.5982 -21.9563 -21.7257 -19.0226 -18.6265
   -15.5958 -15.3517 -11.3026 -11.1924 -10.8186 -10.5905 -10.2040  -9.4220
    -8.6969  -8.2575  -7.7623  -6.8278  -5.8738

     occupation numbers 
     1.0000   1.0000   1.0000   1.0000   1.0000   1.0000   1.0000   1.0000
     1.0000   1.0000   1.0000   1.0000   1.0000   1.0000   1.0000   1.0000
     1.0000   1.0000   1.0000   1.0000   1.0000

          k = 0.4545-0.2585 0.0000 ( 14447 PWs)   bands (ev):

   -77.4133 -48.8396 -48.6528 -48.6000 -22.1002 -21.8719 -19.0921 -18.6714
   -15.5738 -15.3300 -11.1940 -10.7065 -10.6553 -10.4161 -10.2552  -9.4186
    -8.6881  -8.0624  -7.8984  -6.3529  -6.1124

     occupation numbers 
     1.0000   1.0000   1.0000   1.0000   1.0000   1.0000   1.0000   1.0000
     1.0000   1.0000   1.0000   1.0000   1.0000   1.0000   1.0000   1.0000
     1.0000   1.0000   1.0000   1.0000   1.0000

          k = 0.4545-0.1551 0.0000 ( 14436 PWs)   bands (ev):

   -77.4146 -48.8194 -48.6619 -48.6017 -22.2688 -22.0435 -19.1562 -18.6930
   -15.1270 -14.8850 -11.3207 -11.1272 -10.8494 -10.5169 -10.1341  -9.3163
    -8.7645  -8.1607  -7.6681  -6.8005  -5.9609

     occupation numbers 
     1.0000   1.0000   1.0000   1.0000   1.0000   1.0000   1.0000   1.0000
     1.0000   1.0000   1.0000   1.0000   1.0000   1.0000   1.0000   1.0000
     1.0000   1.0000   1.0000   1.0000   1.0000

          k = 0.4545-0.0517 0.0000 ( 14468 PWs)   bands (ev):

   -77.4154 -48.7921 -48.6828 -48.6027 -22.3803 -22.1569 -19.1976 -18.7022
   -14.5136 -14.2710 -11.9656 -11.7511 -11.2277 -10.4800  -9.7778  -9.2922
    -8.8133  -8.2298  -7.4754  -7.3565  -5.8716

     occupation numbers 
     1.0000   1.0000   1.0000   1.0000   1.0000   1.0000   1.0000   1.0000
     1.0000   1.0000   1.0000   1.0000   1.0000   1.0000   1.0000   1.0000
     1.0000   1.0000   1.0000   1.0000   1.0000

          k = 0.4545 0.0517 0.0000 ( 14468 PWs)   bands (ev):

   -77.4154 -48.7920 -48.6829 -48.6027 -22.3804 -22.1569 -19.1975 -18.7023
   -14.5128 -14.2714 -11.9665 -11.7508 -11.2276 -10.4804  -9.7778  -9.2918
    -8.8132  -8.2294  -7.4754  -7.3568  -5.8717

     occupation numbers 
     1.0000   1.0000   1.0000   1.0000   1.0000   1.0000   1.0000   1.0000
     1.0000   1.0000   1.0000   1.0000   1.0000   1.0000   1.0000   1.0000
     1.0000   1.0000   1.0000   1.0000   1.0000

          k = 0.4545 0.1551 0.0000 ( 14436 PWs)   bands (ev):

   -77.4146 -48.8193 -48.6620 -48.6017 -22.2690 -22.0434 -19.1559 -18.6934
   -15.1256 -14.8858 -11.3205 -11.1287 -10.8487 -10.5174 -10.1344  -9.3158
    -8.7643  -8.1599  -7.6679  -6.8007  -5.9614

     occupation numbers 
     1.0000   1.0000   1.0000   1.0000   1.0000   1.0000   1.0000   1.0000
     1.0000   1.0000   1.0000   1.0000   1.0000   1.0000   1.0000   1.0000
     1.0000   1.0000   1.0000   1.0000   1.0000

          k =-0.4545-0.2585 0.0000 ( 14447 PWs)   bands (ev):

   -77.4133 -48.8395 -48.6530 -48.6000 -22.1005 -21.8717 -19.0917 -18.6719
   -15.5722 -15.3308 -11.1934 -10.7068 -10.6577 -10.4149 -10.2555  -9.4186
    -8.6878  -8.0615  -7.8977  -6.3515  -6.1145

     occupation numbers 
     1.0000   1.0000   1.0000   1.0000   1.0000   1.0000   1.0000   1.0000
     1.0000   1.0000   1.0000   1.0000   1.0000   1.0000   1.0000   1.0000
     1.0000   1.0000   1.0000   1.0000   1.0000

          k =-0.4545-0.1551 0.0000 ( 14436 PWs)   bands (ev):

   -77.4146 -48.8193 -48.6620 -48.6017 -22.2690 -22.0434 -19.1559 -18.6934
   -15.1256 -14.8858 -11.3205 -11.1287 -10.8487 -10.5174 -10.1344  -9.3158
    -8.7643  -8.1599  -7.6679  -6.8007  -5.9614

     occupation numbers 
     1.0000   1.0000   1.0000   1.0000   1.0000   1.0000   1.0000   1.0000
     1.0000   1.0000   1.0000   1.0000   1.0000   1.0000   1.0000   1.0000
     1.0000   1.0000   1.0000   1.0000   1.0000

          k =-0.4545-0.0517 0.0000 ( 14468 PWs)   bands (ev):

   -77.4154 -48.7920 -48.6829 -48.6027 -22.3804 -22.1569 -19.1975 -18.7023
   -14.5128 -14.2714 -11.9665 -11.7508 -11.2276 -10.4804  -9.7778  -9.2918
    -8.8132  -8.2294  -7.4754  -7.3568  -5.8717

     occupation numbers 
     1.0000   1.0000   1.0000   1.0000   1.0000   1.0000   1.0000   1.0000
     1.0000   1.0000   1.0000   1.0000   1.0000   1.0000   1.0000   1.0000
     1.0000   1.0000   1.0000   1.0000   1.0000

          k =-0.4545 0.0517 0.0000 ( 14468 PWs)   bands (ev):

   -77.4154 -48.7921 -48.6828 -48.6027 -22.3803 -22.1569 -19.1976 -18.7022
   -14.5136 -14.2710 -11.9656 -11.7511 -11.2277 -10.4800  -9.7778  -9.2922
    -8.8133  -8.2298  -7.4754  -7.3565  -5.8716

     occupation numbers 
     1.0000   1.0000   1.0000   1.0000   1.0000   1.0000   1.0000   1.0000
     1.0000   1.0000   1.0000   1.0000   1.0000   1.0000   1.0000   1.0000
     1.0000   1.0000   1.0000   1.0000   1.0000

          k =-0.4545 0.1551 0.0000 ( 14436 PWs)   bands (ev):

   -77.4146 -48.8194 -48.6619 -48.6017 -22.2688 -22.0435 -19.1562 -18.6930
   -15.1270 -14.8850 -11.3207 -11.1272 -10.8494 -10.5169 -10.1341  -9.3163
    -8.7645  -8.1607  -7.6681  -6.8005  -5.9609

     occupation numbers 
     1.0000   1.0000   1.0000   1.0000   1.0000   1.0000   1.0000   1.0000
     1.0000   1.0000   1.0000   1.0000   1.0000   1.0000   1.0000   1.0000
     1.0000   1.0000   1.0000   1.0000   1.0000

          k =-0.4545 0.2585 0.0000 ( 14447 PWs)   bands (ev):

   -77.4133 -48.8396 -48.6528 -48.6000 -22.1002 -21.8719 -19.0921 -18.6714
   -15.5738 -15.3300 -11.1940 -10.7065 -10.6553 -10.4161 -10.2552  -9.4186
    -8.6881  -8.0624  -7.8984  -6.3529  -6.1124

     occupation numbers 
     1.0000   1.0000   1.0000   1.0000   1.0000   1.0000   1.0000   1.0000
     1.0000   1.0000   1.0000   1.0000   1.0000   1.0000   1.0000   1.0000
     1.0000   1.0000   1.0000   1.0000   1.0000

          k =-0.4545-0.7755 0.0000 ( 14473 PWs)   bands (ev):

   -77.4120 -48.8382 -48.6669 -48.5982 -21.9563 -21.7257 -19.0226 -18.6265
   -15.5958 -15.3517 -11.3026 -11.1924 -10.8186 -10.5905 -10.2040  -9.4220
    -8.6969  -8.2575  -7.7623  -6.8278  -5.8738

     occupation numbers 
     1.0000   1.0000   1.0000   1.0000   1.0000   1.0000   1.0000   1.0000
     1.0000   1.0000   1.0000   1.0000   1.0000   1.0000   1.0000   1.0000
     1.0000   1.0000   1.0000   1.0000   1.0000

          k =-0.4545-0.6721 0.0000 ( 14430 PWs)   bands (ev):

   -77.4109 -48.8158 -48.6992 -48.5969 -21.8833 -21.6523 -18.9644 -18.5695
   -15.1883 -14.9453 -12.3909 -12.1721 -10.7930 -10.2941 -10.0912  -9.4342
    -8.7759  -8.3380  -7.7461  -7.5469  -5.6848

     occupation numbers 
     1.0000   1.0000   1.0000   1.0000   1.0000   1.0000   1.0000   1.0000
     1.0000   1.0000   1.0000   1.0000   1.0000   1.0000   1.0000   1.0000
     1.0000   1.0000   1.0000   1.0000   1.0000

          k =-0.4545-0.5687 0.0000 ( 14406 PWs)   bands (ev):

   -77.4105 -48.7954 -48.7235 -48.5964 -21.8654 -21.6345 -18.9413 -18.5431
   -14.7768 -14.5334 -13.0819 -12.8596 -10.7684 -10.0890  -9.8498  -9.5675
    -8.7203  -8.5060  -8.0151  -7.6383  -5.6088

     occupation numbers 
     1.0000   1.0000   1.0000   1.0000   1.0000   1.0000   1.0000   1.0000
     1.0000   1.0000   1.0000   1.0000   1.0000   1.0000   1.0000   1.0000
     1.0000   1.0000   1.0000   1.0000   1.0000

          k =-0.4545-0.4653 0.0000 ( 14430 PWs)   bands (ev):

   -77.4109 -48.8158 -48.6993 -48.5969 -21.8835 -21.6522 -18.9641 -18.5698
   -15.1869 -14.9460 -12.3926 -12.1714 -10.7927 -10.2945 -10.0914  -9.4335
    -8.7760  -8.3374  -7.7461  -7.5471  -5.6850

     occupation numbers 
     1.0000   1.0000   1.0000   1.0000   1.0000   1.0000   1.0000   1.0000
     1.0000   1.0000   1.0000   1.0000   1.0000   1.0000   1.0000   1.0000
     1.0000   1.0000   1.0000   1.0000   1.0000

          k =-0.4545-0.3619 0.0000 ( 14473 PWs)   bands (ev):

   -77.4120 -48.8381 -48.6670 -48.5982 -21.9566 -21.7256 -19.0222 -18.6269
   -15.5942 -15.3525 -11.3044 -11.1918 -10.8177 -10.5912 -10.2042  -9.4221
    -8.6966  -8.2565  -7.7620  -6.8277  -5.8745

     occupation numbers 
     1.0000   1.0000   1.0000   1.0000   1.0000   1.0000   1.0000   1.0000
     1.0000   1.0000   1.0000   1.0000   1.0000   1.0000   1.0000   1.0000
     1.0000   1.0000   1.0000   1.0000   1.0000

          k =-0.3636-0.2068 0.0000 ( 14479 PWs)   bands (ev):

   -77.4190 -48.7989 -48.6431 -48.6074 -22.6767 -22.4560 -19.3771 -18.8235
   -14.6383 -14.3994 -11.5509 -10.8240 -10.4691 -10.2236  -9.9940  -9.0959
    -8.8125  -7.8959  -7.7177  -6.5450  -6.0988

     occupation numbers 
     1.0000   1.0000   1.0000   1.0000   1.0000   1.0000   1.0000   1.0000
     1.0000   1.0000   1.0000   1.0000   1.0000   1.0000   1.0000   1.0000
     1.0000   1.0000   1.0000   1.0000   1.0000

          k =-0.3636-0.1034 0.0000 ( 14506 PWs)   bands (ev):

   -77.4221 -48.7671 -48.6473 -48.6115 -22.9584 -22.7406 -19.5403 -18.9156
   -13.9492 -13.7051 -11.7198 -10.9945 -10.7313 -10.5101  -9.6127  -9.0142
    -8.7152  -8.0430  -7.3301  -6.8529  -6.0312

     occupation numbers 
     1.0000   1.0000   1.0000   1.0000   1.0000   1.0000   1.0000   1.0000
     1.0000   1.0000   1.0000   1.0000   1.0000   1.0000   1.0000   1.0000
     1.0000   1.0000   1.0000   1.0000   1.0000

          k =-0.3636 0.0000 0.0000 ( 14493 PWs)   bands (ev):

   -77.4232 -48.7485 -48.6557 -48.6130 -23.0594 -22.8427 -19.6016 -18.9498
   -13.5388 -13.2812 -11.7225 -11.1737 -11.0110 -10.8958  -9.3608  -9.0357
    -8.5943  -8.1885  -7.1129  -7.0704  -5.9873

     occupation numbers 
     1.0000   1.0000   1.0000   1.0000   1.0000   1.0000   1.0000   1.0000
     1.0000   1.0000   1.0000   1.0000   1.0000   1.0000   1.0000   1.0000
     1.0000   1.0000   1.0000   1.0000   1.0000

          k =-0.3636 0.1034 0.0000 ( 14506 PWs)   bands (ev):

   -77.4221 -48.7672 -48.6472 -48.6115 -22.9583 -22.7407 -19.5405 -18.9154
   -13.9504 -13.7045 -11.7200 -10.9941 -10.7294 -10.5111  -9.6128  -9.0143
    -8.7150  -8.0441  -7.3303  -6.8527  -6.0306

     occupation numbers 
     1.0000   1.0000   1.0000   1.0000   1.0000   1.0000   1.0000   1.0000
     1.0000   1.0000   1.0000   1.0000   1.0000   1.0000   1.0000   1.0000
     1.0000   1.0000   1.0000   1.0000   1.0000

          k =-0.3636 0.2068 0.0000 ( 14479 PWs)   bands (ev):

   -77.4190 -48.7990 -48.6430 -48.6075 -22.6765 -22.4561 -19.3774 -18.8231
   -14.6399 -14.3987 -11.5512 -10.8234 -10.4666 -10.2248  -9.9940  -9.0960
    -8.8127  -7.8967  -7.7184  -6.5456  -6.0971

     occupation numbers 
     1.0000   1.0000   1.0000   1.0000   1.0000   1.0000   1.0000   1.0000
     1.0000   1.0000   1.0000   1.0000   1.0000   1.0000   1.0000   1.0000
     1.0000   1.0000   1.0000   1.0000   1.0000

          k =-0.3636 0.3102 0.0000 ( 14484 PWs)   bands (ev):

   -77.4150 -48.8188 -48.6596 -48.6022 -22.2833 -22.0581 -19.1671 -18.6995
   -15.1111 -14.8691 -11.3338 -11.1366 -10.8565 -10.5210 -10.1247  -9.2961
    -8.7682  -8.1587  -7.6876  -6.8543  -5.9070

     occupation numbers 
     1.0000   1.0000   1.0000   1.0000   1.0000   1.0000   1.0000   1.0000
     1.0000   1.0000   1.0000   1.0000   1.0000   1.0000   1.0000   1.0000
     1.0000   1.0000   1.0000   1.0000   1.0000

          k =-0.3636-0.7238 0.0000 ( 14456 PWs)   bands (ev):

   -77.4113 -48.8160 -48.6963 -48.5973 -21.8991 -21.6681 -18.9754 -18.5763
   -15.1758 -14.9328 -12.3940 -12.1743 -10.8004 -10.2891 -10.0874  -9.4058
    -8.7890  -8.3438  -7.7679  -7.5612  -5.6581

     occupation numbers 
     1.0000   1.0000   1.0000   1.0000   1.0000   1.0000   1.0000   1.0000
     1.0000   1.0000   1.0000   1.0000   1.0000   1.0000   1.0000   1.0000
     1.0000   1.0000   1.0000   1.0000   1.0000

          k =-0.3636-0.6204 0.0000 ( 14455 PWs)   bands (ev):

   -77.4091 -48.7909 -48.7416 -48.5944 -21.6631 -21.4280 -18.8587 -18.4921
   -14.8054 -14.5606 -13.5669 -13.3438 -10.4478 -10.1128  -9.9223  -9.2246
    -9.0871  -8.6143  -8.2740  -7.6678  -5.4545

     occupation numbers 
     1.0000   1.0000   1.0000   1.0000   1.0000   1.0000   1.0000   1.0000
     1.0000   1.0000   1.0000   1.0000   1.0000   1.0000   1.0000   1.0000
     1.0000   1.0000   1.0000   1.0000   1.0000

          k =-0.3636-0.5170 0.0000 ( 14455 PWs)   bands (ev):

   -77.4091 -48.7908 -48.7417 -48.5944 -21.6632 -21.4280 -18.8586 -18.4922
   -14.8039 -14.5613 -13.5685 -13.3430 -10.4476 -10.1125  -9.9223  -9.2247
    -9.0874  -8.6140  -8.2738  -7.6679  -5.4546

     occupation numbers 
     1.0000   1.0000   1.0000   1.0000   1.0000   1.0000   1.0000   1.0000
     1.0000   1.0000   1.0000   1.0000   1.0000   1.0000   1.0000   1.0000
     1.0000   1.0000   1.0000   1.0000   1.0000

          k =-0.3636-0.4136 0.0000 ( 14456 PWs)   bands (ev):

   -77.4113 -48.8159 -48.6964 -48.5973 -21.8993 -21.6680 -18.9751 -18.5766
   -15.1740 -14.9338 -12.3961 -12.1733 -10.8001 -10.2892 -10.0872  -9.4062
    -8.7887  -8.3429  -7.7678  -7.5613  -5.6586

     occupation numbers 
     1.0000   1.0000   1.0000   1.0000   1.0000   1.0000   1.0000   1.0000
     1.0000   1.0000   1.0000   1.0000   1.0000   1.0000   1.0000   1.0000
     1.0000   1.0000   1.0000   1.0000   1.0000

          k =-0.3636-0.3102 0.0000 ( 14484 PWs)   bands (ev):

   -77.4150 -48.8187 -48.6598 -48.6022 -22.2836 -22.0580 -19.1667 -18.6999
   -15.1093 -14.8700 -11.3339 -11.1381 -10.8558 -10.5214 -10.1248  -9.2959
    -8.7679  -8.1578  -7.6870  -6.8540  -5.9083

     occupation numbers 
     1.0000   1.0000   1.0000   1.0000   1.0000   1.0000   1.0000   1.0000
     1.0000   1.0000   1.0000   1.0000   1.0000   1.0000   1.0000   1.0000
     1.0000   1.0000   1.0000   1.0000   1.0000

          k =-0.2727-0.1551 0.0000 ( 14551 PWs)   bands (ev):

   -77.4285 -48.7304 -48.6264 -48.6198 -23.4213 -23.2069 -19.8520 -19.1099
   -13.2596 -12.9668 -11.9756 -11.2758 -10.1245  -9.8768  -9.3698  -9.0627
    -8.4250  -7.5489  -7.3902  -6.8738  -5.9541

     occupation numbers 
     1.0000   1.0000   1.0000   1.0000   1.0000   1.0000   1.0000   1.0000
     1.0000   1.0000   1.0000   1.0000   1.0000   1.0000   1.0000   1.0000
     1.0000   1.0000   1.0000   1.0000   1.0000

          k =-0.2727-0.0517 0.0000 ( 14554 PWs)   bands (ev):

   -77.4320 -48.6966 -48.6288 -48.6242 -23.6610 -23.4482 -20.0219 -19.2154
   -12.9034 -12.3516 -11.7821 -11.3505 -10.2423 -10.0065  -9.2949  -8.8590
    -8.1883  -7.7224  -7.0754  -6.9136  -5.8596

     occupation numbers 
     1.0000   1.0000   1.0000   1.0000   1.0000   1.0000   1.0000   1.0000
     1.0000   1.0000   1.0000   1.0000   1.0000   1.0000   1.0000   1.0000
     1.0000   1.0000   1.0000   1.0000   1.0000

          k =-0.2727 0.0517 0.0000 ( 14554 PWs)   bands (ev):

   -77.4320 -48.6967 -48.6287 -48.6242 -23.6609 -23.4482 -20.0220 -19.2154
   -12.9036 -12.3518 -11.7823 -11.3503 -10.2409 -10.0072  -9.2951  -8.8591
    -8.1873  -7.7236  -7.0753  -6.9140  -5.8592

     occupation numbers 
     1.0000   1.0000   1.0000   1.0000   1.0000   1.0000   1.0000   1.0000
     1.0000   1.0000   1.0000   1.0000   1.0000   1.0000   1.0000   1.0000
     1.0000   1.0000   1.0000   1.0000   1.0000

          k =-0.2727 0.1551 0.0000 ( 14551 PWs)   bands (ev):

   -77.4285 -48.7305 -48.6262 -48.6198 -23.4212 -23.2069 -19.8522 -19.1097
   -13.2608 -12.9665 -11.9758 -11.2754 -10.1218  -9.8780  -9.3702  -9.0628
    -8.4241  -7.5501  -7.3913  -6.8738  -5.9527

     occupation numbers 
     1.0000   1.0000   1.0000   1.0000   1.0000   1.0000   1.0000   1.0000
     1.0000   1.0000   1.0000   1.0000   1.0000   1.0000   1.0000   1.0000
     1.0000   1.0000   1.0000   1.0000   1.0000

          k =-0.2727 0.2585 0.0000 ( 14499 PWs)   bands (ev):

   -77.4228 -48.7686 -48.6410 -48.6123 -22.9769 -22.7593 -19.5575 -18.9264
   -13.9401 -13.6937 -11.7300 -10.9984 -10.7418 -10.5237  -9.5939  -9.0192
    -8.7060  -8.0105  -7.3720  -6.9044  -5.9727

     occupation numbers 
     1.0000   1.0000   1.0000   1.0000   1.0000   1.0000   1.0000   1.0000
     1.0000   1.0000   1.0000   1.0000   1.0000   1.0000   1.0000   1.0000
     1.0000   1.0000   1.0000   1.0000   1.0000

          k =-0.2727 0.3619 0.0000 ( 14446 PWs)   bands (ev):

   -77.4164 -48.7947 -48.6725 -48.6039 -22.4144 -22.1910 -19.2262 -18.7209
   -14.5047 -14.2620 -11.9546 -11.7377 -11.2434 -10.4984  -9.7444  -9.2642
    -8.8225  -8.2264  -7.5051  -7.4096  -5.8111

     occupation numbers 
     1.0000   1.0000   1.0000   1.0000   1.0000   1.0000   1.0000   1.0000
     1.0000   1.0000   1.0000   1.0000   1.0000   1.0000   1.0000   1.0000
     1.0000   1.0000   1.0000   1.0000   1.0000

          k =-0.2727-0.6721 0.0000 ( 14474 PWs)   bands (ev):

   -77.4116 -48.8029 -48.7084 -48.5976 -21.9023 -21.6714 -18.9711 -18.5636
   -14.8100 -14.5665 -13.0123 -12.7883 -10.7873 -10.1085  -9.8219  -9.5388
    -8.7305  -8.5224  -8.0491  -7.6324  -5.5755

     occupation numbers 
     1.0000   1.0000   1.0000   1.0000   1.0000   1.0000   1.0000   1.0000
     1.0000   1.0000   1.0000   1.0000   1.0000   1.0000   1.0000   1.0000
     1.0000   1.0000   1.0000   1.0000   1.0000

          k =-0.2727-0.5687 0.0000 ( 14432 PWs)   bands (ev):

   -77.4098 -48.8013 -48.7264 -48.5952 -21.6849 -21.4496 -18.8777 -18.5066
   -14.8804 -14.6377 -13.4631 -13.2370 -10.4594 -10.1132  -9.9318  -9.2448
    -9.0670  -8.6013  -8.2877  -7.6571  -5.4494

     occupation numbers 
     1.0000   1.0000   1.0000   1.0000   1.0000   1.0000   1.0000   1.0000
     1.0000   1.0000   1.0000   1.0000   1.0000   1.0000   1.0000   1.0000
     1.0000   1.0000   1.0000   1.0000   1.0000

          k =-0.2727-0.4653 0.0000 ( 14474 PWs)   bands (ev):

   -77.4116 -48.8028 -48.7084 -48.5975 -21.9025 -21.6713 -18.9709 -18.5638
   -14.8084 -14.5673 -13.0141 -12.7874 -10.7873 -10.1077  -9.8217  -9.5398
    -8.7305  -8.5220  -8.0487  -7.6323  -5.5759

     occupation numbers 
     1.0000   1.0000   1.0000   1.0000   1.0000   1.0000   1.0000   1.0000
     1.0000   1.0000   1.0000   1.0000   1.0000   1.0000   1.0000   1.0000
     1.0000   1.0000   1.0000   1.0000   1.0000

          k =-0.2727-0.3619 0.0000 ( 14446 PWs)   bands (ev):

   -77.4164 -48.7946 -48.6727 -48.6039 -22.4146 -22.1909 -19.2260 -18.7212
   -14.5027 -14.2629 -11.9570 -11.7367 -11.2432 -10.4987  -9.7440  -9.2638
    -8.8224  -8.2263  -7.5043  -7.4096  -5.8121

     occupation numbers 
     1.0000   1.0000   1.0000   1.0000   1.0000   1.0000   1.0000   1.0000
     1.0000   1.0000   1.0000   1.0000   1.0000   1.0000   1.0000   1.0000
     1.0000   1.0000   1.0000   1.0000   1.0000

          k =-0.2727-0.2585 0.0000 ( 14499 PWs)   bands (ev):

   -77.4228 -48.7685 -48.6412 -48.6122 -22.9770 -22.7592 -19.5572 -18.9268
   -13.9383 -13.6945 -11.7298 -10.9991 -10.7443 -10.5225  -9.5935  -9.0190
    -8.7058  -8.0102  -7.3708  -6.9042  -5.9744

     occupation numbers 
     1.0000   1.0000   1.0000   1.0000   1.0000   1.0000   1.0000   1.0000
     1.0000   1.0000   1.0000   1.0000   1.0000   1.0000   1.0000   1.0000
     1.0000   1.0000   1.0000   1.0000   1.0000

          k =-0.1818-0.1034 0.0000 ( 14557 PWs)   bands (ev):

   -77.4389 -48.6566 -48.6335 -48.6064 -24.0598 -23.8490 -20.3274 -19.4109
   -13.0320 -12.0036 -11.1839 -10.9417  -9.7043  -9.5214  -9.4528  -8.4147
    -8.0727  -7.2310  -7.0113  -6.9485  -5.7056

     occupation numbers 
     1.0000   1.0000   1.0000   1.0000   1.0000   1.0000   1.0000   1.0000
     1.0000   1.0000   1.0000   1.0000   1.0000   1.0000   1.0000   1.0000
     1.0000   1.0000   1.0000   1.0000   1.0000

          k =-0.1818 0.0000 0.0000 ( 14573 PWs)   bands (ev):

   -77.4412 -48.6366 -48.6295 -48.6122 -24.1922 -23.9821 -20.4315 -19.4773
   -13.1278 -12.0396 -10.7211 -10.4724  -9.7250  -9.5874  -9.4300  -8.1907
    -8.0023  -7.3496  -7.0529  -6.6572  -5.6594

     occupation numbers 
     1.0000   1.0000   1.0000   1.0000   1.0000   1.0000   1.0000   1.0000
     1.0000   1.0000   1.0000   1.0000   1.0000   1.0000   1.0000   1.0000
     1.0000   1.0000   1.0000   1.0000   1.0000

          k =-0.1818 0.1034 0.0000 ( 14557 PWs)   bands (ev):

   -77.4389 -48.6567 -48.6335 -48.6063 -24.0597 -23.8490 -20.3275 -19.4108
   -13.0321 -12.0035 -11.1861 -10.9406  -9.7014  -9.5214  -9.4542  -8.4153
    -8.0717  -7.2306  -7.0140  -6.9476  -5.7049

     occupation numbers 
     1.0000   1.0000   1.0000   1.0000   1.0000   1.0000   1.0000   1.0000
     1.0000   1.0000   1.0000   1.0000   1.0000   1.0000   1.0000   1.0000
     1.0000   1.0000   1.0000   1.0000   1.0000

          k =-0.1818 0.2068 0.0000 ( 14545 PWs)   bands (ev):

   -77.4327 -48.7052 -48.6254 -48.6146 -23.6767 -23.4640 -20.0382 -19.2265
   -12.9279 -12.3778 -11.7979 -11.3584 -10.2128  -9.9780  -9.3078  -8.8609
    -8.1744  -7.7091  -7.0618  -6.9387  -5.8388

     occupation numbers 
     1.0000   1.0000   1.0000   1.0000   1.0000   1.0000   1.0000   1.0000
     1.0000   1.0000   1.0000   1.0000   1.0000   1.0000   1.0000   1.0000
     1.0000   1.0000   1.0000   1.0000   1.0000

          k =-0.1818 0.3102 0.0000 ( 14487 PWs)   bands (ev):

   -77.4246 -48.7579 -48.6362 -48.6146 -23.0941 -22.8772 -19.6353 -18.9730
   -13.5872 -13.3291 -11.7490 -11.1077 -10.9996 -10.8437  -9.3534  -9.0543
    -8.5748  -8.1702  -7.1332  -7.0922  -5.9343

     occupation numbers 
     1.0000   1.0000   1.0000   1.0000   1.0000   1.0000   1.0000   1.0000
     1.0000   1.0000   1.0000   1.0000   1.0000   1.0000   1.0000   1.0000
     1.0000   1.0000   1.0000   1.0000   1.0000

          k =-0.1818 0.4136 0.0000 ( 14478 PWs)   bands (ev):

   -77.4172 -48.8020 -48.6599 -48.6047 -22.4312 -22.2075 -19.2440 -18.7355
   -14.5852 -14.3434 -11.8433 -11.6310 -11.2392 -10.5049  -9.7788  -9.2720
    -8.8292  -8.2340  -7.4718  -7.3651  -5.8245

     occupation numbers 
     1.0000   1.0000   1.0000   1.0000   1.0000   1.0000   1.0000   1.0000
     1.0000   1.0000   1.0000   1.0000   1.0000   1.0000   1.0000   1.0000
     1.0000   1.0000   1.0000   1.0000   1.0000

          k =-0.1818-0.6204 0.0000 ( 14479 PWs)   bands (ev):

   -77.4128 -48.8270 -48.6752 -48.5989 -21.9372 -21.7056 -19.0131 -18.6068
   -15.2790 -15.0364 -12.2278 -12.0073 -10.8101 -10.3100 -10.1070  -9.4379
    -8.7904  -8.3636  -7.7039  -7.5253  -5.6698

     occupation numbers 
     1.0000   1.0000   1.0000   1.0000   1.0000   1.0000   1.0000   1.0000
     1.0000   1.0000   1.0000   1.0000   1.0000   1.0000   1.0000   1.0000
     1.0000   1.0000   1.0000   1.0000   1.0000

          k =-0.1818-0.5170 0.0000 ( 14479 PWs)   bands (ev):

   -77.4128 -48.8270 -48.6752 -48.5989 -21.9373 -21.7056 -19.0131 -18.6069
   -15.2786 -15.0366 -12.2282 -12.0071 -10.8101 -10.3098 -10.1066  -9.4389
    -8.7900  -8.3633  -7.7037  -7.5252  -5.6701

     occupation numbers 
     1.0000   1.0000   1.0000   1.0000   1.0000   1.0000   1.0000   1.0000
     1.0000   1.0000   1.0000   1.0000   1.0000   1.0000   1.0000   1.0000
     1.0000   1.0000   1.0000   1.0000   1.0000

          k =-0.1818-0.4136 0.0000 ( 14478 PWs)   bands (ev):

   -77.4172 -48.8020 -48.6600 -48.6047 -22.4313 -22.2075 -19.2439 -18.7357
   -14.5842 -14.3439 -11.8447 -11.6304 -11.2391 -10.5049  -9.7784  -9.2721
    -8.8292  -8.2342  -7.4710  -7.3649  -5.8254

     occupation numbers 
     1.0000   1.0000   1.0000   1.0000   1.0000   1.0000   1.0000   1.0000
     1.0000   1.0000   1.0000   1.0000   1.0000   1.0000   1.0000   1.0000
     1.0000   1.0000   1.0000   1.0000   1.0000

          k =-0.1818-0.3102 0.0000 ( 14487 PWs)   bands (ev):

   -77.4246 -48.7578 -48.6363 -48.6146 -23.0942 -22.8772 -19.6352 -18.9733
   -13.5857 -13.3297 -11.7489 -11.1097 -11.0001 -10.8429  -9.3527  -9.0542
    -8.5741  -8.1710  -7.1324  -7.0919  -5.9357

     occupation numbers 
     1.0000   1.0000   1.0000   1.0000   1.0000   1.0000   1.0000   1.0000
     1.0000   1.0000   1.0000   1.0000   1.0000   1.0000   1.0000   1.0000
     1.0000   1.0000   1.0000   1.0000   1.0000

          k =-0.1818-0.2068 0.0000 ( 14545 PWs)   bands (ev):

   -77.4327 -48.7051 -48.6254 -48.6148 -23.6768 -23.4639 -20.0380 -19.2267
   -12.9274 -12.3773 -11.7975 -11.3587 -10.2159  -9.9766  -9.3076  -8.8603
    -8.1756  -7.7076  -7.0621  -6.9378  -5.8401

     occupation numbers 
     1.0000   1.0000   1.0000   1.0000   1.0000   1.0000   1.0000   1.0000
     1.0000   1.0000   1.0000   1.0000   1.0000   1.0000   1.0000   1.0000
     1.0000   1.0000   1.0000   1.0000   1.0000

          k =-0.0909-0.0517 0.0000 ( 14561 PWs)   bands (ev):

   -77.4468 -48.6439 -48.6085 -48.5825 -24.4742 -24.2652 -20.6627 -19.6266
   -13.3793 -12.2129  -9.9326  -9.7151  -9.4859  -9.3289  -9.0756  -7.9396
    -7.7796  -7.4830  -6.6261  -6.5742  -5.6284

     occupation numbers 
     1.0000   1.0000   1.0000   1.0000   1.0000   1.0000   1.0000   1.0000
     1.0000   1.0000   1.0000   1.0000   1.0000   1.0000   1.0000   1.0000
     1.0000   1.0000   1.0000   1.0000   1.0000

          k =-0.0909 0.0517 0.0000 ( 14561 PWs)   bands (ev):

   -77.4468 -48.6439 -48.6086 -48.5824 -24.4742 -24.2652 -20.6627 -19.6266
   -13.3793 -12.2129  -9.9337  -9.7170  -9.4847  -9.3254  -9.0773  -7.9393
    -7.7803  -7.4823  -6.6296  -6.5711  -5.6283

     occupation numbers 
     1.0000   1.0000   1.0000   1.0000   1.0000   1.0000   1.0000   1.0000
     1.0000   1.0000   1.0000   1.0000   1.0000   1.0000   1.0000   1.0000
     1.0000   1.0000   1.0000   1.0000   1.0000

          k =-0.0909 0.1551 0.0000 ( 14541 PWs)   bands (ev):

   -77.4418 -48.6508 -48.6371 -48.5870 -24.2024 -23.9923 -20.4426 -19.4852
   -13.1429 -12.0529 -10.8309 -10.5844  -9.6518  -9.5323  -9.3093  -8.2541
    -7.9924  -7.2645  -7.0583  -6.6610  -5.6604

     occupation numbers 
     1.0000   1.0000   1.0000   1.0000   1.0000   1.0000   1.0000   1.0000
     1.0000   1.0000   1.0000   1.0000   1.0000   1.0000   1.0000   1.0000
     1.0000   1.0000   1.0000   1.0000   1.0000

          k =-0.0909 0.2585 0.0000 ( 14530 PWs)   bands (ev):

   -77.4333 -48.7142 -48.6259 -48.6016 -23.6871 -23.4742 -20.0495 -19.2352
   -12.9726 -12.4578 -11.8623 -11.3866 -10.0848  -9.8485  -9.3135  -8.8979
    -8.1714  -7.7171  -7.0076  -6.9229  -5.8503

     occupation numbers 
     1.0000   1.0000   1.0000   1.0000   1.0000   1.0000   1.0000   1.0000
     1.0000   1.0000   1.0000   1.0000   1.0000   1.0000   1.0000   1.0000
     1.0000   1.0000   1.0000   1.0000   1.0000

          k =-0.0909 0.3619 0.0000 ( 14507 PWs)   bands (ev):

   -77.4241 -48.7809 -48.6193 -48.6137 -23.0036 -22.7856 -19.5862 -18.9493
   -14.0658 -13.8211 -11.7541 -11.0073 -10.5573 -10.3291  -9.6415  -9.0442
    -8.7061  -8.0266  -7.3252  -6.8134  -5.9999

     occupation numbers 
     1.0000   1.0000   1.0000   1.0000   1.0000   1.0000   1.0000   1.0000
     1.0000   1.0000   1.0000   1.0000   1.0000   1.0000   1.0000   1.0000
     1.0000   1.0000   1.0000   1.0000   1.0000

          k =-0.0909 0.4653 0.0000 ( 14482 PWs)   bands (ev):

   -77.4170 -48.8311 -48.6332 -48.6044 -22.3303 -22.1044 -19.2159 -18.7392
   -15.2337 -14.9919 -11.3222 -10.9598 -10.6771 -10.4927 -10.1692  -9.3276
    -8.7862  -8.1720  -7.6267  -6.7619  -5.9341

     occupation numbers 
     1.0000   1.0000   1.0000   1.0000   1.0000   1.0000   1.0000   1.0000
     1.0000   1.0000   1.0000   1.0000   1.0000   1.0000   1.0000   1.0000
     1.0000   1.0000   1.0000   1.0000   1.0000

          k =-0.0909-0.5687 0.0000 ( 14530 PWs)   bands (ev):

   -77.4144 -48.8497 -48.6385 -48.6009 -22.0195 -21.7879 -19.0847 -18.6764
   -15.7031 -15.4585 -11.1615 -11.0841 -10.6753 -10.5912 -10.2250  -9.4623
    -8.7167  -8.2774  -7.7058  -6.7620  -5.8775

     occupation numbers 
     1.0000   1.0000   1.0000   1.0000   1.0000   1.0000   1.0000   1.0000
     1.0000   1.0000   1.0000   1.0000   1.0000   1.0000   1.0000   1.0000
     1.0000   1.0000   1.0000   1.0000   1.0000

          k =-0.0909-0.4653 0.0000 ( 14482 PWs)   bands (ev):

   -77.4170 -48.8311 -48.6333 -48.6044 -22.3304 -22.1043 -19.2158 -18.7392
   -15.2335 -14.9920 -11.3223 -10.9601 -10.6769 -10.4927 -10.1690  -9.3279
    -8.7862  -8.1719  -7.6263  -6.7612  -5.9350

     occupation numbers 
     1.0000   1.0000   1.0000   1.0000   1.0000   1.0000   1.0000   1.0000
     1.0000   1.0000   1.0000   1.0000   1.0000   1.0000   1.0000   1.0000
     1.0000   1.0000   1.0000   1.0000   1.0000

          k =-0.0909-0.3619 0.0000 ( 14507 PWs)   bands (ev):

   -77.4241 -48.7809 -48.6194 -48.6137 -23.0036 -22.7856 -19.5861 -18.9494
   -14.0652 -13.8213 -11.7541 -11.0075 -10.5579 -10.3289  -9.6412  -9.0441
    -8.7058  -8.0274  -7.3243  -6.8127  -6.0012

     occupation numbers 
     1.0000   1.0000   1.0000   1.0000   1.0000   1.0000   1.0000   1.0000
     1.0000   1.0000   1.0000   1.0000   1.0000   1.0000   1.0000   1.0000
     1.0000   1.0000   1.0000   1.0000   1.0000

          k =-0.0909-0.2585 0.0000 ( 14530 PWs)   bands (ev):

   -77.4333 -48.7141 -48.6259 -48.6017 -23.6871 -23.4742 -20.0494 -19.2353
   -12.9723 -12.4576 -11.8622 -11.3868 -10.0863  -9.8479  -9.3134  -8.8975
    -8.1717  -7.7168  -7.0077  -6.9223  -5.8513

     occupation numbers 
     1.0000   1.0000   1.0000   1.0000   1.0000   1.0000   1.0000   1.0000
     1.0000   1.0000   1.0000   1.0000   1.0000   1.0000   1.0000   1.0000
     1.0000   1.0000   1.0000   1.0000   1.0000

          k =-0.0909-0.1551 0.0000 ( 14541 PWs)   bands (ev):

   -77.4418 -48.6507 -48.6371 -48.5871 -24.2024 -23.9923 -20.4426 -19.4853
   -13.1428 -12.0530 -10.8286 -10.5855  -9.6525  -9.5343  -9.3081  -8.2534
    -7.9933  -7.2649  -7.0567  -6.6614  -5.6609

     occupation numbers 
     1.0000   1.0000   1.0000   1.0000   1.0000   1.0000   1.0000   1.0000
     1.0000   1.0000   1.0000   1.0000   1.0000   1.0000   1.0000   1.0000
     1.0000   1.0000   1.0000   1.0000   1.0000

     highest occupied level (ev):    -5.4494

!    total energy              =    -263.19688216 Ry
     estimated scf accuracy    <          7.5E-12 Ry

     The total energy is the sum of the following terms:
     one-electron contribution =   -6087.50486192 Ry
     hartree contribution      =    3040.51501194 Ry
     xc contribution           =     -44.11368926 Ry
     ewald contribution        =    2827.90665709 Ry

     convergence has been achieved in  25 iterations

     Forces acting on atoms (cartesian axes, Ry/au):

     atom    1 type  1   force =    -0.00016588   -0.00310761   -0.00908742
     atom    2 type  2   force =     0.00005921    0.00128917    0.00172191
     atom    3 type  2   force =    -0.00000274    0.00221720    0.00885404
     atom    4 type  2   force =     0.00031240    0.00555604   -0.07848509
     atom    5 type  2   force =     0.00019259   -0.00634937    0.08702673
     atom    6 type  3   force =    -0.00011086    0.00714720    0.05154485
     atom    7 type  3   force =    -0.00028473   -0.00675262   -0.06157502
     The non-local contrib.  to forces
     atom    1 type  1   force =    -0.00013706   -0.00504661   -0.00765671
     atom    2 type  2   force =     0.00002654   -0.00686112   -0.12614301
     atom    3 type  2   force =    -0.00017964   -0.00096723    0.12722476
     atom    4 type  2   force =    -0.00013137    0.01422061   -1.15140100
     atom    5 type  2   force =    -0.00011254   -0.01436275    1.15847964
     atom    6 type  3   force =    -0.00048603   -0.00414175    0.18057422
     atom    7 type  3   force =    -0.00098256    0.00741906   -0.20194214
     The ionic contribution  to forces
     atom    1 type  1   force =    -0.00379135   -0.26491904    0.13216185
     atom    2 type  2   force =     0.00172807    0.13495001  -44.96060068
     atom    3 type  2   force =     0.00170091    0.12656499   44.86496427
     atom    4 type  2   force =     0.00163608   -0.03022782   90.73965759
     atom    5 type  2   force =     0.00080744    0.02586423  -90.77963281
     atom    6 type  3   force =    -0.00057152   -0.02461891  -61.01332080
     atom    7 type  3   force =    -0.00150962    0.03238654   61.01677058
     The local contribution  to forces
     atom    1 type  1   force =     0.00363350    0.26691407   -0.13373094
     atom    2 type  2   force =    -0.00182446   -0.12674364   45.08834507
     atom    3 type  2   force =    -0.00165306   -0.12332447  -44.98345607
     atom    4 type  2   force =    -0.00132136    0.02161932  -89.66685838
     atom    5 type  2   force =    -0.00063136   -0.01779479   89.70806411
     atom    6 type  3   force =     0.00081763    0.03596393   60.88417543
     atom    7 type  3   force =     0.00207839   -0.04650215  -60.87652053
     The core correction contribution to forces
     atom    1 type  1   force =     0.00000000    0.00000000    0.00000000
     atom    2 type  2   force =     0.00000000    0.00000000    0.00000000
     atom    3 type  2   force =     0.00000000    0.00000000    0.00000000
     atom    4 type  2   force =     0.00000000    0.00000000    0.00000000
     atom    5 type  2   force =     0.00000000    0.00000000    0.00000000
     atom    6 type  3   force =     0.00000000    0.00000000    0.00000000
     atom    7 type  3   force =     0.00000000    0.00000000    0.00000000
     The Hubbard contrib.    to forces
     atom    1 type  1   force =     0.00000000    0.00000000    0.00000000
     atom    2 type  2   force =     0.00000000    0.00000000    0.00000000
     atom    3 type  2   force =     0.00000000    0.00000000    0.00000000
     atom    4 type  2   force =     0.00000000    0.00000000    0.00000000
     atom    5 type  2   force =     0.00000000    0.00000000    0.00000000
     atom    6 type  3   force =     0.00000000    0.00000000    0.00000000
     atom    7 type  3   force =     0.00000000    0.00000000    0.00000000
     The SCF correction term to forces
     atom    1 type  1   force =    -0.00000003    0.00000004    0.00002365
     atom    2 type  2   force =    -0.00000000   -0.00000002    0.00000581
     atom    3 type  2   force =     0.00000000   -0.00000002    0.00000635
     atom    4 type  2   force =    -0.00000001   -0.00000000    0.00000198
     atom    5 type  2   force =     0.00000000    0.00000000    0.00000107
     atom    6 type  3   force =    -0.00000000   -0.00000000    0.00000127
     atom    7 type  3   force =     0.00000000   -0.00000000    0.00000235

     Total force =     0.143284     Total SCF correction =     0.000025
     Energy error            =      6.3E-02 Ry
     Gradient error          =      8.7E-02 Ry/Bohr

     number of scf cycles    =   5
     number of bfgs steps    =   4

     energy             old  =    -263.1336887440 Ry
     energy             new  =    -263.1968821631 Ry

     CASE: energy            _new < energy            _old

     new trust radius        =       0.3288921471 bohr
     new conv_thr            =            8.7E-11 Ry


ATOMIC_POSITIONS (angstrom)
Cr               2.2013793876        0.3573652921       11.0260028953
N                0.8001126830        1.1678032343        9.7766774989
N                0.8001323094        1.1731532475       12.2593481875
N                2.2006430756        0.3412885637       14.8703414603
N               -0.6001507019        2.0044955762        7.2230342636
Si               0.8007416816        1.1659787777        7.8972814293
Si               0.8003991203        1.1786807520       14.2034609282



     Writing config-only to output data dir ./tmp/crsi2n4.save/ :
     XML data file
     NEW-OLD atomic charge density approx. for the potential

     negative rho (up, down):  8.631E-04 0.000E+00

     total cpu time spent up to now is     2607.7 secs

     Self-consistent Calculation
[tb_dev] Currently allocated     0.00E+00 Mbytes, locked:    0 /   0
[tb_pin] Currently allocated     0.00E+00 Mbytes, locked:    0 /   0

     iteration #  1     ecut=    80.00 Ry     beta= 0.40
     Davidson diagonalization with overlap

---- Real-time Memory Report at c_bands before calling an iterative solver
          1405 MiB given to the printing process from OS
             0 MiB allocation reported by mallinfo(arena+hblkhd)
         15920 MiB available memory on the node where the printing process lives
     GPU memory used/free/total (MiB): 1213 / 10700 / 11914
------------------
     ethr =  1.00E-06,  avg # of iterations = 15.6

     negative rho (up, down):  1.875E-04 0.000E+00

     total cpu time spent up to now is     2657.8 secs

     total energy              =    -263.26697938 Ry
     estimated scf accuracy    <       0.04027277 Ry
[tb_dev] Currently allocated     2.67E-05 Mbytes, locked:    0 /   1
[tb_pin] Currently allocated     0.00E+00 Mbytes, locked:    0 /   0

     iteration #  2     ecut=    80.00 Ry     beta= 0.40
     Davidson diagonalization with overlap

---- Real-time Memory Report at c_bands before calling an iterative solver
          1405 MiB given to the printing process from OS
             0 MiB allocation reported by mallinfo(arena+hblkhd)
         15930 MiB available memory on the node where the printing process lives
     GPU memory used/free/total (MiB): 1213 / 10700 / 11914
------------------
     ethr =  9.59E-05,  avg # of iterations =  5.6

     negative rho (up, down):  1.049E-04 0.000E+00

     total cpu time spent up to now is     2674.7 secs

     total energy              =    -263.26619822 Ry
     estimated scf accuracy    <       0.05673977 Ry
[tb_dev] Currently allocated     2.67E-05 Mbytes, locked:    0 /   1
[tb_pin] Currently allocated     0.00E+00 Mbytes, locked:    0 /   0

     iteration #  3     ecut=    80.00 Ry     beta= 0.40
     Davidson diagonalization with overlap

---- Real-time Memory Report at c_bands before calling an iterative solver
          1405 MiB given to the printing process from OS
             0 MiB allocation reported by mallinfo(arena+hblkhd)
         15923 MiB available memory on the node where the printing process lives
     GPU memory used/free/total (MiB): 1213 / 10700 / 11914
------------------
     ethr =  9.59E-05,  avg # of iterations =  4.8

     negative rho (up, down):  1.608E-05 0.000E+00

     total cpu time spent up to now is     2689.5 secs

     total energy              =    -263.27197705 Ry
     estimated scf accuracy    <       0.00732133 Ry
[tb_dev] Currently allocated     2.67E-05 Mbytes, locked:    0 /   1
[tb_pin] Currently allocated     0.00E+00 Mbytes, locked:    0 /   0

     iteration #  4     ecut=    80.00 Ry     beta= 0.40
     Davidson diagonalization with overlap

---- Real-time Memory Report at c_bands before calling an iterative solver
          1405 MiB given to the printing process from OS
             0 MiB allocation reported by mallinfo(arena+hblkhd)
         15919 MiB available memory on the node where the printing process lives
     GPU memory used/free/total (MiB): 1213 / 10700 / 11914
------------------
     ethr =  1.74E-05,  avg # of iterations =  7.4

     negative rho (up, down):  3.558E-06 0.000E+00

     total cpu time spent up to now is     2708.5 secs

     total energy              =    -263.27167696 Ry
     estimated scf accuracy    <       0.02889083 Ry
[tb_dev] Currently allocated     2.67E-05 Mbytes, locked:    0 /   1
[tb_pin] Currently allocated     0.00E+00 Mbytes, locked:    0 /   0

     iteration #  5     ecut=    80.00 Ry     beta= 0.40
     Davidson diagonalization with overlap

---- Real-time Memory Report at c_bands before calling an iterative solver
          1405 MiB given to the printing process from OS
             0 MiB allocation reported by mallinfo(arena+hblkhd)
         15922 MiB available memory on the node where the printing process lives
     GPU memory used/free/total (MiB): 1213 / 10700 / 11914
------------------
     ethr =  1.74E-05,  avg # of iterations =  6.0

     negative rho (up, down):  1.844E-07 0.000E+00

     total cpu time spent up to now is     2725.1 secs

     total energy              =    -263.27400034 Ry
     estimated scf accuracy    <       0.00204073 Ry
[tb_dev] Currently allocated     2.67E-05 Mbytes, locked:    0 /   1
[tb_pin] Currently allocated     0.00E+00 Mbytes, locked:    0 /   0

     iteration #  6     ecut=    80.00 Ry     beta= 0.40
     Davidson diagonalization with overlap

---- Real-time Memory Report at c_bands before calling an iterative solver
          1405 MiB given to the printing process from OS
             0 MiB allocation reported by mallinfo(arena+hblkhd)
         15927 MiB available memory on the node where the printing process lives
     GPU memory used/free/total (MiB): 1213 / 10700 / 11914
------------------
     ethr =  4.86E-06,  avg # of iterations =  5.7

     negative rho (up, down):  1.021E-07 0.000E+00

     total cpu time spent up to now is     2741.3 secs

     total energy              =    -263.27458044 Ry
     estimated scf accuracy    <       0.00130805 Ry
[tb_dev] Currently allocated     2.67E-05 Mbytes, locked:    0 /   1
[tb_pin] Currently allocated     0.00E+00 Mbytes, locked:    0 /   0

     iteration #  7     ecut=    80.00 Ry     beta= 0.40
     Davidson diagonalization with overlap

---- Real-time Memory Report at c_bands before calling an iterative solver
          1405 MiB given to the printing process from OS
             0 MiB allocation reported by mallinfo(arena+hblkhd)
         15929 MiB available memory on the node where the printing process lives
     GPU memory used/free/total (MiB): 1213 / 10700 / 11914
------------------
     ethr =  3.11E-06,  avg # of iterations =  1.4

     negative rho (up, down):  1.207E-07 0.000E+00

     total cpu time spent up to now is     2750.9 secs

     total energy              =    -263.27429392 Ry
     estimated scf accuracy    <       0.00102397 Ry
[tb_dev] Currently allocated     2.67E-05 Mbytes, locked:    0 /   1
[tb_pin] Currently allocated     0.00E+00 Mbytes, locked:    0 /   0

     iteration #  8     ecut=    80.00 Ry     beta= 0.40
     Davidson diagonalization with overlap

---- Real-time Memory Report at c_bands before calling an iterative solver
          1405 MiB given to the printing process from OS
             0 MiB allocation reported by mallinfo(arena+hblkhd)
         15921 MiB available memory on the node where the printing process lives
     GPU memory used/free/total (MiB): 1213 / 10700 / 11914
------------------
     ethr =  2.44E-06,  avg # of iterations =  5.8

     negative rho (up, down):  7.063E-08 0.000E+00

     total cpu time spent up to now is     2766.8 secs

     total energy              =    -263.27451942 Ry
     estimated scf accuracy    <       0.00052877 Ry
[tb_dev] Currently allocated     2.67E-05 Mbytes, locked:    0 /   1
[tb_pin] Currently allocated     0.00E+00 Mbytes, locked:    0 /   0

     iteration #  9     ecut=    80.00 Ry     beta= 0.40
     Davidson diagonalization with overlap

---- Real-time Memory Report at c_bands before calling an iterative solver
          1405 MiB given to the printing process from OS
             0 MiB allocation reported by mallinfo(arena+hblkhd)
         15920 MiB available memory on the node where the printing process lives
     GPU memory used/free/total (MiB): 1213 / 10700 / 11914
------------------
     ethr =  1.26E-06,  avg # of iterations =  2.2

     negative rho (up, down):  4.375E-08 0.000E+00

     total cpu time spent up to now is     2777.8 secs

     total energy              =    -263.27448981 Ry
     estimated scf accuracy    <       0.00021011 Ry
[tb_dev] Currently allocated     2.67E-05 Mbytes, locked:    0 /   1
[tb_pin] Currently allocated     0.00E+00 Mbytes, locked:    0 /   0

     iteration # 10     ecut=    80.00 Ry     beta= 0.40
     Davidson diagonalization with overlap

---- Real-time Memory Report at c_bands before calling an iterative solver
          1406 MiB given to the printing process from OS
             0 MiB allocation reported by mallinfo(arena+hblkhd)
         15915 MiB available memory on the node where the printing process lives
     GPU memory used/free/total (MiB): 1213 / 10700 / 11914
------------------
     ethr =  5.00E-07,  avg # of iterations =  5.9

     negative rho (up, down):  1.927E-08 0.000E+00

     total cpu time spent up to now is     2793.9 secs

     total energy              =    -263.27455886 Ry
     estimated scf accuracy    <       0.00014010 Ry
[tb_dev] Currently allocated     2.67E-05 Mbytes, locked:    0 /   1
[tb_pin] Currently allocated     0.00E+00 Mbytes, locked:    0 /   0

     iteration # 11     ecut=    80.00 Ry     beta= 0.40
     Davidson diagonalization with overlap

---- Real-time Memory Report at c_bands before calling an iterative solver
          1407 MiB given to the printing process from OS
             0 MiB allocation reported by mallinfo(arena+hblkhd)
         15911 MiB available memory on the node where the printing process lives
     GPU memory used/free/total (MiB): 1213 / 10700 / 11914
------------------
     ethr =  3.34E-07,  avg # of iterations =  1.3

     total cpu time spent up to now is     2803.2 secs

     total energy              =    -263.27454271 Ry
     estimated scf accuracy    <       0.00007997 Ry
[tb_dev] Currently allocated     2.67E-05 Mbytes, locked:    0 /   1
[tb_pin] Currently allocated     0.00E+00 Mbytes, locked:    0 /   0

     iteration # 12     ecut=    80.00 Ry     beta= 0.40
     Davidson diagonalization with overlap

---- Real-time Memory Report at c_bands before calling an iterative solver
          1407 MiB given to the printing process from OS
             0 MiB allocation reported by mallinfo(arena+hblkhd)
         15910 MiB available memory on the node where the printing process lives
     GPU memory used/free/total (MiB): 1213 / 10700 / 11914
------------------
     ethr =  1.90E-07,  avg # of iterations =  5.4

     total cpu time spent up to now is     2818.7 secs

     total energy              =    -263.27456126 Ry
     estimated scf accuracy    <       0.00001828 Ry
[tb_dev] Currently allocated     2.67E-05 Mbytes, locked:    0 /   1
[tb_pin] Currently allocated     0.00E+00 Mbytes, locked:    0 /   0

     iteration # 13     ecut=    80.00 Ry     beta= 0.40
     Davidson diagonalization with overlap

---- Real-time Memory Report at c_bands before calling an iterative solver
          1407 MiB given to the printing process from OS
             0 MiB allocation reported by mallinfo(arena+hblkhd)
         15906 MiB available memory on the node where the printing process lives
     GPU memory used/free/total (MiB): 1213 / 10700 / 11914
------------------
     ethr =  4.35E-08,  avg # of iterations =  2.2

     total cpu time spent up to now is     2829.8 secs

     total energy              =    -263.27455990 Ry
     estimated scf accuracy    <       0.00001070 Ry
[tb_dev] Currently allocated     2.67E-05 Mbytes, locked:    0 /   1
[tb_pin] Currently allocated     0.00E+00 Mbytes, locked:    0 /   0

     iteration # 14     ecut=    80.00 Ry     beta= 0.40
     Davidson diagonalization with overlap

---- Real-time Memory Report at c_bands before calling an iterative solver
          1407 MiB given to the printing process from OS
             0 MiB allocation reported by mallinfo(arena+hblkhd)
         15905 MiB available memory on the node where the printing process lives
     GPU memory used/free/total (MiB): 1213 / 10700 / 11914
------------------
     ethr =  2.55E-08,  avg # of iterations =  5.6

     total cpu time spent up to now is     2845.8 secs

     total energy              =    -263.27456229 Ry
     estimated scf accuracy    <       0.00000138 Ry
[tb_dev] Currently allocated     2.67E-05 Mbytes, locked:    0 /   1
[tb_pin] Currently allocated     0.00E+00 Mbytes, locked:    0 /   0

     iteration # 15     ecut=    80.00 Ry     beta= 0.40
     Davidson diagonalization with overlap

---- Real-time Memory Report at c_bands before calling an iterative solver
          1407 MiB given to the printing process from OS
             0 MiB allocation reported by mallinfo(arena+hblkhd)
         15906 MiB available memory on the node where the printing process lives
     GPU memory used/free/total (MiB): 1213 / 10700 / 11914
------------------
     ethr =  3.29E-09,  avg # of iterations =  5.5

     total cpu time spent up to now is     2862.0 secs

     total energy              =    -263.27456267 Ry
     estimated scf accuracy    <       0.00000001 Ry
[tb_dev] Currently allocated     2.67E-05 Mbytes, locked:    0 /   1
[tb_pin] Currently allocated     0.00E+00 Mbytes, locked:    0 /   0

     iteration # 16     ecut=    80.00 Ry     beta= 0.40
     Davidson diagonalization with overlap

---- Real-time Memory Report at c_bands before calling an iterative solver
          1408 MiB given to the printing process from OS
             0 MiB allocation reported by mallinfo(arena+hblkhd)
         15904 MiB available memory on the node where the printing process lives
     GPU memory used/free/total (MiB): 1213 / 10700 / 11914
------------------
     ethr =  2.46E-11,  avg # of iterations = 13.1

     total cpu time spent up to now is     2896.4 secs

     total energy              =    -263.27456262 Ry
     estimated scf accuracy    <       0.00000080 Ry
[tb_dev] Currently allocated     2.67E-05 Mbytes, locked:    0 /   1
[tb_pin] Currently allocated     0.00E+00 Mbytes, locked:    0 /   0

     iteration # 17     ecut=    80.00 Ry     beta= 0.40
     Davidson diagonalization with overlap

---- Real-time Memory Report at c_bands before calling an iterative solver
          1408 MiB given to the printing process from OS
             0 MiB allocation reported by mallinfo(arena+hblkhd)
         15899 MiB available memory on the node where the printing process lives
     GPU memory used/free/total (MiB): 1213 / 10700 / 11914
------------------
     ethr =  2.46E-11,  avg # of iterations = 12.1

     total cpu time spent up to now is     2927.2 secs

     total energy              =    -263.27456272 Ry
     estimated scf accuracy    <       0.00000002 Ry
[tb_dev] Currently allocated     2.67E-05 Mbytes, locked:    0 /   1
[tb_pin] Currently allocated     0.00E+00 Mbytes, locked:    0 /   0

     iteration # 18     ecut=    80.00 Ry     beta= 0.40
     Davidson diagonalization with overlap

---- Real-time Memory Report at c_bands before calling an iterative solver
          1408 MiB given to the printing process from OS
             0 MiB allocation reported by mallinfo(arena+hblkhd)
         15889 MiB available memory on the node where the printing process lives
     GPU memory used/free/total (MiB): 1213 / 10700 / 11914
------------------
     ethr =  2.46E-11,  avg # of iterations =  6.7

     total cpu time spent up to now is     2945.8 secs

     total energy              =    -263.27456271 Ry
     estimated scf accuracy    <       0.00000009 Ry
[tb_dev] Currently allocated     2.67E-05 Mbytes, locked:    0 /   1
[tb_pin] Currently allocated     0.00E+00 Mbytes, locked:    0 /   0

     iteration # 19     ecut=    80.00 Ry     beta= 0.40
     Davidson diagonalization with overlap

---- Real-time Memory Report at c_bands before calling an iterative solver
          1409 MiB given to the printing process from OS
             0 MiB allocation reported by mallinfo(arena+hblkhd)
         15879 MiB available memory on the node where the printing process lives
     GPU memory used/free/total (MiB): 1213 / 10700 / 11914
------------------
     ethr =  2.46E-11,  avg # of iterations =  5.7

     total cpu time spent up to now is     2962.1 secs

     total energy              =    -263.27456271 Ry
     estimated scf accuracy    <       0.00000002 Ry
[tb_dev] Currently allocated     2.67E-05 Mbytes, locked:    0 /   1
[tb_pin] Currently allocated     0.00E+00 Mbytes, locked:    0 /   0

     iteration # 20     ecut=    80.00 Ry     beta= 0.40
     Davidson diagonalization with overlap

---- Real-time Memory Report at c_bands before calling an iterative solver
          1409 MiB given to the printing process from OS
             0 MiB allocation reported by mallinfo(arena+hblkhd)
         15866 MiB available memory on the node where the printing process lives
     GPU memory used/free/total (MiB): 1213 / 10700 / 11914
------------------
     ethr =  2.46E-11,  avg # of iterations =  4.3

     total cpu time spent up to now is     2976.4 secs

     total energy              =    -263.27456271 Ry
     estimated scf accuracy    <          1.8E-09 Ry
[tb_dev] Currently allocated     2.67E-05 Mbytes, locked:    0 /   1
[tb_pin] Currently allocated     0.00E+00 Mbytes, locked:    0 /   0

     iteration # 21     ecut=    80.00 Ry     beta= 0.40
     Davidson diagonalization with overlap

---- Real-time Memory Report at c_bands before calling an iterative solver
          1409 MiB given to the printing process from OS
             0 MiB allocation reported by mallinfo(arena+hblkhd)
         15873 MiB available memory on the node where the printing process lives
     GPU memory used/free/total (MiB): 1213 / 10700 / 11914
------------------
     ethr =  4.27E-12,  avg # of iterations =  8.8

     total cpu time spent up to now is     2999.4 secs

     total energy              =    -263.27456271 Ry
     estimated scf accuracy    <       0.00000001 Ry
[tb_dev] Currently allocated     2.67E-05 Mbytes, locked:    0 /   1
[tb_pin] Currently allocated     0.00E+00 Mbytes, locked:    0 /   0

     iteration # 22     ecut=    80.00 Ry     beta= 0.40
     Davidson diagonalization with overlap

---- Real-time Memory Report at c_bands before calling an iterative solver
          1410 MiB given to the printing process from OS
             0 MiB allocation reported by mallinfo(arena+hblkhd)
         15877 MiB available memory on the node where the printing process lives
     GPU memory used/free/total (MiB): 1213 / 10700 / 11914
------------------
     ethr =  4.27E-12,  avg # of iterations =  7.0

     total cpu time spent up to now is     3017.9 secs

     total energy              =    -263.27456271 Ry
     estimated scf accuracy    <          4.9E-10 Ry
[tb_dev] Currently allocated     2.67E-05 Mbytes, locked:    0 /   1
[tb_pin] Currently allocated     0.00E+00 Mbytes, locked:    0 /   0

     iteration # 23     ecut=    80.00 Ry     beta= 0.40
     Davidson diagonalization with overlap

---- Real-time Memory Report at c_bands before calling an iterative solver
          1410 MiB given to the printing process from OS
             0 MiB allocation reported by mallinfo(arena+hblkhd)
         15885 MiB available memory on the node where the printing process lives
     GPU memory used/free/total (MiB): 1213 / 10700 / 11914
------------------
     ethr =  1.17E-12,  avg # of iterations =  3.6

     total cpu time spent up to now is     3030.8 secs

     total energy              =    -263.27456271 Ry
     estimated scf accuracy    <          9.6E-11 Ry
[tb_dev] Currently allocated     2.67E-05 Mbytes, locked:    0 /   1
[tb_pin] Currently allocated     0.00E+00 Mbytes, locked:    0 /   0

     iteration # 24     ecut=    80.00 Ry     beta= 0.40
     Davidson diagonalization with overlap

---- Real-time Memory Report at c_bands before calling an iterative solver
          1410 MiB given to the printing process from OS
             0 MiB allocation reported by mallinfo(arena+hblkhd)
         15886 MiB available memory on the node where the printing process lives
     GPU memory used/free/total (MiB): 1213 / 10700 / 11914
------------------
     ethr =  2.29E-13,  avg # of iterations =  4.5

     total cpu time spent up to now is     3045.8 secs

     End of self-consistent calculation

          k = 0.0000 0.0000 0.0000 ( 14509 PWs)   bands (ev):

   -77.9440 -49.1328 -49.1139 -49.0825 -24.7532 -24.4536 -21.5557 -20.3653
   -14.0110 -12.2760 -10.0456  -9.3585  -9.1246  -8.9957  -8.7546  -8.4513
    -8.3007  -8.1299  -7.2358  -7.1989  -5.8881

     occupation numbers 
     1.0000   1.0000   1.0000   1.0000   1.0000   1.0000   1.0000   1.0000
     1.0000   1.0000   1.0000   1.0000   1.0000   1.0000   1.0000   1.0000
     1.0000   1.0000   1.0000   1.0000   1.0000

          k = 0.0000 0.1034 0.0000 ( 14525 PWs)   bands (ev):

   -77.9413 -49.1356 -49.1288 -49.0872 -24.6131 -24.3128 -21.4416 -20.2954
   -13.8850 -12.1966 -10.1176  -9.8931  -9.6215  -9.2623  -8.8935  -8.6942
    -8.2063  -8.1404  -7.3759  -7.2850  -5.9054

     occupation numbers 
     1.0000   1.0000   1.0000   1.0000   1.0000   1.0000   1.0000   1.0000
     1.0000   1.0000   1.0000   1.0000   1.0000   1.0000   1.0000   1.0000
     1.0000   1.0000   1.0000   1.0000   1.0000

          k = 0.0000 0.2068 0.0000 ( 14553 PWs)   bands (ev):

   -77.9338 -49.1926 -49.1188 -49.0998 -24.2055 -23.9027 -21.1237 -20.1018
   -13.5694 -12.0711 -11.4302 -11.0819  -9.6715  -9.6033  -9.2833  -9.2383
    -8.3647  -7.9476  -7.7124  -7.6212  -6.1058

     occupation numbers 
     1.0000   1.0000   1.0000   1.0000   1.0000   1.0000   1.0000   1.0000
     1.0000   1.0000   1.0000   1.0000   1.0000   1.0000   1.0000   1.0000
     1.0000   1.0000   1.0000   1.0000   1.0000

          k = 0.0000 0.3102 0.0000 ( 14539 PWs)   bands (ev):

   -77.9240 -49.2668 -49.1163 -49.1054 -23.5760 -23.2677 -20.6794 -19.8383
   -13.6402 -13.1614 -12.3836 -11.4497 -10.1051 -10.0011  -9.6403  -9.3223
    -8.8652  -8.0961  -7.9989  -7.5906  -6.4248

     occupation numbers 
     1.0000   1.0000   1.0000   1.0000   1.0000   1.0000   1.0000   1.0000
     1.0000   1.0000   1.0000   1.0000   1.0000   1.0000   1.0000   1.0000
     1.0000   1.0000   1.0000   1.0000   1.0000

          k = 0.0000 0.4136 0.0000 ( 14485 PWs)   bands (ev):

   -77.9149 -49.3345 -49.1314 -49.0931 -22.8378 -22.5182 -20.2512 -19.6033
   -14.8922 -14.5351 -12.2069 -11.2223 -10.7510 -10.3293  -9.9715  -9.5037
    -9.0281  -8.4054  -8.1706  -7.2475  -6.5689

     occupation numbers 
     1.0000   1.0000   1.0000   1.0000   1.0000   1.0000   1.0000   1.0000
     1.0000   1.0000   1.0000   1.0000   1.0000   1.0000   1.0000   1.0000
     1.0000   1.0000   1.0000   1.0000   1.0000

          k = 0.0000 0.5170 0.0000 ( 14484 PWs)   bands (ev):

   -77.9096 -49.3745 -49.1404 -49.0858 -22.2596 -21.9225 -20.0155 -19.5010
   -15.7938 -15.4341 -11.9604 -11.3962 -10.9155 -10.5107 -10.1544  -9.7788
    -8.8331  -8.5752  -8.2259  -7.0349  -6.5688

     occupation numbers 
     1.0000   1.0000   1.0000   1.0000   1.0000   1.0000   1.0000   1.0000
     1.0000   1.0000   1.0000   1.0000   1.0000   1.0000   1.0000   1.0000
     1.0000   1.0000   1.0000   1.0000   1.0000

          k = 0.0000-0.5170 0.0000 ( 14484 PWs)   bands (ev):

   -77.9096 -49.3745 -49.1404 -49.0858 -22.2596 -21.9225 -20.0155 -19.5010
   -15.7938 -15.4341 -11.9604 -11.3962 -10.9155 -10.5107 -10.1544  -9.7788
    -8.8331  -8.5752  -8.2259  -7.0349  -6.5688

     occupation numbers 
     1.0000   1.0000   1.0000   1.0000   1.0000   1.0000   1.0000   1.0000
     1.0000   1.0000   1.0000   1.0000   1.0000   1.0000   1.0000   1.0000
     1.0000   1.0000   1.0000   1.0000   1.0000

          k = 0.0000-0.4136 0.0000 ( 14485 PWs)   bands (ev):

   -77.9149 -49.3345 -49.1314 -49.0931 -22.8378 -22.5182 -20.2512 -19.6033
   -14.8922 -14.5351 -12.2069 -11.2223 -10.7510 -10.3293  -9.9715  -9.5037
    -9.0281  -8.4054  -8.1706  -7.2475  -6.5689

     occupation numbers 
     1.0000   1.0000   1.0000   1.0000   1.0000   1.0000   1.0000   1.0000
     1.0000   1.0000   1.0000   1.0000   1.0000   1.0000   1.0000   1.0000
     1.0000   1.0000   1.0000   1.0000   1.0000

          k = 0.0000-0.3102 0.0000 ( 14539 PWs)   bands (ev):

   -77.9240 -49.2668 -49.1163 -49.1054 -23.5760 -23.2677 -20.6794 -19.8383
   -13.6402 -13.1614 -12.3836 -11.4497 -10.1051 -10.0011  -9.6403  -9.3223
    -8.8652  -8.0961  -7.9989  -7.5906  -6.4248

     occupation numbers 
     1.0000   1.0000   1.0000   1.0000   1.0000   1.0000   1.0000   1.0000
     1.0000   1.0000   1.0000   1.0000   1.0000   1.0000   1.0000   1.0000
     1.0000   1.0000   1.0000   1.0000   1.0000

          k = 0.0000-0.2068 0.0000 ( 14553 PWs)   bands (ev):

   -77.9338 -49.1926 -49.1188 -49.0998 -24.2055 -23.9027 -21.1237 -20.1018
   -13.5694 -12.0711 -11.4302 -11.0819  -9.6715  -9.6033  -9.2833  -9.2383
    -8.3647  -7.9476  -7.7124  -7.6212  -6.1058

     occupation numbers 
     1.0000   1.0000   1.0000   1.0000   1.0000   1.0000   1.0000   1.0000
     1.0000   1.0000   1.0000   1.0000   1.0000   1.0000   1.0000   1.0000
     1.0000   1.0000   1.0000   1.0000   1.0000

          k = 0.0000-0.1034 0.0000 ( 14525 PWs)   bands (ev):

   -77.9413 -49.1356 -49.1288 -49.0872 -24.6131 -24.3128 -21.4416 -20.2954
   -13.8850 -12.1966 -10.1176  -9.8931  -9.6215  -9.2623  -8.8935  -8.6942
    -8.2063  -8.1404  -7.3759  -7.2850  -5.9054

     occupation numbers 
     1.0000   1.0000   1.0000   1.0000   1.0000   1.0000   1.0000   1.0000
     1.0000   1.0000   1.0000   1.0000   1.0000   1.0000   1.0000   1.0000
     1.0000   1.0000   1.0000   1.0000   1.0000

          k = 0.0909 0.0517 0.0000 ( 14561 PWs)   bands (ev):

   -77.9410 -49.1290 -49.1246 -49.0993 -24.6096 -24.3093 -21.4377 -20.2926
   -13.8801 -12.1936 -10.0429  -9.7976  -9.4854  -9.4257  -9.0631  -8.6048
    -8.3052  -8.1425  -7.3703  -7.2827  -5.9040

     occupation numbers 
     1.0000   1.0000   1.0000   1.0000   1.0000   1.0000   1.0000   1.0000
     1.0000   1.0000   1.0000   1.0000   1.0000   1.0000   1.0000   1.0000
     1.0000   1.0000   1.0000   1.0000   1.0000

          k = 0.0909 0.1551 0.0000 ( 14541 PWs)   bands (ev):

   -77.9359 -49.1682 -49.1217 -49.1039 -24.3356 -24.0337 -21.2214 -20.1605
   -13.6546 -12.0685 -10.9320 -10.5758  -9.7748  -9.6296  -9.3166  -9.0366
    -8.2436  -8.0859  -7.8033  -7.3321  -6.0230

     occupation numbers 
     1.0000   1.0000   1.0000   1.0000   1.0000   1.0000   1.0000   1.0000
     1.0000   1.0000   1.0000   1.0000   1.0000   1.0000   1.0000   1.0000
     1.0000   1.0000   1.0000   1.0000   1.0000

          k = 0.0909 0.2585 0.0000 ( 14530 PWs)   bands (ev):

   -77.9273 -49.2335 -49.1189 -49.1100 -23.8151 -23.5093 -20.8383 -19.9296
   -13.4115 -12.5230 -12.0046 -11.4719 -10.2207  -9.9304  -9.6179  -9.3940
    -8.5953  -8.2875  -7.8172  -7.5710  -6.3062

     occupation numbers 
     1.0000   1.0000   1.0000   1.0000   1.0000   1.0000   1.0000   1.0000
     1.0000   1.0000   1.0000   1.0000   1.0000   1.0000   1.0000   1.0000
     1.0000   1.0000   1.0000   1.0000   1.0000

          k = 0.0909 0.3619 0.0000 ( 14507 PWs)   bands (ev):

   -77.9178 -49.3021 -49.1370 -49.0971 -23.1217 -22.8077 -20.3958 -19.6738
   -14.2123 -13.8433 -12.2941 -11.2548 -10.7126 -10.4838 -10.1797  -9.3524
    -9.1006  -8.3872  -7.9392  -7.5830  -6.5010

     occupation numbers 
     1.0000   1.0000   1.0000   1.0000   1.0000   1.0000   1.0000   1.0000
     1.0000   1.0000   1.0000   1.0000   1.0000   1.0000   1.0000   1.0000
     1.0000   1.0000   1.0000   1.0000   1.0000

          k = 0.0909 0.4653 0.0000 ( 14482 PWs)   bands (ev):

   -77.9106 -49.3537 -49.1512 -49.0873 -22.4317 -22.1021 -20.0595 -19.5024
   -15.3460 -14.9890 -11.9987 -11.3224 -10.8952 -10.8220 -10.5793  -9.7578
    -8.9388  -8.5341  -8.1152  -7.4744  -6.4500

     occupation numbers 
     1.0000   1.0000   1.0000   1.0000   1.0000   1.0000   1.0000   1.0000
     1.0000   1.0000   1.0000   1.0000   1.0000   1.0000   1.0000   1.0000
     1.0000   1.0000   1.0000   1.0000   1.0000

          k = 0.0909 0.5687 0.0000 ( 14530 PWs)   bands (ev):

   -77.9080 -49.3728 -49.1566 -49.0837 -22.1083 -21.7658 -19.9520 -19.4624
   -15.8097 -15.4496 -11.8516 -11.5004 -11.0271 -10.8249 -10.7227  -9.8020
    -8.9440  -8.5631  -8.1197  -7.4566  -6.3853

     occupation numbers 
     1.0000   1.0000   1.0000   1.0000   1.0000   1.0000   1.0000   1.0000
     1.0000   1.0000   1.0000   1.0000   1.0000   1.0000   1.0000   1.0000
     1.0000   1.0000   1.0000   1.0000   1.0000

          k = 0.0909-0.4653 0.0000 ( 14482 PWs)   bands (ev):

   -77.9106 -49.3537 -49.1512 -49.0873 -22.4316 -22.1021 -20.0595 -19.5023
   -15.3462 -14.9889 -11.9987 -11.3224 -10.8951 -10.8222 -10.5795  -9.7568
    -8.9391  -8.5347  -8.1153  -7.4752  -6.4489

     occupation numbers 
     1.0000   1.0000   1.0000   1.0000   1.0000   1.0000   1.0000   1.0000
     1.0000   1.0000   1.0000   1.0000   1.0000   1.0000   1.0000   1.0000
     1.0000   1.0000   1.0000   1.0000   1.0000

          k = 0.0909-0.3619 0.0000 ( 14507 PWs)   bands (ev):

   -77.9178 -49.3021 -49.1370 -49.0971 -23.1217 -22.8077 -20.3959 -19.6736
   -14.2127 -13.8431 -12.2942 -11.2546 -10.7123 -10.4838 -10.1801  -9.3528
    -9.1006  -8.3859  -7.9408  -7.5837  -6.4996

     occupation numbers 
     1.0000   1.0000   1.0000   1.0000   1.0000   1.0000   1.0000   1.0000
     1.0000   1.0000   1.0000   1.0000   1.0000   1.0000   1.0000   1.0000
     1.0000   1.0000   1.0000   1.0000   1.0000

          k = 0.0909-0.2585 0.0000 ( 14530 PWs)   bands (ev):

   -77.9273 -49.2335 -49.1188 -49.1100 -23.8151 -23.5093 -20.8384 -19.9294
   -13.4117 -12.5234 -12.0046 -11.4716 -10.2196  -9.9307  -9.6185  -9.3941
    -8.5967  -8.2855  -7.8171  -7.5723  -6.3050

     occupation numbers 
     1.0000   1.0000   1.0000   1.0000   1.0000   1.0000   1.0000   1.0000
     1.0000   1.0000   1.0000   1.0000   1.0000   1.0000   1.0000   1.0000
     1.0000   1.0000   1.0000   1.0000   1.0000

          k = 0.0909-0.1551 0.0000 ( 14541 PWs)   bands (ev):

   -77.9359 -49.1683 -49.1217 -49.1038 -24.3356 -24.0337 -21.2214 -20.1604
   -13.6547 -12.0683 -10.9339 -10.5749  -9.7742  -9.6279  -9.3177  -9.0375
    -8.2419  -8.0853  -7.8057  -7.3320  -6.0221

     occupation numbers 
     1.0000   1.0000   1.0000   1.0000   1.0000   1.0000   1.0000   1.0000
     1.0000   1.0000   1.0000   1.0000   1.0000   1.0000   1.0000   1.0000
     1.0000   1.0000   1.0000   1.0000   1.0000

          k = 0.0909-0.0517 0.0000 ( 14561 PWs)   bands (ev):

   -77.9410 -49.1290 -49.1246 -49.0992 -24.6096 -24.3093 -21.4377 -20.2926
   -13.8801 -12.1935 -10.0439  -9.7994  -9.4842  -9.4226  -9.0644  -8.6057
    -8.3044  -8.1417  -7.3750  -7.2790  -5.9037

     occupation numbers 
     1.0000   1.0000   1.0000   1.0000   1.0000   1.0000   1.0000   1.0000
     1.0000   1.0000   1.0000   1.0000   1.0000   1.0000   1.0000   1.0000
     1.0000   1.0000   1.0000   1.0000   1.0000

          k = 0.1818 0.1034 0.0000 ( 14557 PWs)   bands (ev):

   -77.9330 -49.1750 -49.1233 -49.1177 -24.1919 -23.8891 -21.1084 -20.0910
   -13.5466 -12.0379 -11.2857 -10.9322  -9.8085  -9.6488  -9.4457  -9.2117
    -8.3795  -8.0490  -7.7455  -7.5764  -6.1028

     occupation numbers 
     1.0000   1.0000   1.0000   1.0000   1.0000   1.0000   1.0000   1.0000
     1.0000   1.0000   1.0000   1.0000   1.0000   1.0000   1.0000   1.0000
     1.0000   1.0000   1.0000   1.0000   1.0000

          k = 0.1818 0.2068 0.0000 ( 14545 PWs)   bands (ev):

   -77.9267 -49.2246 -49.1320 -49.1093 -23.8050 -23.4992 -20.8268 -19.9211
   -13.3802 -12.4405 -11.9275 -11.4376 -10.3477 -10.0330  -9.6225  -9.3854
    -8.6064  -8.2789  -7.8727  -7.5786  -6.2999

     occupation numbers 
     1.0000   1.0000   1.0000   1.0000   1.0000   1.0000   1.0000   1.0000
     1.0000   1.0000   1.0000   1.0000   1.0000   1.0000   1.0000   1.0000
     1.0000   1.0000   1.0000   1.0000   1.0000

          k = 0.1818 0.3102 0.0000 ( 14487 PWs)   bands (ev):

   -77.9184 -49.2786 -49.1541 -49.0981 -23.2144 -22.9022 -20.4405 -19.6922
   -13.7705 -13.3656 -12.2138 -11.2715 -11.1748 -10.9086 -10.0432  -9.3388
    -9.1220  -8.4052  -7.8646  -7.7588  -6.4583

     occupation numbers 
     1.0000   1.0000   1.0000   1.0000   1.0000   1.0000   1.0000   1.0000
     1.0000   1.0000   1.0000   1.0000   1.0000   1.0000   1.0000   1.0000
     1.0000   1.0000   1.0000   1.0000   1.0000

          k = 0.1818 0.4136 0.0000 ( 14478 PWs)   bands (ev):

   -77.9108 -49.3239 -49.1786 -49.0877 -22.5375 -22.2127 -20.0781 -19.4892
   -14.7061 -14.3484 -12.0759 -11.8892 -11.5955 -10.8500 -10.4627  -9.9089
    -8.9546  -8.4806  -8.1023  -7.9819  -6.3769

     occupation numbers 
     1.0000   1.0000   1.0000   1.0000   1.0000   1.0000   1.0000   1.0000
     1.0000   1.0000   1.0000   1.0000   1.0000   1.0000   1.0000   1.0000
     1.0000   1.0000   1.0000   1.0000   1.0000

          k = 0.1818 0.5170 0.0000 ( 14479 PWs)   bands (ev):

   -77.9063 -49.3496 -49.1943 -49.0816 -22.0260 -21.6835 -19.8812 -19.3944
   -15.3896 -15.0317 -12.3922 -12.1094 -11.4471 -10.9357 -10.7712  -9.9055
    -9.0594  -8.5215  -8.3419  -7.9651  -6.2041

     occupation numbers 
     1.0000   1.0000   1.0000   1.0000   1.0000   1.0000   1.0000   1.0000
     1.0000   1.0000   1.0000   1.0000   1.0000   1.0000   1.0000   1.0000
     1.0000   1.0000   1.0000   1.0000   1.0000

          k = 0.1818 0.6204 0.0000 ( 14479 PWs)   bands (ev):

   -77.9063 -49.3496 -49.1942 -49.0816 -22.0259 -21.6836 -19.8812 -19.3943
   -15.3898 -15.0316 -12.3919 -12.1096 -11.4471 -10.9359 -10.7720  -9.9040
    -9.0602  -8.5217  -8.3424  -7.9649  -6.2037

     occupation numbers 
     1.0000   1.0000   1.0000   1.0000   1.0000   1.0000   1.0000   1.0000
     1.0000   1.0000   1.0000   1.0000   1.0000   1.0000   1.0000   1.0000
     1.0000   1.0000   1.0000   1.0000   1.0000

          k = 0.1818-0.4136 0.0000 ( 14478 PWs)   bands (ev):

   -77.9108 -49.3239 -49.1785 -49.0877 -22.5374 -22.2127 -20.0783 -19.4889
   -14.7069 -14.3480 -12.0753 -11.8890 -11.5957 -10.8503 -10.4633  -9.9083
    -8.9545  -8.4807  -8.1035  -7.9820  -6.3757

     occupation numbers 
     1.0000   1.0000   1.0000   1.0000   1.0000   1.0000   1.0000   1.0000
     1.0000   1.0000   1.0000   1.0000   1.0000   1.0000   1.0000   1.0000
     1.0000   1.0000   1.0000   1.0000   1.0000

          k = 0.1818-0.3102 0.0000 ( 14487 PWs)   bands (ev):

   -77.9184 -49.2787 -49.1540 -49.0981 -23.2143 -22.9022 -20.4407 -19.6918
   -13.7716 -13.3654 -12.2139 -11.2701 -11.1739 -10.9092 -10.0441  -9.3399
    -9.1220  -8.4040  -7.8648  -7.7607  -6.4565

     occupation numbers 
     1.0000   1.0000   1.0000   1.0000   1.0000   1.0000   1.0000   1.0000
     1.0000   1.0000   1.0000   1.0000   1.0000   1.0000   1.0000   1.0000
     1.0000   1.0000   1.0000   1.0000   1.0000

          k = 0.1818-0.2068 0.0000 ( 14545 PWs)   bands (ev):

   -77.9267 -49.2247 -49.1319 -49.1093 -23.8049 -23.4992 -20.8270 -19.9208
   -13.3806 -12.4412 -11.9277 -11.4370 -10.3452 -10.0340  -9.6235  -9.3856
    -8.6061  -8.2792  -7.8723  -7.5801  -6.2981

     occupation numbers 
     1.0000   1.0000   1.0000   1.0000   1.0000   1.0000   1.0000   1.0000
     1.0000   1.0000   1.0000   1.0000   1.0000   1.0000   1.0000   1.0000
     1.0000   1.0000   1.0000   1.0000   1.0000

          k = 0.1818-0.1034 0.0000 ( 14557 PWs)   bands (ev):

   -77.9330 -49.1751 -49.1231 -49.1177 -24.1918 -23.8891 -21.1085 -20.0909
   -13.5468 -12.0377 -11.2877 -10.9313  -9.8060  -9.6489  -9.4469  -9.2124
    -8.3776  -8.0484  -7.7492  -7.5756  -6.1017

     occupation numbers 
     1.0000   1.0000   1.0000   1.0000   1.0000   1.0000   1.0000   1.0000
     1.0000   1.0000   1.0000   1.0000   1.0000   1.0000   1.0000   1.0000
     1.0000   1.0000   1.0000   1.0000   1.0000

          k = 0.1818-0.0000 0.0000 ( 14573 PWs)   bands (ev):

   -77.9353 -49.1478 -49.1286 -49.1209 -24.3254 -24.0236 -21.2102 -20.1528
   -13.6404 -12.0572 -10.8140 -10.4527  -9.8462  -9.6880  -9.4425  -8.9870
    -8.2657  -8.1717  -7.7950  -7.3194  -6.0252

     occupation numbers 
     1.0000   1.0000   1.0000   1.0000   1.0000   1.0000   1.0000   1.0000
     1.0000   1.0000   1.0000   1.0000   1.0000   1.0000   1.0000   1.0000
     1.0000   1.0000   1.0000   1.0000   1.0000

          k = 0.2727 0.1551 0.0000 ( 14551 PWs)   bands (ev):

   -77.9224 -49.2511 -49.1432 -49.1037 -23.5465 -23.2385 -20.6471 -19.8146
   -13.5277 -13.0229 -12.3105 -11.4255 -10.2308 -10.0415  -9.8723  -9.2959
    -8.8664  -8.1673  -7.9493  -7.6851  -6.4216

     occupation numbers 
     1.0000   1.0000   1.0000   1.0000   1.0000   1.0000   1.0000   1.0000
     1.0000   1.0000   1.0000   1.0000   1.0000   1.0000   1.0000   1.0000
     1.0000   1.0000   1.0000   1.0000   1.0000

          k = 0.2727 0.2585 0.0000 ( 14499 PWs)   bands (ev):

   -77.9165 -49.2900 -49.1587 -49.0956 -23.0955 -22.7818 -20.3666 -19.6513
   -14.0858 -13.7160 -12.2647 -11.2464 -10.8804 -10.6064 -10.2323  -9.3417
    -9.0898  -8.3973  -7.9597  -7.6727  -6.4819

     occupation numbers 
     1.0000   1.0000   1.0000   1.0000   1.0000   1.0000   1.0000   1.0000
     1.0000   1.0000   1.0000   1.0000   1.0000   1.0000   1.0000   1.0000
     1.0000   1.0000   1.0000   1.0000   1.0000

          k = 0.2727 0.3619 0.0000 ( 14446 PWs)   bands (ev):

   -77.9101 -49.3168 -49.1911 -49.0869 -22.5211 -22.1967 -20.0598 -19.4746
   -14.6231 -14.2662 -12.1439 -11.9410 -11.6946 -10.8516 -10.4323  -9.9036
    -8.9468  -8.4887  -8.1471  -7.9983  -6.3642

     occupation numbers 
     1.0000   1.0000   1.0000   1.0000   1.0000   1.0000   1.0000   1.0000
     1.0000   1.0000   1.0000   1.0000   1.0000   1.0000   1.0000   1.0000
     1.0000   1.0000   1.0000   1.0000   1.0000

          k = 0.2727 0.4653 0.0000 ( 14474 PWs)   bands (ev):

   -77.9052 -49.3251 -49.2280 -49.0802 -21.9924 -21.6514 -19.8372 -19.3502
   -14.9235 -14.5652 -13.1515 -12.8237 -11.4870 -10.7310 -10.5128 -10.0506
    -9.1607  -8.8466  -8.3819  -8.0217  -6.1280

     occupation numbers 
     1.0000   1.0000   1.0000   1.0000   1.0000   1.0000   1.0000   1.0000
     1.0000   1.0000   1.0000   1.0000   1.0000   1.0000   1.0000   1.0000
     1.0000   1.0000   1.0000   1.0000   1.0000

          k = 0.2727 0.5687 0.0000 ( 14432 PWs)   bands (ev):

   -77.9033 -49.3235 -49.2465 -49.0777 -21.7651 -21.4134 -19.7629 -19.3103
   -14.9970 -14.6367 -13.5910 -13.2621 -11.1996 -10.8456 -10.5881  -9.7430
    -9.5861  -9.0927  -8.3551  -7.9839  -5.9901

     occupation numbers 
     1.0000   1.0000   1.0000   1.0000   1.0000   1.0000   1.0000   1.0000
     1.0000   1.0000   1.0000   1.0000   1.0000   1.0000   1.0000   1.0000
     1.0000   1.0000   1.0000   1.0000   1.0000

          k = 0.2727 0.6721 0.0000 ( 14474 PWs)   bands (ev):

   -77.9052 -49.3252 -49.2279 -49.0802 -21.9923 -21.6515 -19.8375 -19.3499
   -14.9248 -14.5645 -13.1499 -12.8244 -11.4872 -10.7323 -10.5132 -10.0489
    -9.1605  -8.8473  -8.3828  -8.0215  -6.1275

     occupation numbers 
     1.0000   1.0000   1.0000   1.0000   1.0000   1.0000   1.0000   1.0000
     1.0000   1.0000   1.0000   1.0000   1.0000   1.0000   1.0000   1.0000
     1.0000   1.0000   1.0000   1.0000   1.0000

          k = 0.2727-0.3619 0.0000 ( 14446 PWs)   bands (ev):

   -77.9101 -49.3169 -49.1910 -49.0869 -22.5210 -22.1968 -20.0602 -19.4742
   -14.6248 -14.2654 -12.1424 -11.9408 -11.6952 -10.8514 -10.4329  -9.9039
    -8.9468  -8.4892  -8.1484  -7.9981  -6.3628

     occupation numbers 
     1.0000   1.0000   1.0000   1.0000   1.0000   1.0000   1.0000   1.0000
     1.0000   1.0000   1.0000   1.0000   1.0000   1.0000   1.0000   1.0000
     1.0000   1.0000   1.0000   1.0000   1.0000

          k = 0.2727-0.2585 0.0000 ( 14499 PWs)   bands (ev):

   -77.9165 -49.2901 -49.1585 -49.0956 -23.0954 -22.7819 -20.3669 -19.6508
   -14.0873 -13.7154 -12.2650 -11.2456 -10.8784 -10.6070 -10.2330  -9.3424
    -9.0900  -8.3978  -7.9608  -7.6731  -6.4796

     occupation numbers 
     1.0000   1.0000   1.0000   1.0000   1.0000   1.0000   1.0000   1.0000
     1.0000   1.0000   1.0000   1.0000   1.0000   1.0000   1.0000   1.0000
     1.0000   1.0000   1.0000   1.0000   1.0000

          k = 0.2727-0.1551 0.0000 ( 14551 PWs)   bands (ev):

   -77.9224 -49.2512 -49.1430 -49.1037 -23.5465 -23.2385 -20.6473 -19.8143
   -13.5285 -13.0230 -12.3106 -11.4249 -10.2285 -10.0419  -9.8734  -9.2961
    -8.8657  -8.1704  -7.9489  -7.6851  -6.4197

     occupation numbers 
     1.0000   1.0000   1.0000   1.0000   1.0000   1.0000   1.0000   1.0000
     1.0000   1.0000   1.0000   1.0000   1.0000   1.0000   1.0000   1.0000
     1.0000   1.0000   1.0000   1.0000   1.0000

          k = 0.2727-0.0517 0.0000 ( 14554 PWs)   bands (ev):

   -77.9259 -49.2168 -49.1452 -49.1084 -23.7892 -23.4835 -20.8108 -19.9101
   -13.3584 -12.4130 -11.9074 -11.4289 -10.3750 -10.0609  -9.6297  -9.3757
    -8.6064  -8.3173  -7.8891  -7.5433  -6.3195

     occupation numbers 
     1.0000   1.0000   1.0000   1.0000   1.0000   1.0000   1.0000   1.0000
     1.0000   1.0000   1.0000   1.0000   1.0000   1.0000   1.0000   1.0000
     1.0000   1.0000   1.0000   1.0000   1.0000

          k = 0.2727 0.0517 0.0000 ( 14554 PWs)   bands (ev):

   -77.9259 -49.2167 -49.1453 -49.1084 -23.7892 -23.4835 -20.8107 -19.9102
   -13.3582 -12.4127 -11.9073 -11.4291 -10.3763 -10.0604  -9.6295  -9.3757
    -8.6082  -8.3149  -7.8892  -7.5431  -6.3201

     occupation numbers 
     1.0000   1.0000   1.0000   1.0000   1.0000   1.0000   1.0000   1.0000
     1.0000   1.0000   1.0000   1.0000   1.0000   1.0000   1.0000   1.0000
     1.0000   1.0000   1.0000   1.0000   1.0000

          k = 0.3636 0.2068 0.0000 ( 14479 PWs)   bands (ev):

   -77.9127 -49.3216 -49.1604 -49.0906 -22.7893 -22.4704 -20.1994 -19.5639
   -14.7566 -14.4026 -12.1805 -11.2014 -10.6949 -10.5767 -10.2214  -9.4801
    -9.0017  -8.4960  -8.1260  -7.3407  -6.5592

     occupation numbers 
     1.0000   1.0000   1.0000   1.0000   1.0000   1.0000   1.0000   1.0000
     1.0000   1.0000   1.0000   1.0000   1.0000   1.0000   1.0000   1.0000
     1.0000   1.0000   1.0000   1.0000   1.0000

          k = 0.3636 0.3102 0.0000 ( 14484 PWs)   bands (ev):

   -77.9086 -49.3419 -49.1775 -49.0850 -22.3859 -22.0573 -20.0097 -19.4630
   -15.2181 -14.8647 -11.9869 -11.4053 -11.0222 -10.8539 -10.7231  -9.7323
    -8.9285  -8.5701  -8.1125  -7.5709  -6.4226

     occupation numbers 
     1.0000   1.0000   1.0000   1.0000   1.0000   1.0000   1.0000   1.0000
     1.0000   1.0000   1.0000   1.0000   1.0000   1.0000   1.0000   1.0000
     1.0000   1.0000   1.0000   1.0000   1.0000

          k = 0.3636 0.4136 0.0000 ( 14456 PWs)   bands (ev):

   -77.9049 -49.3390 -49.2151 -49.0799 -21.9888 -21.6473 -19.8428 -19.3641
   -15.2813 -14.9264 -12.5563 -12.2576 -11.4620 -10.9142 -10.7658  -9.8785
    -9.0760  -8.5158  -8.3994  -7.9710  -6.1917

     occupation numbers 
     1.0000   1.0000   1.0000   1.0000   1.0000   1.0000   1.0000   1.0000
     1.0000   1.0000   1.0000   1.0000   1.0000   1.0000   1.0000   1.0000
     1.0000   1.0000   1.0000   1.0000   1.0000

          k = 0.3636 0.5170 0.0000 ( 14455 PWs)   bands (ev):

   -77.9026 -49.3138 -49.2611 -49.0769 -21.7436 -21.3921 -19.7440 -19.2962
   -14.9164 -14.5563 -13.7007 -13.3720 -11.1917 -10.8459 -10.5769  -9.7353
    -9.6099  -9.1005  -8.3379  -7.9880  -5.9955

     occupation numbers 
     1.0000   1.0000   1.0000   1.0000   1.0000   1.0000   1.0000   1.0000
     1.0000   1.0000   1.0000   1.0000   1.0000   1.0000   1.0000   1.0000
     1.0000   1.0000   1.0000   1.0000   1.0000

          k = 0.3636 0.6204 0.0000 ( 14455 PWs)   bands (ev):

   -77.9026 -49.3139 -49.2610 -49.0769 -21.7435 -21.3921 -19.7442 -19.2961
   -14.9176 -14.5557 -13.6993 -13.3726 -11.1919 -10.8462 -10.5770  -9.7352
    -9.6093  -9.1007  -8.3382  -7.9880  -5.9953

     occupation numbers 
     1.0000   1.0000   1.0000   1.0000   1.0000   1.0000   1.0000   1.0000
     1.0000   1.0000   1.0000   1.0000   1.0000   1.0000   1.0000   1.0000
     1.0000   1.0000   1.0000   1.0000   1.0000

          k = 0.3636 0.7238 0.0000 ( 14456 PWs)   bands (ev):

   -77.9049 -49.3391 -49.2150 -49.0800 -21.9886 -21.6474 -19.8431 -19.3637
   -15.2828 -14.9256 -12.5546 -12.2583 -11.4625 -10.9143 -10.7661  -9.8779
    -9.0764  -8.5163  -8.4001  -7.9709  -6.1909

     occupation numbers 
     1.0000   1.0000   1.0000   1.0000   1.0000   1.0000   1.0000   1.0000
     1.0000   1.0000   1.0000   1.0000   1.0000   1.0000   1.0000   1.0000
     1.0000   1.0000   1.0000   1.0000   1.0000

          k = 0.3636-0.3102 0.0000 ( 14484 PWs)   bands (ev):

   -77.9086 -49.3420 -49.1774 -49.0851 -22.3856 -22.0574 -20.0101 -19.4625
   -15.2196 -14.8639 -11.9875 -11.4042 -11.0215 -10.8535 -10.7236  -9.7324
    -8.9290  -8.5718  -8.1125  -7.5714  -6.4207

     occupation numbers 
     1.0000   1.0000   1.0000   1.0000   1.0000   1.0000   1.0000   1.0000
     1.0000   1.0000   1.0000   1.0000   1.0000   1.0000   1.0000   1.0000
     1.0000   1.0000   1.0000   1.0000   1.0000

          k = 0.3636-0.2068 0.0000 ( 14479 PWs)   bands (ev):

   -77.9127 -49.3217 -49.1602 -49.0906 -22.7891 -22.4705 -20.1998 -19.5634
   -14.7580 -14.4019 -12.1810 -11.2007 -10.6947 -10.5746 -10.2224  -9.4806
    -9.0019  -8.4984  -8.1256  -7.3414  -6.5570

     occupation numbers 
     1.0000   1.0000   1.0000   1.0000   1.0000   1.0000   1.0000   1.0000
     1.0000   1.0000   1.0000   1.0000   1.0000   1.0000   1.0000   1.0000
     1.0000   1.0000   1.0000   1.0000   1.0000

          k = 0.3636-0.1034 0.0000 ( 14506 PWs)   bands (ev):

   -77.9158 -49.2892 -49.1644 -49.0948 -23.0769 -22.7634 -20.3502 -19.6404
   -14.0933 -13.7233 -12.2602 -11.2464 -10.8703 -10.6023 -10.2477  -9.3508
    -9.0854  -8.4278  -7.9161  -7.6307  -6.5297

     occupation numbers 
     1.0000   1.0000   1.0000   1.0000   1.0000   1.0000   1.0000   1.0000
     1.0000   1.0000   1.0000   1.0000   1.0000   1.0000   1.0000   1.0000
     1.0000   1.0000   1.0000   1.0000   1.0000

          k = 0.3636 0.0000 0.0000 ( 14493 PWs)   bands (ev):

   -77.9170 -49.2702 -49.1729 -49.0964 -23.1799 -22.8679 -20.4071 -19.6695
   -13.7178 -13.3123 -12.1877 -11.3338 -11.1891 -10.9805 -10.0569  -9.3432
    -9.1140  -8.4332  -7.8578  -7.7203  -6.5069

     occupation numbers 
     1.0000   1.0000   1.0000   1.0000   1.0000   1.0000   1.0000   1.0000
     1.0000   1.0000   1.0000   1.0000   1.0000   1.0000   1.0000   1.0000
     1.0000   1.0000   1.0000   1.0000   1.0000

          k = 0.3636 0.1034 0.0000 ( 14506 PWs)   bands (ev):

   -77.9158 -49.2891 -49.1645 -49.0948 -23.0770 -22.7633 -20.3500 -19.6407
   -14.0923 -13.7237 -12.2600 -11.2470 -10.8719 -10.6018 -10.2476  -9.3505
    -9.0852  -8.4261  -7.9165  -7.6310  -6.5307

     occupation numbers 
     1.0000   1.0000   1.0000   1.0000   1.0000   1.0000   1.0000   1.0000
     1.0000   1.0000   1.0000   1.0000   1.0000   1.0000   1.0000   1.0000
     1.0000   1.0000   1.0000   1.0000   1.0000

          k = 0.4545 0.2585 0.0000 ( 14447 PWs)   bands (ev):

   -77.9069 -49.3634 -49.1704 -49.0828 -22.1956 -21.8599 -19.9486 -19.4487
   -15.6749 -15.3199 -11.9347 -11.3657 -10.8884 -10.7674 -10.4136  -9.7462
    -8.7934  -8.6741  -8.1738  -7.1309  -6.5475

     occupation numbers 
     1.0000   1.0000   1.0000   1.0000   1.0000   1.0000   1.0000   1.0000
     1.0000   1.0000   1.0000   1.0000   1.0000   1.0000   1.0000   1.0000
     1.0000   1.0000   1.0000   1.0000   1.0000

          k = 0.4545 0.3619 0.0000 ( 14473 PWs)   bands (ev):

   -77.9055 -49.3619 -49.1848 -49.0809 -22.0466 -21.7055 -19.8889 -19.4131
   -15.6965 -15.3410 -11.8462 -11.5700 -11.1225 -10.9418 -10.8413  -9.7764
    -8.9579  -8.5592  -8.1121  -7.5306  -6.3775

     occupation numbers 
     1.0000   1.0000   1.0000   1.0000   1.0000   1.0000   1.0000   1.0000
     1.0000   1.0000   1.0000   1.0000   1.0000   1.0000   1.0000   1.0000
     1.0000   1.0000   1.0000   1.0000   1.0000

          k = 0.4545 0.4653 0.0000 ( 14430 PWs)   bands (ev):

   -77.9044 -49.3392 -49.2179 -49.0795 -21.9728 -21.6312 -19.8324 -19.3580
   -15.2923 -14.9372 -12.5548 -12.2590 -11.4582 -10.9263 -10.7653  -9.9102
    -9.0477  -8.5248  -8.3540  -7.9718  -6.2203

     occupation numbers 
     1.0000   1.0000   1.0000   1.0000   1.0000   1.0000   1.0000   1.0000
     1.0000   1.0000   1.0000   1.0000   1.0000   1.0000   1.0000   1.0000
     1.0000   1.0000   1.0000   1.0000   1.0000

          k = 0.4545 0.5687 0.0000 ( 14406 PWs)   bands (ev):

   -77.9040 -49.3186 -49.2423 -49.0789 -21.9553 -21.6145 -19.8086 -19.3306
   -14.8851 -14.5255 -13.2264 -12.9032 -11.4741 -10.7228 -10.5417 -10.0781
    -9.1366  -8.8324  -8.3462  -8.0297  -6.1630

     occupation numbers 
     1.0000   1.0000   1.0000   1.0000   1.0000   1.0000   1.0000   1.0000
     1.0000   1.0000   1.0000   1.0000   1.0000   1.0000   1.0000   1.0000
     1.0000   1.0000   1.0000   1.0000   1.0000

          k = 0.4545 0.6721 0.0000 ( 14430 PWs)   bands (ev):

   -77.9044 -49.3392 -49.2177 -49.0795 -21.9726 -21.6312 -19.8327 -19.3577
   -15.2935 -14.9365 -12.5535 -12.2595 -11.4587 -10.9262 -10.7649  -9.9111
    -9.0473  -8.5252  -8.3542  -7.9718  -6.2199

     occupation numbers 
     1.0000   1.0000   1.0000   1.0000   1.0000   1.0000   1.0000   1.0000
     1.0000   1.0000   1.0000   1.0000   1.0000   1.0000   1.0000   1.0000
     1.0000   1.0000   1.0000   1.0000   1.0000

          k = 0.4545 0.7755 0.0000 ( 14473 PWs)   bands (ev):

   -77.9055 -49.3620 -49.1847 -49.0809 -22.0463 -21.7056 -19.8894 -19.4126
   -15.6978 -15.3402 -11.8470 -11.5691 -11.1214 -10.9427 -10.8409  -9.7763
    -8.9586  -8.5602  -8.1124  -7.5310  -6.3763

     occupation numbers 
     1.0000   1.0000   1.0000   1.0000   1.0000   1.0000   1.0000   1.0000
     1.0000   1.0000   1.0000   1.0000   1.0000   1.0000   1.0000   1.0000
     1.0000   1.0000   1.0000   1.0000   1.0000

          k = 0.4545-0.2585 0.0000 ( 14447 PWs)   bands (ev):

   -77.9069 -49.3635 -49.1703 -49.0828 -22.1953 -21.8600 -19.9491 -19.4481
   -15.6763 -15.3191 -11.9355 -11.3655 -10.8879 -10.7653 -10.4145  -9.7460
    -8.7937  -8.6761  -8.1740  -7.1322  -6.5451

     occupation numbers 
     1.0000   1.0000   1.0000   1.0000   1.0000   1.0000   1.0000   1.0000
     1.0000   1.0000   1.0000   1.0000   1.0000   1.0000   1.0000   1.0000
     1.0000   1.0000   1.0000   1.0000   1.0000

          k = 0.4545-0.1551 0.0000 ( 14436 PWs)   bands (ev):

   -77.9082 -49.3428 -49.1795 -49.0846 -22.3709 -22.0425 -19.9997 -19.4567
   -15.2341 -14.8786 -11.9820 -11.4009 -11.0229 -10.8527 -10.7179  -9.7621
    -8.9126  -8.5549  -8.1090  -7.5237  -6.4720

     occupation numbers 
     1.0000   1.0000   1.0000   1.0000   1.0000   1.0000   1.0000   1.0000
     1.0000   1.0000   1.0000   1.0000   1.0000   1.0000   1.0000   1.0000
     1.0000   1.0000   1.0000   1.0000   1.0000

          k = 0.4545-0.0517 0.0000 ( 14468 PWs)   bands (ev):

   -77.9090 -49.3150 -49.2007 -49.0856 -22.4869 -22.1627 -20.0322 -19.4567
   -14.6281 -14.2697 -12.1540 -11.9504 -11.7051 -10.8382 -10.4629  -9.9367
    -8.9309  -8.4786  -8.0971  -7.9769  -6.4237

     occupation numbers 
     1.0000   1.0000   1.0000   1.0000   1.0000   1.0000   1.0000   1.0000
     1.0000   1.0000   1.0000   1.0000   1.0000   1.0000   1.0000   1.0000
     1.0000   1.0000   1.0000   1.0000   1.0000

          k = 0.4545 0.0517 0.0000 ( 14468 PWs)   bands (ev):

   -77.9090 -49.3149 -49.2008 -49.0856 -22.4869 -22.1626 -20.0320 -19.4568
   -14.6274 -14.2701 -12.1545 -11.9505 -11.7047 -10.8389 -10.4629  -9.9358
    -8.9309  -8.4782  -8.0970  -7.9773  -6.4239

     occupation numbers 
     1.0000   1.0000   1.0000   1.0000   1.0000   1.0000   1.0000   1.0000
     1.0000   1.0000   1.0000   1.0000   1.0000   1.0000   1.0000   1.0000
     1.0000   1.0000   1.0000   1.0000   1.0000

          k = 0.4545 0.1551 0.0000 ( 14436 PWs)   bands (ev):

   -77.9082 -49.3427 -49.1796 -49.0846 -22.3711 -22.0425 -19.9993 -19.4571
   -15.2329 -14.8793 -11.9815 -11.4018 -11.0235 -10.8531 -10.7180  -9.7611
    -8.9125  -8.5537  -8.1091  -7.5237  -6.4729

     occupation numbers 
     1.0000   1.0000   1.0000   1.0000   1.0000   1.0000   1.0000   1.0000
     1.0000   1.0000   1.0000   1.0000   1.0000   1.0000   1.0000   1.0000
     1.0000   1.0000   1.0000   1.0000   1.0000

          k =-0.4545-0.2585 0.0000 ( 14447 PWs)   bands (ev):

   -77.9069 -49.3634 -49.1704 -49.0828 -22.1956 -21.8599 -19.9486 -19.4487
   -15.6749 -15.3199 -11.9347 -11.3657 -10.8884 -10.7674 -10.4136  -9.7462
    -8.7934  -8.6741  -8.1738  -7.1309  -6.5475

     occupation numbers 
     1.0000   1.0000   1.0000   1.0000   1.0000   1.0000   1.0000   1.0000
     1.0000   1.0000   1.0000   1.0000   1.0000   1.0000   1.0000   1.0000
     1.0000   1.0000   1.0000   1.0000   1.0000

          k =-0.4545-0.1551 0.0000 ( 14436 PWs)   bands (ev):

   -77.9082 -49.3427 -49.1796 -49.0846 -22.3711 -22.0425 -19.9993 -19.4571
   -15.2329 -14.8793 -11.9815 -11.4018 -11.0235 -10.8531 -10.7180  -9.7611
    -8.9125  -8.5537  -8.1091  -7.5237  -6.4729

     occupation numbers 
     1.0000   1.0000   1.0000   1.0000   1.0000   1.0000   1.0000   1.0000
     1.0000   1.0000   1.0000   1.0000   1.0000   1.0000   1.0000   1.0000
     1.0000   1.0000   1.0000   1.0000   1.0000

          k =-0.4545-0.0517 0.0000 ( 14468 PWs)   bands (ev):

   -77.9090 -49.3149 -49.2008 -49.0856 -22.4869 -22.1626 -20.0320 -19.4568
   -14.6274 -14.2701 -12.1545 -11.9505 -11.7047 -10.8389 -10.4629  -9.9358
    -8.9309  -8.4782  -8.0970  -7.9773  -6.4239

     occupation numbers 
     1.0000   1.0000   1.0000   1.0000   1.0000   1.0000   1.0000   1.0000
     1.0000   1.0000   1.0000   1.0000   1.0000   1.0000   1.0000   1.0000
     1.0000   1.0000   1.0000   1.0000   1.0000

          k =-0.4545 0.0517 0.0000 ( 14468 PWs)   bands (ev):

   -77.9090 -49.3150 -49.2007 -49.0856 -22.4869 -22.1627 -20.0322 -19.4567
   -14.6281 -14.2697 -12.1540 -11.9504 -11.7051 -10.8382 -10.4629  -9.9367
    -8.9309  -8.4786  -8.0971  -7.9769  -6.4237

     occupation numbers 
     1.0000   1.0000   1.0000   1.0000   1.0000   1.0000   1.0000   1.0000
     1.0000   1.0000   1.0000   1.0000   1.0000   1.0000   1.0000   1.0000
     1.0000   1.0000   1.0000   1.0000   1.0000

          k =-0.4545 0.1551 0.0000 ( 14436 PWs)   bands (ev):

   -77.9082 -49.3428 -49.1795 -49.0846 -22.3709 -22.0425 -19.9997 -19.4567
   -15.2341 -14.8786 -11.9820 -11.4009 -11.0229 -10.8527 -10.7179  -9.7621
    -8.9126  -8.5549  -8.1090  -7.5237  -6.4720

     occupation numbers 
     1.0000   1.0000   1.0000   1.0000   1.0000   1.0000   1.0000   1.0000
     1.0000   1.0000   1.0000   1.0000   1.0000   1.0000   1.0000   1.0000
     1.0000   1.0000   1.0000   1.0000   1.0000

          k =-0.4545 0.2585 0.0000 ( 14447 PWs)   bands (ev):

   -77.9069 -49.3635 -49.1703 -49.0828 -22.1953 -21.8600 -19.9491 -19.4481
   -15.6763 -15.3191 -11.9355 -11.3655 -10.8879 -10.7653 -10.4145  -9.7460
    -8.7937  -8.6761  -8.1740  -7.1322  -6.5451

     occupation numbers 
     1.0000   1.0000   1.0000   1.0000   1.0000   1.0000   1.0000   1.0000
     1.0000   1.0000   1.0000   1.0000   1.0000   1.0000   1.0000   1.0000
     1.0000   1.0000   1.0000   1.0000   1.0000

          k =-0.4545-0.7755 0.0000 ( 14473 PWs)   bands (ev):

   -77.9055 -49.3620 -49.1847 -49.0809 -22.0463 -21.7056 -19.8894 -19.4126
   -15.6978 -15.3402 -11.8470 -11.5691 -11.1214 -10.9427 -10.8409  -9.7763
    -8.9586  -8.5602  -8.1124  -7.5310  -6.3763

     occupation numbers 
     1.0000   1.0000   1.0000   1.0000   1.0000   1.0000   1.0000   1.0000
     1.0000   1.0000   1.0000   1.0000   1.0000   1.0000   1.0000   1.0000
     1.0000   1.0000   1.0000   1.0000   1.0000

          k =-0.4545-0.6721 0.0000 ( 14430 PWs)   bands (ev):

   -77.9044 -49.3392 -49.2177 -49.0795 -21.9726 -21.6312 -19.8327 -19.3577
   -15.2935 -14.9365 -12.5535 -12.2595 -11.4587 -10.9262 -10.7649  -9.9111
    -9.0473  -8.5252  -8.3542  -7.9718  -6.2199

     occupation numbers 
     1.0000   1.0000   1.0000   1.0000   1.0000   1.0000   1.0000   1.0000
     1.0000   1.0000   1.0000   1.0000   1.0000   1.0000   1.0000   1.0000
     1.0000   1.0000   1.0000   1.0000   1.0000

          k =-0.4545-0.5687 0.0000 ( 14406 PWs)   bands (ev):

   -77.9040 -49.3186 -49.2423 -49.0789 -21.9553 -21.6145 -19.8086 -19.3306
   -14.8851 -14.5255 -13.2264 -12.9032 -11.4741 -10.7228 -10.5417 -10.0781
    -9.1366  -8.8324  -8.3462  -8.0297  -6.1630

     occupation numbers 
     1.0000   1.0000   1.0000   1.0000   1.0000   1.0000   1.0000   1.0000
     1.0000   1.0000   1.0000   1.0000   1.0000   1.0000   1.0000   1.0000
     1.0000   1.0000   1.0000   1.0000   1.0000

          k =-0.4545-0.4653 0.0000 ( 14430 PWs)   bands (ev):

   -77.9044 -49.3392 -49.2179 -49.0795 -21.9728 -21.6312 -19.8324 -19.3580
   -15.2923 -14.9372 -12.5548 -12.2590 -11.4582 -10.9263 -10.7653  -9.9102
    -9.0477  -8.5248  -8.3540  -7.9718  -6.2203

     occupation numbers 
     1.0000   1.0000   1.0000   1.0000   1.0000   1.0000   1.0000   1.0000
     1.0000   1.0000   1.0000   1.0000   1.0000   1.0000   1.0000   1.0000
     1.0000   1.0000   1.0000   1.0000   1.0000

          k =-0.4545-0.3619 0.0000 ( 14473 PWs)   bands (ev):

   -77.9055 -49.3619 -49.1848 -49.0809 -22.0466 -21.7055 -19.8889 -19.4131
   -15.6965 -15.3410 -11.8462 -11.5700 -11.1225 -10.9418 -10.8413  -9.7764
    -8.9579  -8.5592  -8.1121  -7.5306  -6.3775

     occupation numbers 
     1.0000   1.0000   1.0000   1.0000   1.0000   1.0000   1.0000   1.0000
     1.0000   1.0000   1.0000   1.0000   1.0000   1.0000   1.0000   1.0000
     1.0000   1.0000   1.0000   1.0000   1.0000

          k =-0.3636-0.2068 0.0000 ( 14479 PWs)   bands (ev):

   -77.9127 -49.3216 -49.1604 -49.0906 -22.7893 -22.4704 -20.1994 -19.5639
   -14.7566 -14.4026 -12.1805 -11.2014 -10.6949 -10.5767 -10.2214  -9.4801
    -9.0017  -8.4960  -8.1260  -7.3407  -6.5592

     occupation numbers 
     1.0000   1.0000   1.0000   1.0000   1.0000   1.0000   1.0000   1.0000
     1.0000   1.0000   1.0000   1.0000   1.0000   1.0000   1.0000   1.0000
     1.0000   1.0000   1.0000   1.0000   1.0000

          k =-0.3636-0.1034 0.0000 ( 14506 PWs)   bands (ev):

   -77.9158 -49.2891 -49.1645 -49.0948 -23.0770 -22.7633 -20.3500 -19.6407
   -14.0923 -13.7237 -12.2600 -11.2470 -10.8719 -10.6018 -10.2476  -9.3505
    -9.0852  -8.4261  -7.9165  -7.6310  -6.5307

     occupation numbers 
     1.0000   1.0000   1.0000   1.0000   1.0000   1.0000   1.0000   1.0000
     1.0000   1.0000   1.0000   1.0000   1.0000   1.0000   1.0000   1.0000
     1.0000   1.0000   1.0000   1.0000   1.0000

          k =-0.3636 0.0000 0.0000 ( 14493 PWs)   bands (ev):

   -77.9170 -49.2702 -49.1729 -49.0964 -23.1799 -22.8679 -20.4071 -19.6695
   -13.7178 -13.3123 -12.1877 -11.3338 -11.1891 -10.9805 -10.0569  -9.3432
    -9.1140  -8.4332  -7.8578  -7.7203  -6.5069

     occupation numbers 
     1.0000   1.0000   1.0000   1.0000   1.0000   1.0000   1.0000   1.0000
     1.0000   1.0000   1.0000   1.0000   1.0000   1.0000   1.0000   1.0000
     1.0000   1.0000   1.0000   1.0000   1.0000

          k =-0.3636 0.1034 0.0000 ( 14506 PWs)   bands (ev):

   -77.9158 -49.2892 -49.1644 -49.0948 -23.0769 -22.7634 -20.3502 -19.6404
   -14.0933 -13.7233 -12.2602 -11.2464 -10.8703 -10.6023 -10.2477  -9.3508
    -9.0854  -8.4278  -7.9161  -7.6307  -6.5297

     occupation numbers 
     1.0000   1.0000   1.0000   1.0000   1.0000   1.0000   1.0000   1.0000
     1.0000   1.0000   1.0000   1.0000   1.0000   1.0000   1.0000   1.0000
     1.0000   1.0000   1.0000   1.0000   1.0000

          k =-0.3636 0.2068 0.0000 ( 14479 PWs)   bands (ev):

   -77.9127 -49.3217 -49.1602 -49.0906 -22.7891 -22.4705 -20.1998 -19.5634
   -14.7580 -14.4019 -12.1810 -11.2007 -10.6947 -10.5746 -10.2224  -9.4806
    -9.0019  -8.4984  -8.1256  -7.3414  -6.5570

     occupation numbers 
     1.0000   1.0000   1.0000   1.0000   1.0000   1.0000   1.0000   1.0000
     1.0000   1.0000   1.0000   1.0000   1.0000   1.0000   1.0000   1.0000
     1.0000   1.0000   1.0000   1.0000   1.0000

          k =-0.3636 0.3102 0.0000 ( 14484 PWs)   bands (ev):

   -77.9086 -49.3420 -49.1774 -49.0851 -22.3856 -22.0574 -20.0101 -19.4625
   -15.2196 -14.8639 -11.9875 -11.4042 -11.0215 -10.8535 -10.7236  -9.7324
    -8.9290  -8.5718  -8.1125  -7.5714  -6.4207

     occupation numbers 
     1.0000   1.0000   1.0000   1.0000   1.0000   1.0000   1.0000   1.0000
     1.0000   1.0000   1.0000   1.0000   1.0000   1.0000   1.0000   1.0000
     1.0000   1.0000   1.0000   1.0000   1.0000

          k =-0.3636-0.7238 0.0000 ( 14456 PWs)   bands (ev):

   -77.9049 -49.3391 -49.2150 -49.0800 -21.9886 -21.6474 -19.8431 -19.3637
   -15.2828 -14.9256 -12.5546 -12.2583 -11.4625 -10.9143 -10.7661  -9.8779
    -9.0764  -8.5163  -8.4001  -7.9709  -6.1909

     occupation numbers 
     1.0000   1.0000   1.0000   1.0000   1.0000   1.0000   1.0000   1.0000
     1.0000   1.0000   1.0000   1.0000   1.0000   1.0000   1.0000   1.0000
     1.0000   1.0000   1.0000   1.0000   1.0000

          k =-0.3636-0.6204 0.0000 ( 14455 PWs)   bands (ev):

   -77.9026 -49.3139 -49.2610 -49.0769 -21.7435 -21.3921 -19.7442 -19.2961
   -14.9176 -14.5557 -13.6993 -13.3726 -11.1919 -10.8462 -10.5770  -9.7352
    -9.6093  -9.1007  -8.3382  -7.9880  -5.9953

     occupation numbers 
     1.0000   1.0000   1.0000   1.0000   1.0000   1.0000   1.0000   1.0000
     1.0000   1.0000   1.0000   1.0000   1.0000   1.0000   1.0000   1.0000
     1.0000   1.0000   1.0000   1.0000   1.0000

          k =-0.3636-0.5170 0.0000 ( 14455 PWs)   bands (ev):

   -77.9026 -49.3138 -49.2611 -49.0769 -21.7436 -21.3921 -19.7440 -19.2962
   -14.9164 -14.5563 -13.7007 -13.3720 -11.1917 -10.8459 -10.5769  -9.7353
    -9.6099  -9.1005  -8.3379  -7.9880  -5.9955

     occupation numbers 
     1.0000   1.0000   1.0000   1.0000   1.0000   1.0000   1.0000   1.0000
     1.0000   1.0000   1.0000   1.0000   1.0000   1.0000   1.0000   1.0000
     1.0000   1.0000   1.0000   1.0000   1.0000

          k =-0.3636-0.4136 0.0000 ( 14456 PWs)   bands (ev):

   -77.9049 -49.3390 -49.2151 -49.0799 -21.9888 -21.6473 -19.8428 -19.3641
   -15.2813 -14.9264 -12.5563 -12.2576 -11.4620 -10.9142 -10.7658  -9.8785
    -9.0760  -8.5158  -8.3994  -7.9710  -6.1917

     occupation numbers 
     1.0000   1.0000   1.0000   1.0000   1.0000   1.0000   1.0000   1.0000
     1.0000   1.0000   1.0000   1.0000   1.0000   1.0000   1.0000   1.0000
     1.0000   1.0000   1.0000   1.0000   1.0000

          k =-0.3636-0.3102 0.0000 ( 14484 PWs)   bands (ev):

   -77.9086 -49.3419 -49.1775 -49.0850 -22.3859 -22.0573 -20.0097 -19.4630
   -15.2181 -14.8647 -11.9869 -11.4053 -11.0222 -10.8539 -10.7231  -9.7323
    -8.9285  -8.5701  -8.1125  -7.5709  -6.4226

     occupation numbers 
     1.0000   1.0000   1.0000   1.0000   1.0000   1.0000   1.0000   1.0000
     1.0000   1.0000   1.0000   1.0000   1.0000   1.0000   1.0000   1.0000
     1.0000   1.0000   1.0000   1.0000   1.0000

          k =-0.2727-0.1551 0.0000 ( 14551 PWs)   bands (ev):

   -77.9224 -49.2511 -49.1432 -49.1037 -23.5465 -23.2385 -20.6471 -19.8146
   -13.5277 -13.0229 -12.3105 -11.4255 -10.2308 -10.0415  -9.8723  -9.2959
    -8.8664  -8.1673  -7.9493  -7.6851  -6.4216

     occupation numbers 
     1.0000   1.0000   1.0000   1.0000   1.0000   1.0000   1.0000   1.0000
     1.0000   1.0000   1.0000   1.0000   1.0000   1.0000   1.0000   1.0000
     1.0000   1.0000   1.0000   1.0000   1.0000

          k =-0.2727-0.0517 0.0000 ( 14554 PWs)   bands (ev):

   -77.9259 -49.2167 -49.1453 -49.1084 -23.7892 -23.4835 -20.8107 -19.9102
   -13.3582 -12.4127 -11.9073 -11.4291 -10.3763 -10.0604  -9.6295  -9.3757
    -8.6082  -8.3149  -7.8892  -7.5431  -6.3201

     occupation numbers 
     1.0000   1.0000   1.0000   1.0000   1.0000   1.0000   1.0000   1.0000
     1.0000   1.0000   1.0000   1.0000   1.0000   1.0000   1.0000   1.0000
     1.0000   1.0000   1.0000   1.0000   1.0000

          k =-0.2727 0.0517 0.0000 ( 14554 PWs)   bands (ev):

   -77.9259 -49.2168 -49.1452 -49.1084 -23.7892 -23.4835 -20.8108 -19.9101
   -13.3584 -12.4130 -11.9074 -11.4289 -10.3750 -10.0609  -9.6297  -9.3757
    -8.6064  -8.3173  -7.8891  -7.5433  -6.3195

     occupation numbers 
     1.0000   1.0000   1.0000   1.0000   1.0000   1.0000   1.0000   1.0000
     1.0000   1.0000   1.0000   1.0000   1.0000   1.0000   1.0000   1.0000
     1.0000   1.0000   1.0000   1.0000   1.0000

          k =-0.2727 0.1551 0.0000 ( 14551 PWs)   bands (ev):

   -77.9224 -49.2512 -49.1430 -49.1037 -23.5465 -23.2385 -20.6473 -19.8143
   -13.5285 -13.0230 -12.3106 -11.4249 -10.2285 -10.0419  -9.8734  -9.2961
    -8.8657  -8.1704  -7.9489  -7.6851  -6.4197

     occupation numbers 
     1.0000   1.0000   1.0000   1.0000   1.0000   1.0000   1.0000   1.0000
     1.0000   1.0000   1.0000   1.0000   1.0000   1.0000   1.0000   1.0000
     1.0000   1.0000   1.0000   1.0000   1.0000

          k =-0.2727 0.2585 0.0000 ( 14499 PWs)   bands (ev):

   -77.9165 -49.2901 -49.1585 -49.0956 -23.0954 -22.7819 -20.3669 -19.6508
   -14.0873 -13.7154 -12.2650 -11.2456 -10.8784 -10.6070 -10.2330  -9.3424
    -9.0900  -8.3978  -7.9608  -7.6731  -6.4796

     occupation numbers 
     1.0000   1.0000   1.0000   1.0000   1.0000   1.0000   1.0000   1.0000
     1.0000   1.0000   1.0000   1.0000   1.0000   1.0000   1.0000   1.0000
     1.0000   1.0000   1.0000   1.0000   1.0000

          k =-0.2727 0.3619 0.0000 ( 14446 PWs)   bands (ev):

   -77.9101 -49.3169 -49.1910 -49.0869 -22.5210 -22.1968 -20.0602 -19.4742
   -14.6248 -14.2654 -12.1424 -11.9408 -11.6952 -10.8514 -10.4329  -9.9039
    -8.9468  -8.4892  -8.1484  -7.9981  -6.3628

     occupation numbers 
     1.0000   1.0000   1.0000   1.0000   1.0000   1.0000   1.0000   1.0000
     1.0000   1.0000   1.0000   1.0000   1.0000   1.0000   1.0000   1.0000
     1.0000   1.0000   1.0000   1.0000   1.0000

          k =-0.2727-0.6721 0.0000 ( 14474 PWs)   bands (ev):

   -77.9052 -49.3252 -49.2279 -49.0802 -21.9923 -21.6515 -19.8375 -19.3499
   -14.9248 -14.5645 -13.1499 -12.8244 -11.4872 -10.7323 -10.5132 -10.0489
    -9.1605  -8.8473  -8.3828  -8.0215  -6.1275

     occupation numbers 
     1.0000   1.0000   1.0000   1.0000   1.0000   1.0000   1.0000   1.0000
     1.0000   1.0000   1.0000   1.0000   1.0000   1.0000   1.0000   1.0000
     1.0000   1.0000   1.0000   1.0000   1.0000

          k =-0.2727-0.5687 0.0000 ( 14432 PWs)   bands (ev):

   -77.9033 -49.3235 -49.2465 -49.0777 -21.7651 -21.4134 -19.7629 -19.3103
   -14.9970 -14.6367 -13.5910 -13.2621 -11.1996 -10.8456 -10.5881  -9.7430
    -9.5861  -9.0927  -8.3551  -7.9839  -5.9901

     occupation numbers 
     1.0000   1.0000   1.0000   1.0000   1.0000   1.0000   1.0000   1.0000
     1.0000   1.0000   1.0000   1.0000   1.0000   1.0000   1.0000   1.0000
     1.0000   1.0000   1.0000   1.0000   1.0000

          k =-0.2727-0.4653 0.0000 ( 14474 PWs)   bands (ev):

   -77.9052 -49.3251 -49.2280 -49.0802 -21.9924 -21.6514 -19.8372 -19.3502
   -14.9235 -14.5652 -13.1515 -12.8237 -11.4870 -10.7310 -10.5128 -10.0506
    -9.1607  -8.8466  -8.3819  -8.0217  -6.1280

     occupation numbers 
     1.0000   1.0000   1.0000   1.0000   1.0000   1.0000   1.0000   1.0000
     1.0000   1.0000   1.0000   1.0000   1.0000   1.0000   1.0000   1.0000
     1.0000   1.0000   1.0000   1.0000   1.0000

          k =-0.2727-0.3619 0.0000 ( 14446 PWs)   bands (ev):

   -77.9101 -49.3168 -49.1911 -49.0869 -22.5211 -22.1967 -20.0598 -19.4746
   -14.6231 -14.2662 -12.1439 -11.9410 -11.6946 -10.8516 -10.4323  -9.9036
    -8.9468  -8.4887  -8.1471  -7.9983  -6.3642

     occupation numbers 
     1.0000   1.0000   1.0000   1.0000   1.0000   1.0000   1.0000   1.0000
     1.0000   1.0000   1.0000   1.0000   1.0000   1.0000   1.0000   1.0000
     1.0000   1.0000   1.0000   1.0000   1.0000

          k =-0.2727-0.2585 0.0000 ( 14499 PWs)   bands (ev):

   -77.9165 -49.2900 -49.1587 -49.0956 -23.0955 -22.7818 -20.3666 -19.6513
   -14.0858 -13.7160 -12.2647 -11.2464 -10.8804 -10.6064 -10.2323  -9.3417
    -9.0898  -8.3973  -7.9597  -7.6727  -6.4819

     occupation numbers 
     1.0000   1.0000   1.0000   1.0000   1.0000   1.0000   1.0000   1.0000
     1.0000   1.0000   1.0000   1.0000   1.0000   1.0000   1.0000   1.0000
     1.0000   1.0000   1.0000   1.0000   1.0000

          k =-0.1818-0.1034 0.0000 ( 14557 PWs)   bands (ev):

   -77.9330 -49.1750 -49.1233 -49.1177 -24.1919 -23.8891 -21.1084 -20.0910
   -13.5466 -12.0379 -11.2857 -10.9322  -9.8085  -9.6488  -9.4457  -9.2117
    -8.3795  -8.0490  -7.7455  -7.5764  -6.1028

     occupation numbers 
     1.0000   1.0000   1.0000   1.0000   1.0000   1.0000   1.0000   1.0000
     1.0000   1.0000   1.0000   1.0000   1.0000   1.0000   1.0000   1.0000
     1.0000   1.0000   1.0000   1.0000   1.0000

          k =-0.1818 0.0000 0.0000 ( 14573 PWs)   bands (ev):

   -77.9353 -49.1478 -49.1286 -49.1209 -24.3254 -24.0236 -21.2102 -20.1528
   -13.6404 -12.0572 -10.8140 -10.4527  -9.8462  -9.6880  -9.4425  -8.9870
    -8.2657  -8.1717  -7.7950  -7.3194  -6.0252

     occupation numbers 
     1.0000   1.0000   1.0000   1.0000   1.0000   1.0000   1.0000   1.0000
     1.0000   1.0000   1.0000   1.0000   1.0000   1.0000   1.0000   1.0000
     1.0000   1.0000   1.0000   1.0000   1.0000

          k =-0.1818 0.1034 0.0000 ( 14557 PWs)   bands (ev):

   -77.9330 -49.1751 -49.1231 -49.1177 -24.1918 -23.8891 -21.1085 -20.0909
   -13.5468 -12.0377 -11.2877 -10.9313  -9.8060  -9.6489  -9.4469  -9.2124
    -8.3776  -8.0484  -7.7492  -7.5756  -6.1017

     occupation numbers 
     1.0000   1.0000   1.0000   1.0000   1.0000   1.0000   1.0000   1.0000
     1.0000   1.0000   1.0000   1.0000   1.0000   1.0000   1.0000   1.0000
     1.0000   1.0000   1.0000   1.0000   1.0000

          k =-0.1818 0.2068 0.0000 ( 14545 PWs)   bands (ev):

   -77.9267 -49.2247 -49.1319 -49.1093 -23.8049 -23.4992 -20.8270 -19.9208
   -13.3806 -12.4412 -11.9277 -11.4370 -10.3452 -10.0340  -9.6235  -9.3856
    -8.6061  -8.2792  -7.8723  -7.5801  -6.2981

     occupation numbers 
     1.0000   1.0000   1.0000   1.0000   1.0000   1.0000   1.0000   1.0000
     1.0000   1.0000   1.0000   1.0000   1.0000   1.0000   1.0000   1.0000
     1.0000   1.0000   1.0000   1.0000   1.0000

          k =-0.1818 0.3102 0.0000 ( 14487 PWs)   bands (ev):

   -77.9184 -49.2787 -49.1540 -49.0981 -23.2143 -22.9022 -20.4407 -19.6918
   -13.7716 -13.3654 -12.2139 -11.2701 -11.1739 -10.9092 -10.0441  -9.3399
    -9.1220  -8.4040  -7.8648  -7.7607  -6.4565

     occupation numbers 
     1.0000   1.0000   1.0000   1.0000   1.0000   1.0000   1.0000   1.0000
     1.0000   1.0000   1.0000   1.0000   1.0000   1.0000   1.0000   1.0000
     1.0000   1.0000   1.0000   1.0000   1.0000

          k =-0.1818 0.4136 0.0000 ( 14478 PWs)   bands (ev):

   -77.9108 -49.3239 -49.1785 -49.0877 -22.5374 -22.2127 -20.0783 -19.4889
   -14.7069 -14.3480 -12.0753 -11.8890 -11.5957 -10.8503 -10.4633  -9.9083
    -8.9545  -8.4807  -8.1035  -7.9820  -6.3757

     occupation numbers 
     1.0000   1.0000   1.0000   1.0000   1.0000   1.0000   1.0000   1.0000
     1.0000   1.0000   1.0000   1.0000   1.0000   1.0000   1.0000   1.0000
     1.0000   1.0000   1.0000   1.0000   1.0000

          k =-0.1818-0.6204 0.0000 ( 14479 PWs)   bands (ev):

   -77.9063 -49.3496 -49.1942 -49.0816 -22.0259 -21.6836 -19.8812 -19.3943
   -15.3898 -15.0316 -12.3919 -12.1096 -11.4471 -10.9359 -10.7720  -9.9040
    -9.0602  -8.5217  -8.3424  -7.9649  -6.2037

     occupation numbers 
     1.0000   1.0000   1.0000   1.0000   1.0000   1.0000   1.0000   1.0000
     1.0000   1.0000   1.0000   1.0000   1.0000   1.0000   1.0000   1.0000
     1.0000   1.0000   1.0000   1.0000   1.0000

          k =-0.1818-0.5170 0.0000 ( 14479 PWs)   bands (ev):

   -77.9063 -49.3496 -49.1943 -49.0816 -22.0260 -21.6835 -19.8812 -19.3944
   -15.3896 -15.0317 -12.3922 -12.1094 -11.4471 -10.9357 -10.7712  -9.9055
    -9.0594  -8.5215  -8.3419  -7.9651  -6.2041

     occupation numbers 
     1.0000   1.0000   1.0000   1.0000   1.0000   1.0000   1.0000   1.0000
     1.0000   1.0000   1.0000   1.0000   1.0000   1.0000   1.0000   1.0000
     1.0000   1.0000   1.0000   1.0000   1.0000

          k =-0.1818-0.4136 0.0000 ( 14478 PWs)   bands (ev):

   -77.9108 -49.3239 -49.1786 -49.0877 -22.5375 -22.2127 -20.0781 -19.4892
   -14.7061 -14.3484 -12.0759 -11.8892 -11.5955 -10.8500 -10.4627  -9.9089
    -8.9546  -8.4806  -8.1023  -7.9819  -6.3769

     occupation numbers 
     1.0000   1.0000   1.0000   1.0000   1.0000   1.0000   1.0000   1.0000
     1.0000   1.0000   1.0000   1.0000   1.0000   1.0000   1.0000   1.0000
     1.0000   1.0000   1.0000   1.0000   1.0000

          k =-0.1818-0.3102 0.0000 ( 14487 PWs)   bands (ev):

   -77.9184 -49.2786 -49.1541 -49.0981 -23.2144 -22.9022 -20.4405 -19.6922
   -13.7705 -13.3656 -12.2138 -11.2715 -11.1748 -10.9086 -10.0432  -9.3388
    -9.1220  -8.4052  -7.8646  -7.7588  -6.4583

     occupation numbers 
     1.0000   1.0000   1.0000   1.0000   1.0000   1.0000   1.0000   1.0000
     1.0000   1.0000   1.0000   1.0000   1.0000   1.0000   1.0000   1.0000
     1.0000   1.0000   1.0000   1.0000   1.0000

          k =-0.1818-0.2068 0.0000 ( 14545 PWs)   bands (ev):

   -77.9267 -49.2246 -49.1320 -49.1093 -23.8050 -23.4992 -20.8268 -19.9211
   -13.3802 -12.4405 -11.9275 -11.4376 -10.3477 -10.0330  -9.6225  -9.3854
    -8.6064  -8.2789  -7.8727  -7.5786  -6.2999

     occupation numbers 
     1.0000   1.0000   1.0000   1.0000   1.0000   1.0000   1.0000   1.0000
     1.0000   1.0000   1.0000   1.0000   1.0000   1.0000   1.0000   1.0000
     1.0000   1.0000   1.0000   1.0000   1.0000

          k =-0.0909-0.0517 0.0000 ( 14561 PWs)   bands (ev):

   -77.9410 -49.1290 -49.1246 -49.0993 -24.6096 -24.3093 -21.4377 -20.2926
   -13.8801 -12.1936 -10.0429  -9.7976  -9.4854  -9.4257  -9.0631  -8.6048
    -8.3052  -8.1425  -7.3703  -7.2827  -5.9040

     occupation numbers 
     1.0000   1.0000   1.0000   1.0000   1.0000   1.0000   1.0000   1.0000
     1.0000   1.0000   1.0000   1.0000   1.0000   1.0000   1.0000   1.0000
     1.0000   1.0000   1.0000   1.0000   1.0000

          k =-0.0909 0.0517 0.0000 ( 14561 PWs)   bands (ev):

   -77.9410 -49.1290 -49.1246 -49.0992 -24.6096 -24.3093 -21.4377 -20.2926
   -13.8801 -12.1935 -10.0439  -9.7994  -9.4842  -9.4226  -9.0644  -8.6057
    -8.3044  -8.1417  -7.3750  -7.2790  -5.9037

     occupation numbers 
     1.0000   1.0000   1.0000   1.0000   1.0000   1.0000   1.0000   1.0000
     1.0000   1.0000   1.0000   1.0000   1.0000   1.0000   1.0000   1.0000
     1.0000   1.0000   1.0000   1.0000   1.0000

          k =-0.0909 0.1551 0.0000 ( 14541 PWs)   bands (ev):

   -77.9359 -49.1683 -49.1217 -49.1038 -24.3356 -24.0337 -21.2214 -20.1604
   -13.6547 -12.0683 -10.9339 -10.5749  -9.7742  -9.6279  -9.3177  -9.0375
    -8.2419  -8.0853  -7.8057  -7.3320  -6.0221

     occupation numbers 
     1.0000   1.0000   1.0000   1.0000   1.0000   1.0000   1.0000   1.0000
     1.0000   1.0000   1.0000   1.0000   1.0000   1.0000   1.0000   1.0000
     1.0000   1.0000   1.0000   1.0000   1.0000

          k =-0.0909 0.2585 0.0000 ( 14530 PWs)   bands (ev):

   -77.9273 -49.2335 -49.1188 -49.1100 -23.8151 -23.5093 -20.8384 -19.9294
   -13.4117 -12.5234 -12.0046 -11.4716 -10.2196  -9.9307  -9.6185  -9.3941
    -8.5967  -8.2855  -7.8171  -7.5723  -6.3050

     occupation numbers 
     1.0000   1.0000   1.0000   1.0000   1.0000   1.0000   1.0000   1.0000
     1.0000   1.0000   1.0000   1.0000   1.0000   1.0000   1.0000   1.0000
     1.0000   1.0000   1.0000   1.0000   1.0000

          k =-0.0909 0.3619 0.0000 ( 14507 PWs)   bands (ev):

   -77.9178 -49.3021 -49.1370 -49.0971 -23.1217 -22.8077 -20.3959 -19.6736
   -14.2127 -13.8431 -12.2942 -11.2546 -10.7123 -10.4838 -10.1801  -9.3528
    -9.1006  -8.3859  -7.9408  -7.5837  -6.4996

     occupation numbers 
     1.0000   1.0000   1.0000   1.0000   1.0000   1.0000   1.0000   1.0000
     1.0000   1.0000   1.0000   1.0000   1.0000   1.0000   1.0000   1.0000
     1.0000   1.0000   1.0000   1.0000   1.0000

          k =-0.0909 0.4653 0.0000 ( 14482 PWs)   bands (ev):

   -77.9106 -49.3537 -49.1512 -49.0873 -22.4316 -22.1021 -20.0595 -19.5023
   -15.3462 -14.9889 -11.9987 -11.3224 -10.8951 -10.8222 -10.5795  -9.7568
    -8.9391  -8.5347  -8.1153  -7.4752  -6.4489

     occupation numbers 
     1.0000   1.0000   1.0000   1.0000   1.0000   1.0000   1.0000   1.0000
     1.0000   1.0000   1.0000   1.0000   1.0000   1.0000   1.0000   1.0000
     1.0000   1.0000   1.0000   1.0000   1.0000

          k =-0.0909-0.5687 0.0000 ( 14530 PWs)   bands (ev):

   -77.9080 -49.3728 -49.1566 -49.0837 -22.1083 -21.7658 -19.9520 -19.4624
   -15.8097 -15.4496 -11.8516 -11.5004 -11.0271 -10.8249 -10.7227  -9.8020
    -8.9440  -8.5631  -8.1197  -7.4566  -6.3853

     occupation numbers 
     1.0000   1.0000   1.0000   1.0000   1.0000   1.0000   1.0000   1.0000
     1.0000   1.0000   1.0000   1.0000   1.0000   1.0000   1.0000   1.0000
     1.0000   1.0000   1.0000   1.0000   1.0000

          k =-0.0909-0.4653 0.0000 ( 14482 PWs)   bands (ev):

   -77.9106 -49.3537 -49.1512 -49.0873 -22.4317 -22.1021 -20.0595 -19.5024
   -15.3460 -14.9890 -11.9987 -11.3224 -10.8952 -10.8220 -10.5793  -9.7578
    -8.9388  -8.5341  -8.1152  -7.4744  -6.4500

     occupation numbers 
     1.0000   1.0000   1.0000   1.0000   1.0000   1.0000   1.0000   1.0000
     1.0000   1.0000   1.0000   1.0000   1.0000   1.0000   1.0000   1.0000
     1.0000   1.0000   1.0000   1.0000   1.0000

          k =-0.0909-0.3619 0.0000 ( 14507 PWs)   bands (ev):

   -77.9178 -49.3021 -49.1370 -49.0971 -23.1217 -22.8077 -20.3958 -19.6738
   -14.2123 -13.8433 -12.2941 -11.2548 -10.7126 -10.4838 -10.1797  -9.3524
    -9.1006  -8.3872  -7.9392  -7.5830  -6.5010

     occupation numbers 
     1.0000   1.0000   1.0000   1.0000   1.0000   1.0000   1.0000   1.0000
     1.0000   1.0000   1.0000   1.0000   1.0000   1.0000   1.0000   1.0000
     1.0000   1.0000   1.0000   1.0000   1.0000

          k =-0.0909-0.2585 0.0000 ( 14530 PWs)   bands (ev):

   -77.9273 -49.2335 -49.1189 -49.1100 -23.8151 -23.5093 -20.8383 -19.9296
   -13.4115 -12.5230 -12.0046 -11.4719 -10.2207  -9.9304  -9.6179  -9.3940
    -8.5953  -8.2875  -7.8172  -7.5710  -6.3062

     occupation numbers 
     1.0000   1.0000   1.0000   1.0000   1.0000   1.0000   1.0000   1.0000
     1.0000   1.0000   1.0000   1.0000   1.0000   1.0000   1.0000   1.0000
     1.0000   1.0000   1.0000   1.0000   1.0000

          k =-0.0909-0.1551 0.0000 ( 14541 PWs)   bands (ev):

   -77.9359 -49.1682 -49.1217 -49.1039 -24.3356 -24.0337 -21.2214 -20.1605
   -13.6546 -12.0685 -10.9320 -10.5758  -9.7748  -9.6296  -9.3166  -9.0366
    -8.2436  -8.0859  -7.8033  -7.3321  -6.0230

     occupation numbers 
     1.0000   1.0000   1.0000   1.0000   1.0000   1.0000   1.0000   1.0000
     1.0000   1.0000   1.0000   1.0000   1.0000   1.0000   1.0000   1.0000
     1.0000   1.0000   1.0000   1.0000   1.0000

     highest occupied level (ev):    -5.8881

!    total energy              =    -263.27456271 Ry
     estimated scf accuracy    <          4.3E-11 Ry

     The total energy is the sum of the following terms:
     one-electron contribution =   -6297.54450984 Ry
     hartree contribution      =    3145.04460769 Ry
     xc contribution           =     -44.30649326 Ry
     ewald contribution        =    2933.53183270 Ry

     convergence has been achieved in  24 iterations

     Forces acting on atoms (cartesian axes, Ry/au):

     atom    1 type  1   force =    -0.00031068   -0.00500545   -0.01143275
     atom    2 type  2   force =     0.00020274    0.00257681   -0.00177181
     atom    3 type  2   force =     0.00009935    0.00282100    0.02857304
     atom    4 type  2   force =     0.00031665    0.00730765   -0.07457325
     atom    5 type  2   force =     0.00007744   -0.00819507    0.08288010
     atom    6 type  3   force =    -0.00012613    0.00903073    0.01648504
     atom    7 type  3   force =    -0.00025938   -0.00853566   -0.04016036
     The non-local contrib.  to forces
     atom    1 type  1   force =    -0.00016654   -0.00533027   -0.00785376
     atom    2 type  2   force =     0.00030394   -0.00597221   -0.11718299
     atom    3 type  2   force =    -0.00003007   -0.00124065    0.14748267
     atom    4 type  2   force =    -0.00003534    0.01525677   -1.14470442
     atom    5 type  2   force =    -0.00023065   -0.01541588    1.15065995
     atom    6 type  3   force =    -0.00040707    0.00029624    0.09510486
     atom    7 type  3   force =    -0.00085060    0.00332557   -0.13997481
     The ionic contribution  to forces
     atom    1 type  1   force =    -0.00518418   -0.29742226    0.11953176
     atom    2 type  2   force =     0.00221297    0.15512676  -44.43531911
     atom    3 type  2   force =     0.00242047    0.13766533   44.36812749
     atom    4 type  2   force =     0.00142731   -0.02333156   90.66564020
     atom    5 type  2   force =     0.00071067    0.01835240  -90.69243047
     atom    6 type  3   force =    -0.00031746   -0.01638586  -61.20415448
     atom    7 type  3   force =    -0.00126979    0.02599519   61.17860462
     The local contribution  to forces
     atom    1 type  1   force =     0.00493495    0.29780361   -0.12306898
     atom    2 type  2   force =    -0.00241930   -0.14652134   44.55073461
     atom    3 type  2   force =    -0.00239614   -0.13354718  -44.48701993
     atom    4 type  2   force =    -0.00118045    0.01543880  -89.59550689
     atom    5 type  2   force =    -0.00050771   -0.01107523   89.62465224
     atom    6 type  3   force =     0.00049327    0.02517671   61.12553642
     atom    7 type  3   force =     0.00175589   -0.03780006  -61.07878721
     The core correction contribution to forces
     atom    1 type  1   force =     0.00000000    0.00000000    0.00000000
     atom    2 type  2   force =     0.00000000    0.00000000    0.00000000
     atom    3 type  2   force =     0.00000000    0.00000000    0.00000000
     atom    4 type  2   force =     0.00000000    0.00000000    0.00000000
     atom    5 type  2   force =     0.00000000    0.00000000    0.00000000
     atom    6 type  3   force =     0.00000000    0.00000000    0.00000000
     atom    7 type  3   force =     0.00000000    0.00000000    0.00000000
     The Hubbard contrib.    to forces
     atom    1 type  1   force =     0.00000000    0.00000000    0.00000000
     atom    2 type  2   force =     0.00000000    0.00000000    0.00000000
     atom    3 type  2   force =     0.00000000    0.00000000    0.00000000
     atom    4 type  2   force =     0.00000000    0.00000000    0.00000000
     atom    5 type  2   force =     0.00000000    0.00000000    0.00000000
     atom    6 type  3   force =     0.00000000    0.00000000    0.00000000
     atom    7 type  3   force =     0.00000000    0.00000000    0.00000000
     The SCF correction term to forces
     atom    1 type  1   force =    -0.00000003   -0.00000016   -0.00003819
     atom    2 type  2   force =     0.00000000   -0.00000003   -0.00000074
     atom    3 type  2   force =    -0.00000002   -0.00000013   -0.00001360
     atom    4 type  2   force =    -0.00000000    0.00000000    0.00000145
     atom    5 type  2   force =     0.00000000   -0.00000000    0.00000195
     atom    6 type  3   force =    -0.00000000   -0.00000000    0.00000182
     atom    7 type  3   force =    -0.00000000   -0.00000000    0.00000062

     Total force =     0.124820     Total SCF correction =     0.000041
     Energy error            =      7.8E-02 Ry
     Gradient error          =      8.3E-02 Ry/Bohr

     number of scf cycles    =   6
     number of bfgs steps    =   5

     energy             old  =    -263.1968821631 Ry
     energy             new  =    -263.2745627148 Ry

     CASE: energy            _new < energy            _old

     new trust radius        =       0.4933382207 bohr
     new conv_thr            =            8.3E-11 Ry


ATOMIC_POSITIONS (angstrom)
Cr               2.2013030415        0.3562638426       11.0193198781
N                0.8001879764        1.1675203390        9.8533932057
N                0.8001015798        1.1751714364       12.1934159256
N                2.2006413768        0.3395312660       14.6138173577
N               -0.6001045549        2.0059201251        7.4840937165
Si               0.8008529252        1.1668136165        8.1137832465
Si               0.8002752110        1.1775448179       13.9783233330



     Writing config-only to output data dir ./tmp/crsi2n4.save/ :
     XML data file
     NEW-OLD atomic charge density approx. for the potential

     negative rho (up, down):  3.517E-03 0.000E+00

     total cpu time spent up to now is     3047.7 secs

     Self-consistent Calculation
[tb_dev] Currently allocated     0.00E+00 Mbytes, locked:    0 /   0
[tb_pin] Currently allocated     0.00E+00 Mbytes, locked:    0 /   0

     iteration #  1     ecut=    80.00 Ry     beta= 0.40
     Davidson diagonalization with overlap

---- Real-time Memory Report at c_bands before calling an iterative solver
          1411 MiB given to the printing process from OS
             0 MiB allocation reported by mallinfo(arena+hblkhd)
         15877 MiB available memory on the node where the printing process lives
     GPU memory used/free/total (MiB): 1213 / 10700 / 11914
------------------
     c_bands:  2 eigenvalues not converged
     c_bands:  2 eigenvalues not converged
     c_bands:  1 eigenvalues not converged
     c_bands:  4 eigenvalues not converged
     c_bands:  4 eigenvalues not converged
     c_bands:  1 eigenvalues not converged
     c_bands:  1 eigenvalues not converged
     c_bands:  1 eigenvalues not converged
     c_bands:  4 eigenvalues not converged
     c_bands:  1 eigenvalues not converged
     c_bands:  1 eigenvalues not converged
     c_bands:  2 eigenvalues not converged
     c_bands:  1 eigenvalues not converged
     c_bands:  1 eigenvalues not converged
     c_bands:  1 eigenvalues not converged
     c_bands:  4 eigenvalues not converged
     c_bands:  4 eigenvalues not converged
     c_bands:  3 eigenvalues not converged
     c_bands:  2 eigenvalues not converged
     c_bands:  1 eigenvalues not converged
     c_bands:  1 eigenvalues not converged
     c_bands:  1 eigenvalues not converged
     c_bands:  2 eigenvalues not converged
     c_bands:  1 eigenvalues not converged
     c_bands:  2 eigenvalues not converged
     c_bands:  5 eigenvalues not converged
     c_bands:  4 eigenvalues not converged
     c_bands:  1 eigenvalues not converged
     c_bands:  1 eigenvalues not converged
     c_bands:  1 eigenvalues not converged
     c_bands:  2 eigenvalues not converged
     c_bands:  1 eigenvalues not converged
     c_bands:  1 eigenvalues not converged
     c_bands:  3 eigenvalues not converged
     c_bands:  1 eigenvalues not converged
     c_bands:  1 eigenvalues not converged
     c_bands:  1 eigenvalues not converged
     c_bands:  4 eigenvalues not converged
     c_bands:  1 eigenvalues not converged
     ethr =  1.00E-06,  avg # of iterations = 19.1

     negative rho (up, down):  7.976E-04 0.000E+00

     total cpu time spent up to now is     3107.2 secs

     total energy              =    -263.31599160 Ry
     estimated scf accuracy    <       0.10078560 Ry
[tb_dev] Currently allocated     2.67E-05 Mbytes, locked:    0 /   1
[tb_pin] Currently allocated     0.00E+00 Mbytes, locked:    0 /   0

     iteration #  2     ecut=    80.00 Ry     beta= 0.40
     Davidson diagonalization with overlap

---- Real-time Memory Report at c_bands before calling an iterative solver
          1411 MiB given to the printing process from OS
             0 MiB allocation reported by mallinfo(arena+hblkhd)
         15873 MiB available memory on the node where the printing process lives
     GPU memory used/free/total (MiB): 1213 / 10700 / 11914
------------------
     ethr =  2.40E-04,  avg # of iterations =  6.1

     negative rho (up, down):  4.022E-04 0.000E+00

     total cpu time spent up to now is     3125.7 secs

     total energy              =    -263.32117908 Ry
     estimated scf accuracy    <       0.10796070 Ry
[tb_dev] Currently allocated     2.67E-05 Mbytes, locked:    0 /   1
[tb_pin] Currently allocated     0.00E+00 Mbytes, locked:    0 /   0

     iteration #  3     ecut=    80.00 Ry     beta= 0.40
     Davidson diagonalization with overlap

---- Real-time Memory Report at c_bands before calling an iterative solver
          1412 MiB given to the printing process from OS
             0 MiB allocation reported by mallinfo(arena+hblkhd)
         15874 MiB available memory on the node where the printing process lives
     GPU memory used/free/total (MiB): 1213 / 10700 / 11914
------------------
     ethr =  2.40E-04,  avg # of iterations =  4.7

     negative rho (up, down):  2.033E-05 0.000E+00

     total cpu time spent up to now is     3141.1 secs

     total energy              =    -263.33249316 Ry
     estimated scf accuracy    <       0.00850407 Ry
[tb_dev] Currently allocated     2.67E-05 Mbytes, locked:    0 /   1
[tb_pin] Currently allocated     0.00E+00 Mbytes, locked:    0 /   0

     iteration #  4     ecut=    80.00 Ry     beta= 0.40
     Davidson diagonalization with overlap

---- Real-time Memory Report at c_bands before calling an iterative solver
          1412 MiB given to the printing process from OS
             0 MiB allocation reported by mallinfo(arena+hblkhd)
         15875 MiB available memory on the node where the printing process lives
     GPU memory used/free/total (MiB): 1213 / 10700 / 11914
------------------
     ethr =  2.02E-05,  avg # of iterations =  7.3

     negative rho (up, down):  8.946E-06 0.000E+00

     total cpu time spent up to now is     3161.1 secs

     total energy              =    -263.33634338 Ry
     estimated scf accuracy    <       0.03635255 Ry
[tb_dev] Currently allocated     2.67E-05 Mbytes, locked:    0 /   1
[tb_pin] Currently allocated     0.00E+00 Mbytes, locked:    0 /   0

     iteration #  5     ecut=    80.00 Ry     beta= 0.40
     Davidson diagonalization with overlap

---- Real-time Memory Report at c_bands before calling an iterative solver
          1412 MiB given to the printing process from OS
             0 MiB allocation reported by mallinfo(arena+hblkhd)
         15875 MiB available memory on the node where the printing process lives
     GPU memory used/free/total (MiB): 1213 / 10700 / 11914
------------------
     ethr =  2.02E-05,  avg # of iterations =  4.0

     negative rho (up, down):  2.341E-07 0.000E+00

     total cpu time spent up to now is     3175.2 secs

     total energy              =    -263.33161208 Ry
     estimated scf accuracy    <       0.01480546 Ry
[tb_dev] Currently allocated     2.67E-05 Mbytes, locked:    0 /   1
[tb_pin] Currently allocated     0.00E+00 Mbytes, locked:    0 /   0

     iteration #  6     ecut=    80.00 Ry     beta= 0.40
     Davidson diagonalization with overlap

---- Real-time Memory Report at c_bands before calling an iterative solver
          1412 MiB given to the printing process from OS
             0 MiB allocation reported by mallinfo(arena+hblkhd)
         15875 MiB available memory on the node where the printing process lives
     GPU memory used/free/total (MiB): 1213 / 10700 / 11914
------------------
     ethr =  2.02E-05,  avg # of iterations =  7.9

     negative rho (up, down):  7.285E-08 0.000E+00

     total cpu time spent up to now is     3196.4 secs

     total energy              =    -263.33594159 Ry
     estimated scf accuracy    <       0.02136297 Ry
[tb_dev] Currently allocated     2.67E-05 Mbytes, locked:    0 /   1
[tb_pin] Currently allocated     0.00E+00 Mbytes, locked:    0 /   0

     iteration #  7     ecut=    80.00 Ry     beta= 0.40
     Davidson diagonalization with overlap

---- Real-time Memory Report at c_bands before calling an iterative solver
          1412 MiB given to the printing process from OS
             0 MiB allocation reported by mallinfo(arena+hblkhd)
         15874 MiB available memory on the node where the printing process lives
     GPU memory used/free/total (MiB): 1213 / 10700 / 11914
------------------
     ethr =  2.02E-05,  avg # of iterations =  3.7

     negative rho (up, down):  3.116E-08 0.000E+00

     total cpu time spent up to now is     3209.8 secs

     total energy              =    -263.33535636 Ry
     estimated scf accuracy    <       0.00658396 Ry
[tb_dev] Currently allocated     2.67E-05 Mbytes, locked:    0 /   1
[tb_pin] Currently allocated     0.00E+00 Mbytes, locked:    0 /   0

     iteration #  8     ecut=    80.00 Ry     beta= 0.40
     Davidson diagonalization with overlap

---- Real-time Memory Report at c_bands before calling an iterative solver
          1412 MiB given to the printing process from OS
             0 MiB allocation reported by mallinfo(arena+hblkhd)
         15874 MiB available memory on the node where the printing process lives
     GPU memory used/free/total (MiB): 1213 / 10700 / 11914
------------------
     ethr =  1.57E-05,  avg # of iterations =  5.1

     negative rho (up, down):  2.152E-08 0.000E+00

     total cpu time spent up to now is     3224.6 secs

     total energy              =    -263.33671200 Ry
     estimated scf accuracy    <       0.00015461 Ry
[tb_dev] Currently allocated     2.67E-05 Mbytes, locked:    0 /   1
[tb_pin] Currently allocated     0.00E+00 Mbytes, locked:    0 /   0

     iteration #  9     ecut=    80.00 Ry     beta= 0.40
     Davidson diagonalization with overlap

---- Real-time Memory Report at c_bands before calling an iterative solver
          1412 MiB given to the printing process from OS
             0 MiB allocation reported by mallinfo(arena+hblkhd)
         15879 MiB available memory on the node where the printing process lives
     GPU memory used/free/total (MiB): 1213 / 10700 / 11914
------------------
     ethr =  3.68E-07,  avg # of iterations =  8.6

     negative rho (up, down):  1.463E-08 0.000E+00

     total cpu time spent up to now is     3247.4 secs

     total energy              =    -263.33675536 Ry
     estimated scf accuracy    <       0.00128167 Ry
[tb_dev] Currently allocated     2.67E-05 Mbytes, locked:    0 /   1
[tb_pin] Currently allocated     0.00E+00 Mbytes, locked:    0 /   0

     iteration # 10     ecut=    80.00 Ry     beta= 0.40
     Davidson diagonalization with overlap

---- Real-time Memory Report at c_bands before calling an iterative solver
          1412 MiB given to the printing process from OS
             0 MiB allocation reported by mallinfo(arena+hblkhd)
         15868 MiB available memory on the node where the printing process lives
     GPU memory used/free/total (MiB): 1213 / 10700 / 11914
------------------
     ethr =  3.68E-07,  avg # of iterations =  5.6

     negative rho (up, down):  1.033E-08 0.000E+00

     total cpu time spent up to now is     3263.6 secs

     total energy              =    -263.33672853 Ry
     estimated scf accuracy    <       0.00036763 Ry
[tb_dev] Currently allocated     2.67E-05 Mbytes, locked:    0 /   1
[tb_pin] Currently allocated     0.00E+00 Mbytes, locked:    0 /   0

     iteration # 11     ecut=    80.00 Ry     beta= 0.40
     Davidson diagonalization with overlap

---- Real-time Memory Report at c_bands before calling an iterative solver
          1412 MiB given to the printing process from OS
             0 MiB allocation reported by mallinfo(arena+hblkhd)
         15865 MiB available memory on the node where the printing process lives
     GPU memory used/free/total (MiB): 1213 / 10700 / 11914
------------------
     ethr =  3.68E-07,  avg # of iterations =  5.7

     total cpu time spent up to now is     3280.0 secs

     total energy              =    -263.33676640 Ry
     estimated scf accuracy    <       0.00000719 Ry
[tb_dev] Currently allocated     2.67E-05 Mbytes, locked:    0 /   1
[tb_pin] Currently allocated     0.00E+00 Mbytes, locked:    0 /   0

     iteration # 12     ecut=    80.00 Ry     beta= 0.40
     Davidson diagonalization with overlap

---- Real-time Memory Report at c_bands before calling an iterative solver
          1413 MiB given to the printing process from OS
             0 MiB allocation reported by mallinfo(arena+hblkhd)
         15877 MiB available memory on the node where the printing process lives
     GPU memory used/free/total (MiB): 1213 / 10700 / 11914
------------------
     ethr =  1.71E-08,  avg # of iterations =  8.8

     total cpu time spent up to now is     3303.0 secs

     total energy              =    -263.33677357 Ry
     estimated scf accuracy    <       0.00000795 Ry
[tb_dev] Currently allocated     2.67E-05 Mbytes, locked:    0 /   1
[tb_pin] Currently allocated     0.00E+00 Mbytes, locked:    0 /   0

     iteration # 13     ecut=    80.00 Ry     beta= 0.40
     Davidson diagonalization with overlap

---- Real-time Memory Report at c_bands before calling an iterative solver
          1413 MiB given to the printing process from OS
             0 MiB allocation reported by mallinfo(arena+hblkhd)
         15881 MiB available memory on the node where the printing process lives
     GPU memory used/free/total (MiB): 1213 / 10700 / 11914
------------------
     ethr =  1.71E-08,  avg # of iterations =  1.0

     total cpu time spent up to now is     3311.4 secs

     total energy              =    -263.33677154 Ry
     estimated scf accuracy    <       0.00000716 Ry
[tb_dev] Currently allocated     2.67E-05 Mbytes, locked:    0 /   1
[tb_pin] Currently allocated     0.00E+00 Mbytes, locked:    0 /   0

     iteration # 14     ecut=    80.00 Ry     beta= 0.40
     Davidson diagonalization with overlap

---- Real-time Memory Report at c_bands before calling an iterative solver
          1413 MiB given to the printing process from OS
             0 MiB allocation reported by mallinfo(arena+hblkhd)
         15876 MiB available memory on the node where the printing process lives
     GPU memory used/free/total (MiB): 1213 / 10700 / 11914
------------------
     ethr =  1.70E-08,  avg # of iterations =  3.9

     total cpu time spent up to now is     3324.7 secs

     total energy              =    -263.33677261 Ry
     estimated scf accuracy    <       0.00000031 Ry
[tb_dev] Currently allocated     2.67E-05 Mbytes, locked:    0 /   1
[tb_pin] Currently allocated     0.00E+00 Mbytes, locked:    0 /   0

     iteration # 15     ecut=    80.00 Ry     beta= 0.40
     Davidson diagonalization with overlap

---- Real-time Memory Report at c_bands before calling an iterative solver
          1413 MiB given to the printing process from OS
             0 MiB allocation reported by mallinfo(arena+hblkhd)
         15885 MiB available memory on the node where the printing process lives
     GPU memory used/free/total (MiB): 1213 / 10700 / 11914
------------------
     ethr =  7.36E-10,  avg # of iterations =  6.8

     total cpu time spent up to now is     3344.7 secs

     total energy              =    -263.33677274 Ry
     estimated scf accuracy    <       0.00000012 Ry
[tb_dev] Currently allocated     2.67E-05 Mbytes, locked:    0 /   1
[tb_pin] Currently allocated     0.00E+00 Mbytes, locked:    0 /   0

     iteration # 16     ecut=    80.00 Ry     beta= 0.40
     Davidson diagonalization with overlap

---- Real-time Memory Report at c_bands before calling an iterative solver
          1414 MiB given to the printing process from OS
             0 MiB allocation reported by mallinfo(arena+hblkhd)
         15895 MiB available memory on the node where the printing process lives
     GPU memory used/free/total (MiB): 1213 / 10700 / 11914
------------------
     ethr =  2.78E-10,  avg # of iterations =  7.7

     total cpu time spent up to now is     3366.1 secs

     total energy              =    -263.33677268 Ry
     estimated scf accuracy    <       0.00000067 Ry
[tb_dev] Currently allocated     2.67E-05 Mbytes, locked:    0 /   1
[tb_pin] Currently allocated     0.00E+00 Mbytes, locked:    0 /   0

     iteration # 17     ecut=    80.00 Ry     beta= 0.40
     Davidson diagonalization with overlap

---- Real-time Memory Report at c_bands before calling an iterative solver
          1414 MiB given to the printing process from OS
             0 MiB allocation reported by mallinfo(arena+hblkhd)
         15899 MiB available memory on the node where the printing process lives
     GPU memory used/free/total (MiB): 1213 / 10700 / 11914
------------------
     ethr =  2.78E-10,  avg # of iterations =  7.6

     total cpu time spent up to now is     3387.2 secs

     total energy              =    -263.33677281 Ry
     estimated scf accuracy    <       0.00000008 Ry
[tb_dev] Currently allocated     2.67E-05 Mbytes, locked:    0 /   1
[tb_pin] Currently allocated     0.00E+00 Mbytes, locked:    0 /   0

     iteration # 18     ecut=    80.00 Ry     beta= 0.40
     Davidson diagonalization with overlap

---- Real-time Memory Report at c_bands before calling an iterative solver
          1414 MiB given to the printing process from OS
             0 MiB allocation reported by mallinfo(arena+hblkhd)
         15902 MiB available memory on the node where the printing process lives
     GPU memory used/free/total (MiB): 1213 / 10700 / 11914
------------------
     ethr =  1.84E-10,  avg # of iterations =  1.4

     total cpu time spent up to now is     3396.9 secs

     total energy              =    -263.33677280 Ry
     estimated scf accuracy    <       0.00000010 Ry
[tb_dev] Currently allocated     2.67E-05 Mbytes, locked:    0 /   1
[tb_pin] Currently allocated     0.00E+00 Mbytes, locked:    0 /   0

     iteration # 19     ecut=    80.00 Ry     beta= 0.40
     Davidson diagonalization with overlap

---- Real-time Memory Report at c_bands before calling an iterative solver
          1414 MiB given to the printing process from OS
             0 MiB allocation reported by mallinfo(arena+hblkhd)
         15899 MiB available memory on the node where the printing process lives
     GPU memory used/free/total (MiB): 1213 / 10700 / 11914
------------------
     ethr =  1.84E-10,  avg # of iterations =  1.0

     total cpu time spent up to now is     3405.5 secs

     total energy              =    -263.33677279 Ry
     estimated scf accuracy    <       0.00000007 Ry
[tb_dev] Currently allocated     2.67E-05 Mbytes, locked:    0 /   1
[tb_pin] Currently allocated     0.00E+00 Mbytes, locked:    0 /   0

     iteration # 20     ecut=    80.00 Ry     beta= 0.40
     Davidson diagonalization with overlap

---- Real-time Memory Report at c_bands before calling an iterative solver
          1415 MiB given to the printing process from OS
             0 MiB allocation reported by mallinfo(arena+hblkhd)
         15890 MiB available memory on the node where the printing process lives
     GPU memory used/free/total (MiB): 1213 / 10700 / 11914
------------------
     ethr =  1.70E-10,  avg # of iterations =  3.1

     total cpu time spent up to now is     3417.6 secs

     total energy              =    -263.33677279 Ry
     estimated scf accuracy    <       0.00000002 Ry
[tb_dev] Currently allocated     2.67E-05 Mbytes, locked:    0 /   1
[tb_pin] Currently allocated     0.00E+00 Mbytes, locked:    0 /   0

     iteration # 21     ecut=    80.00 Ry     beta= 0.40
     Davidson diagonalization with overlap

---- Real-time Memory Report at c_bands before calling an iterative solver
          1415 MiB given to the printing process from OS
             0 MiB allocation reported by mallinfo(arena+hblkhd)
         15891 MiB available memory on the node where the printing process lives
     GPU memory used/free/total (MiB): 1213 / 10700 / 11914
------------------
     ethr =  4.21E-11,  avg # of iterations =  5.1

     total cpu time spent up to now is     3433.0 secs

     total energy              =    -263.33677280 Ry
     estimated scf accuracy    <          3.5E-09 Ry
[tb_dev] Currently allocated     2.67E-05 Mbytes, locked:    0 /   1
[tb_pin] Currently allocated     0.00E+00 Mbytes, locked:    0 /   0

     iteration # 22     ecut=    80.00 Ry     beta= 0.40
     Davidson diagonalization with overlap

---- Real-time Memory Report at c_bands before calling an iterative solver
          1415 MiB given to the printing process from OS
             0 MiB allocation reported by mallinfo(arena+hblkhd)
         15901 MiB available memory on the node where the printing process lives
     GPU memory used/free/total (MiB): 1213 / 10700 / 11914
------------------
     ethr =  8.31E-12,  avg # of iterations =  4.2

     total cpu time spent up to now is     3446.8 secs

     total energy              =    -263.33677280 Ry
     estimated scf accuracy    <          3.7E-09 Ry
[tb_dev] Currently allocated     2.67E-05 Mbytes, locked:    0 /   1
[tb_pin] Currently allocated     0.00E+00 Mbytes, locked:    0 /   0

     iteration # 23     ecut=    80.00 Ry     beta= 0.40
     Davidson diagonalization with overlap

---- Real-time Memory Report at c_bands before calling an iterative solver
          1415 MiB given to the printing process from OS
             0 MiB allocation reported by mallinfo(arena+hblkhd)
         15912 MiB available memory on the node where the printing process lives
     GPU memory used/free/total (MiB): 1213 / 10700 / 11914
------------------
     ethr =  8.31E-12,  avg # of iterations =  1.2

     total cpu time spent up to now is     3455.7 secs

     total energy              =    -263.33677280 Ry
     estimated scf accuracy    <          2.5E-09 Ry
[tb_dev] Currently allocated     2.67E-05 Mbytes, locked:    0 /   1
[tb_pin] Currently allocated     0.00E+00 Mbytes, locked:    0 /   0

     iteration # 24     ecut=    80.00 Ry     beta= 0.40
     Davidson diagonalization with overlap

---- Real-time Memory Report at c_bands before calling an iterative solver
          1415 MiB given to the printing process from OS
             0 MiB allocation reported by mallinfo(arena+hblkhd)
         15905 MiB available memory on the node where the printing process lives
     GPU memory used/free/total (MiB): 1213 / 10700 / 11914
------------------
     ethr =  5.88E-12,  avg # of iterations =  2.9

     total cpu time spent up to now is     3467.8 secs

     total energy              =    -263.33677280 Ry
     estimated scf accuracy    <          8.9E-10 Ry
[tb_dev] Currently allocated     2.67E-05 Mbytes, locked:    0 /   1
[tb_pin] Currently allocated     0.00E+00 Mbytes, locked:    0 /   0

     iteration # 25     ecut=    80.00 Ry     beta= 0.40
     Davidson diagonalization with overlap

---- Real-time Memory Report at c_bands before calling an iterative solver
          1416 MiB given to the printing process from OS
             0 MiB allocation reported by mallinfo(arena+hblkhd)
         15902 MiB available memory on the node where the printing process lives
     GPU memory used/free/total (MiB): 1213 / 10700 / 11914
------------------
     ethr =  2.12E-12,  avg # of iterations =  7.2

     total cpu time spent up to now is     3487.6 secs

     total energy              =    -263.33677280 Ry
     estimated scf accuracy    <          2.9E-09 Ry
[tb_dev] Currently allocated     2.67E-05 Mbytes, locked:    0 /   1
[tb_pin] Currently allocated     0.00E+00 Mbytes, locked:    0 /   0

     iteration # 26     ecut=    80.00 Ry     beta= 0.40
     Davidson diagonalization with overlap

---- Real-time Memory Report at c_bands before calling an iterative solver
          1416 MiB given to the printing process from OS
             0 MiB allocation reported by mallinfo(arena+hblkhd)
         15898 MiB available memory on the node where the printing process lives
     GPU memory used/free/total (MiB): 1213 / 10700 / 11914
------------------
     ethr =  2.12E-12,  avg # of iterations =  3.7

     total cpu time spent up to now is     3501.1 secs

     total energy              =    -263.33677280 Ry
     estimated scf accuracy    <          5.1E-09 Ry
[tb_dev] Currently allocated     2.67E-05 Mbytes, locked:    0 /   1
[tb_pin] Currently allocated     0.00E+00 Mbytes, locked:    0 /   0

     iteration # 27     ecut=    80.00 Ry     beta= 0.40
     Davidson diagonalization with overlap

---- Real-time Memory Report at c_bands before calling an iterative solver
          1416 MiB given to the printing process from OS
             0 MiB allocation reported by mallinfo(arena+hblkhd)
         15893 MiB available memory on the node where the printing process lives
     GPU memory used/free/total (MiB): 1213 / 10700 / 11914
------------------
     ethr =  2.12E-12,  avg # of iterations =  1.9

     total cpu time spent up to now is     3511.7 secs

     total energy              =    -263.33677280 Ry
     estimated scf accuracy    <          3.7E-09 Ry
[tb_dev] Currently allocated     2.67E-05 Mbytes, locked:    0 /   1
[tb_pin] Currently allocated     0.00E+00 Mbytes, locked:    0 /   0

     iteration # 28     ecut=    80.00 Ry     beta= 0.40
     Davidson diagonalization with overlap

---- Real-time Memory Report at c_bands before calling an iterative solver
          1416 MiB given to the printing process from OS
             0 MiB allocation reported by mallinfo(arena+hblkhd)
         15893 MiB available memory on the node where the printing process lives
     GPU memory used/free/total (MiB): 1213 / 10700 / 11914
------------------
     ethr =  2.12E-12,  avg # of iterations =  5.7

     total cpu time spent up to now is     3528.1 secs

     total energy              =    -263.33677280 Ry
     estimated scf accuracy    <          2.8E-10 Ry
[tb_dev] Currently allocated     2.67E-05 Mbytes, locked:    0 /   1
[tb_pin] Currently allocated     0.00E+00 Mbytes, locked:    0 /   0

     iteration # 29     ecut=    80.00 Ry     beta= 0.40
     Davidson diagonalization with overlap

---- Real-time Memory Report at c_bands before calling an iterative solver
          1417 MiB given to the printing process from OS
             0 MiB allocation reported by mallinfo(arena+hblkhd)
         15905 MiB available memory on the node where the printing process lives
     GPU memory used/free/total (MiB): 1213 / 10700 / 11914
------------------
     ethr =  6.67E-13,  avg # of iterations =  3.3

     total cpu time spent up to now is     3540.9 secs

     total energy              =    -263.33677280 Ry
     estimated scf accuracy    <          1.0E-10 Ry
[tb_dev] Currently allocated     2.67E-05 Mbytes, locked:    0 /   1
[tb_pin] Currently allocated     0.00E+00 Mbytes, locked:    0 /   0

     iteration # 30     ecut=    80.00 Ry     beta= 0.40
     Davidson diagonalization with overlap

---- Real-time Memory Report at c_bands before calling an iterative solver
          1417 MiB given to the printing process from OS
             0 MiB allocation reported by mallinfo(arena+hblkhd)
         15900 MiB available memory on the node where the printing process lives
     GPU memory used/free/total (MiB): 1213 / 10700 / 11914
------------------
     ethr =  2.42E-13,  avg # of iterations =  5.4

     total cpu time spent up to now is     3556.0 secs

     End of self-consistent calculation

          k = 0.0000 0.0000 0.0000 ( 14509 PWs)   bands (ev):

   -78.5471 -49.7538 -49.7246 -49.7224 -24.9025 -24.7331 -22.4625 -21.1422
   -14.7227 -12.0668  -9.9852  -9.6502  -9.4906  -9.3583  -9.1293  -9.1263
    -8.8893  -8.2498  -8.1959  -8.1555  -6.1689

     occupation numbers 
     1.0000   1.0000   1.0000   1.0000   1.0000   1.0000   1.0000   1.0000
     1.0000   1.0000   1.0000   1.0000   1.0000   1.0000   1.0000   1.0000
     1.0000   1.0000   1.0000   1.0000   1.0000

          k = 0.0000 0.1034 0.0000 ( 14525 PWs)   bands (ev):

   -78.5442 -49.7763 -49.7295 -49.7184 -24.7600 -24.5917 -22.3519 -21.0803
   -14.6073 -12.0215 -10.2047  -9.9859  -9.7624  -9.6304  -9.4536  -9.2481
    -8.9974  -8.4710  -8.3259  -8.0228  -6.2652

     occupation numbers 
     1.0000   1.0000   1.0000   1.0000   1.0000   1.0000   1.0000   1.0000
     1.0000   1.0000   1.0000   1.0000   1.0000   1.0000   1.0000   1.0000
     1.0000   1.0000   1.0000   1.0000   1.0000

          k = 0.0000 0.2068 0.0000 ( 14553 PWs)   bands (ev):

   -78.5365 -49.8362 -49.7426 -49.7076 -24.3447 -24.1792 -22.0464 -20.9119
   -14.3189 -12.0066 -11.4856 -11.2916 -10.3592  -9.6660  -9.5673  -9.5020
    -8.9765  -8.8738  -8.6427  -8.1396  -6.6159

     occupation numbers 
     1.0000   1.0000   1.0000   1.0000   1.0000   1.0000   1.0000   1.0000
     1.0000   1.0000   1.0000   1.0000   1.0000   1.0000   1.0000   1.0000
     1.0000   1.0000   1.0000   1.0000   1.0000

          k = 0.0000 0.3102 0.0000 ( 14539 PWs)   bands (ev):

   -78.5263 -49.9140 -49.7597 -49.6933 -23.6991 -23.5364 -21.6304 -20.6938
   -14.1824 -13.2522 -12.7486 -11.6744 -11.0676 -10.0636  -9.8841  -9.4915
    -9.2587  -9.0131  -8.6449  -8.2863  -6.9984

     occupation numbers 
     1.0000   1.0000   1.0000   1.0000   1.0000   1.0000   1.0000   1.0000
     1.0000   1.0000   1.0000   1.0000   1.0000   1.0000   1.0000   1.0000
     1.0000   1.0000   1.0000   1.0000   1.0000

          k = 0.0000 0.4136 0.0000 ( 14485 PWs)   bands (ev):

   -78.5170 -49.9848 -49.7753 -49.6802 -22.9270 -22.7626 -21.2589 -20.5310
   -15.0261 -14.6639 -13.0271 -11.9157 -11.5062 -10.3982 -10.2120  -9.9778
    -9.3134  -8.9884  -8.2982  -8.2910  -7.1171

     occupation numbers 
     1.0000   1.0000   1.0000   1.0000   1.0000   1.0000   1.0000   1.0000
     1.0000   1.0000   1.0000   1.0000   1.0000   1.0000   1.0000   1.0000
     1.0000   1.0000   1.0000   1.0000   1.0000

          k = 0.0000 0.5170 0.0000 ( 14484 PWs)   bands (ev):

   -78.5114 -50.0266 -49.7846 -49.6724 -22.2884 -22.1075 -21.1152 -20.5192
   -15.8567 -15.5433 -12.9150 -12.2952 -11.6752 -10.5833 -10.3939 -10.1648
    -9.4798  -8.7400  -8.2508  -8.0629  -7.0747

     occupation numbers 
     1.0000   1.0000   1.0000   1.0000   1.0000   1.0000   1.0000   1.0000
     1.0000   1.0000   1.0000   1.0000   1.0000   1.0000   1.0000   1.0000
     1.0000   1.0000   1.0000   1.0000   1.0000

          k = 0.0000-0.5170 0.0000 ( 14484 PWs)   bands (ev):

   -78.5114 -50.0266 -49.7846 -49.6724 -22.2884 -22.1075 -21.1152 -20.5192
   -15.8567 -15.5433 -12.9150 -12.2952 -11.6752 -10.5833 -10.3939 -10.1648
    -9.4798  -8.7400  -8.2508  -8.0629  -7.0747

     occupation numbers 
     1.0000   1.0000   1.0000   1.0000   1.0000   1.0000   1.0000   1.0000
     1.0000   1.0000   1.0000   1.0000   1.0000   1.0000   1.0000   1.0000
     1.0000   1.0000   1.0000   1.0000   1.0000

          k = 0.0000-0.4136 0.0000 ( 14485 PWs)   bands (ev):

   -78.5170 -49.9848 -49.7753 -49.6802 -22.9270 -22.7626 -21.2589 -20.5310
   -15.0261 -14.6639 -13.0271 -11.9157 -11.5062 -10.3982 -10.2120  -9.9778
    -9.3134  -8.9884  -8.2982  -8.2910  -7.1171

     occupation numbers 
     1.0000   1.0000   1.0000   1.0000   1.0000   1.0000   1.0000   1.0000
     1.0000   1.0000   1.0000   1.0000   1.0000   1.0000   1.0000   1.0000
     1.0000   1.0000   1.0000   1.0000   1.0000

          k = 0.0000-0.3102 0.0000 ( 14539 PWs)   bands (ev):

   -78.5263 -49.9140 -49.7597 -49.6933 -23.6991 -23.5364 -21.6304 -20.6938
   -14.1824 -13.2522 -12.7486 -11.6744 -11.0676 -10.0636  -9.8841  -9.4915
    -9.2587  -9.0131  -8.6449  -8.2863  -6.9984

     occupation numbers 
     1.0000   1.0000   1.0000   1.0000   1.0000   1.0000   1.0000   1.0000
     1.0000   1.0000   1.0000   1.0000   1.0000   1.0000   1.0000   1.0000
     1.0000   1.0000   1.0000   1.0000   1.0000

          k = 0.0000-0.2068 0.0000 ( 14553 PWs)   bands (ev):

   -78.5365 -49.8362 -49.7426 -49.7076 -24.3447 -24.1792 -22.0464 -20.9119
   -14.3189 -12.0066 -11.4856 -11.2916 -10.3592  -9.6660  -9.5673  -9.5020
    -8.9765  -8.8738  -8.6427  -8.1396  -6.6159

     occupation numbers 
     1.0000   1.0000   1.0000   1.0000   1.0000   1.0000   1.0000   1.0000
     1.0000   1.0000   1.0000   1.0000   1.0000   1.0000   1.0000   1.0000
     1.0000   1.0000   1.0000   1.0000   1.0000

          k = 0.0000-0.1034 0.0000 ( 14525 PWs)   bands (ev):

   -78.5442 -49.7763 -49.7295 -49.7184 -24.7600 -24.5917 -22.3519 -21.0803
   -14.6073 -12.0215 -10.2047  -9.9859  -9.7624  -9.6304  -9.4536  -9.2481
    -8.9974  -8.4710  -8.3259  -8.0228  -6.2652

     occupation numbers 
     1.0000   1.0000   1.0000   1.0000   1.0000   1.0000   1.0000   1.0000
     1.0000   1.0000   1.0000   1.0000   1.0000   1.0000   1.0000   1.0000
     1.0000   1.0000   1.0000   1.0000   1.0000

          k = 0.0909 0.0517 0.0000 ( 14561 PWs)   bands (ev):

   -78.5440 -49.7656 -49.7418 -49.7181 -24.7565 -24.5883 -22.3480 -21.0775
   -14.6027 -12.0195 -10.1085  -9.8468  -9.7241  -9.5691  -9.5198  -9.3953
    -9.1524  -8.4905  -8.3264  -8.0013  -6.2648

     occupation numbers 
     1.0000   1.0000   1.0000   1.0000   1.0000   1.0000   1.0000   1.0000
     1.0000   1.0000   1.0000   1.0000   1.0000   1.0000   1.0000   1.0000
     1.0000   1.0000   1.0000   1.0000   1.0000

          k = 0.0909 0.1551 0.0000 ( 14541 PWs)   bands (ev):

   -78.5387 -49.8111 -49.7465 -49.7107 -24.4775 -24.3112 -22.1397 -20.9619
   -14.3978 -11.9634 -10.9749 -10.7889 -10.2165  -9.7218  -9.6400  -9.4635
    -9.1450  -8.7404  -8.6098  -8.0060  -6.4976

     occupation numbers 
     1.0000   1.0000   1.0000   1.0000   1.0000   1.0000   1.0000   1.0000
     1.0000   1.0000   1.0000   1.0000   1.0000   1.0000   1.0000   1.0000
     1.0000   1.0000   1.0000   1.0000   1.0000

          k = 0.0909 0.2585 0.0000 ( 14530 PWs)   bands (ev):

   -78.5297 -49.8793 -49.7622 -49.6982 -23.9454 -23.7820 -21.7767 -20.7659
   -14.1356 -12.5521 -12.1812 -11.6122 -10.8794 -10.2374  -9.9757  -9.4383
    -9.3143  -8.8827  -8.7391  -8.1813  -6.8797

     occupation numbers 
     1.0000   1.0000   1.0000   1.0000   1.0000   1.0000   1.0000   1.0000
     1.0000   1.0000   1.0000   1.0000   1.0000   1.0000   1.0000   1.0000
     1.0000   1.0000   1.0000   1.0000   1.0000

          k = 0.0909 0.3619 0.0000 ( 14507 PWs)   bands (ev):

   -78.5200 -49.9510 -49.7812 -49.6845 -23.2279 -23.0655 -21.3759 -20.5682
   -14.4670 -13.9682 -12.9564 -11.7169 -11.3744 -10.7400 -10.4613  -9.9928
    -9.1276  -8.9460  -8.6179  -8.2877  -7.1053

     occupation numbers 
     1.0000   1.0000   1.0000   1.0000   1.0000   1.0000   1.0000   1.0000
     1.0000   1.0000   1.0000   1.0000   1.0000   1.0000   1.0000   1.0000
     1.0000   1.0000   1.0000   1.0000   1.0000

          k = 0.0909 0.4653 0.0000 ( 14482 PWs)   bands (ev):

   -78.5125 -50.0049 -49.7960 -49.6740 -22.4879 -22.3167 -21.1175 -20.4831
   -15.4335 -15.1085 -12.9000 -12.1242 -11.6006 -10.9830 -10.8182 -10.2642
    -9.3636  -8.7975  -8.4685  -8.1934  -7.0559

     occupation numbers 
     1.0000   1.0000   1.0000   1.0000   1.0000   1.0000   1.0000   1.0000
     1.0000   1.0000   1.0000   1.0000   1.0000   1.0000   1.0000   1.0000
     1.0000   1.0000   1.0000   1.0000   1.0000

          k = 0.0909 0.5687 0.0000 ( 14530 PWs)   bands (ev):

   -78.5097 -50.0249 -49.8015 -49.6701 -22.1157 -21.9253 -21.0847 -20.5077
   -15.8698 -15.5573 -12.8098 -12.3428 -11.7265 -11.0492 -10.9519 -10.2692
    -9.5419  -8.6559  -8.3926  -8.1579  -6.9833

     occupation numbers 
     1.0000   1.0000   1.0000   1.0000   1.0000   1.0000   1.0000   1.0000
     1.0000   1.0000   1.0000   1.0000   1.0000   1.0000   1.0000   1.0000
     1.0000   1.0000   1.0000   1.0000   1.0000

          k = 0.0909-0.4653 0.0000 ( 14482 PWs)   bands (ev):

   -78.5125 -50.0049 -49.7960 -49.6740 -22.4879 -22.3167 -21.1176 -20.4830
   -15.4336 -15.1084 -12.9000 -12.1243 -11.6010 -10.9828 -10.8183 -10.2628
    -9.3649  -8.7974  -8.4696  -8.1930  -7.0551

     occupation numbers 
     1.0000   1.0000   1.0000   1.0000   1.0000   1.0000   1.0000   1.0000
     1.0000   1.0000   1.0000   1.0000   1.0000   1.0000   1.0000   1.0000
     1.0000   1.0000   1.0000   1.0000   1.0000

          k = 0.0909-0.3619 0.0000 ( 14507 PWs)   bands (ev):

   -78.5200 -49.9510 -49.7811 -49.6845 -23.2279 -23.0655 -21.3760 -20.5681
   -14.4672 -13.9681 -12.9564 -11.7170 -11.3746 -10.7397 -10.4616  -9.9926
    -9.1277  -8.9460  -8.6186  -8.2880  -7.1042

     occupation numbers 
     1.0000   1.0000   1.0000   1.0000   1.0000   1.0000   1.0000   1.0000
     1.0000   1.0000   1.0000   1.0000   1.0000   1.0000   1.0000   1.0000
     1.0000   1.0000   1.0000   1.0000   1.0000

          k = 0.0909-0.2585 0.0000 ( 14530 PWs)   bands (ev):

   -78.5297 -49.8793 -49.7622 -49.6982 -23.9454 -23.7820 -21.7768 -20.7658
   -14.1357 -12.5522 -12.1810 -11.6118 -10.8798 -10.2368  -9.9762  -9.4393
    -9.3146  -8.8826  -8.7370  -8.1831  -6.8786

     occupation numbers 
     1.0000   1.0000   1.0000   1.0000   1.0000   1.0000   1.0000   1.0000
     1.0000   1.0000   1.0000   1.0000   1.0000   1.0000   1.0000   1.0000
     1.0000   1.0000   1.0000   1.0000   1.0000

          k = 0.0909-0.1551 0.0000 ( 14541 PWs)   bands (ev):

   -78.5387 -49.8111 -49.7464 -49.7107 -24.4775 -24.3112 -22.1398 -20.9618
   -14.3980 -11.9630 -10.9762 -10.7880 -10.2170  -9.7208  -9.6398  -9.4643
    -9.1448  -8.7424  -8.6075  -8.0072  -6.4967

     occupation numbers 
     1.0000   1.0000   1.0000   1.0000   1.0000   1.0000   1.0000   1.0000
     1.0000   1.0000   1.0000   1.0000   1.0000   1.0000   1.0000   1.0000
     1.0000   1.0000   1.0000   1.0000   1.0000

          k = 0.0909-0.0517 0.0000 ( 14561 PWs)   bands (ev):

   -78.5440 -49.7657 -49.7417 -49.7181 -24.7565 -24.5883 -22.3481 -21.0774
   -14.6027 -12.0194 -10.1093  -9.8474  -9.7245  -9.5681  -9.5191  -9.3941
    -9.1536  -8.4879  -8.3298  -8.0007  -6.2645

     occupation numbers 
     1.0000   1.0000   1.0000   1.0000   1.0000   1.0000   1.0000   1.0000
     1.0000   1.0000   1.0000   1.0000   1.0000   1.0000   1.0000   1.0000
     1.0000   1.0000   1.0000   1.0000   1.0000

          k = 0.1818 0.1034 0.0000 ( 14557 PWs)   bands (ev):

   -78.5356 -49.8199 -49.7648 -49.7066 -24.3310 -24.1658 -22.0315 -20.9006
   -14.2993 -11.9758 -11.3375 -11.1430 -10.2828  -9.8685  -9.6962  -9.5492
    -9.0895  -8.8863  -8.6835  -8.1038  -6.6170

     occupation numbers 
     1.0000   1.0000   1.0000   1.0000   1.0000   1.0000   1.0000   1.0000
     1.0000   1.0000   1.0000   1.0000   1.0000   1.0000   1.0000   1.0000
     1.0000   1.0000   1.0000   1.0000   1.0000

          k = 0.1818 0.2068 0.0000 ( 14545 PWs)   bands (ev):

   -78.5291 -49.8710 -49.7748 -49.6975 -23.9352 -23.7721 -21.7654 -20.7569
   -14.1148 -12.4656 -12.0903 -11.5796 -10.8882 -10.3597 -10.0761  -9.4463
    -9.3159  -8.9396  -8.7508  -8.1759  -6.8780

     occupation numbers 
     1.0000   1.0000   1.0000   1.0000   1.0000   1.0000   1.0000   1.0000
     1.0000   1.0000   1.0000   1.0000   1.0000   1.0000   1.0000   1.0000
     1.0000   1.0000   1.0000   1.0000   1.0000

          k = 0.1818 0.3102 0.0000 ( 14487 PWs)   bands (ev):

   -78.5206 -49.9271 -49.7984 -49.6855 -23.3258 -23.1640 -21.4119 -20.5747
   -14.1745 -13.4618 -12.7142 -11.6562 -11.5287 -11.1871 -10.6387 -10.1413
    -9.1349  -8.9247  -8.6250  -8.3480  -7.0957

     occupation numbers 
     1.0000   1.0000   1.0000   1.0000   1.0000   1.0000   1.0000   1.0000
     1.0000   1.0000   1.0000   1.0000   1.0000   1.0000   1.0000   1.0000
     1.0000   1.0000   1.0000   1.0000   1.0000

          k = 0.1818 0.4136 0.0000 ( 14478 PWs)   bands (ev):

   -78.5127 -49.9741 -49.8242 -49.6744 -22.6097 -22.4432 -21.1119 -20.4450
   -14.8451 -14.4700 -12.7980 -12.2761 -11.9671 -11.3451 -11.1456 -10.5898
    -9.2156  -9.0581  -8.6509  -8.2525  -7.0518

     occupation numbers 
     1.0000   1.0000   1.0000   1.0000   1.0000   1.0000   1.0000   1.0000
     1.0000   1.0000   1.0000   1.0000   1.0000   1.0000   1.0000   1.0000
     1.0000   1.0000   1.0000   1.0000   1.0000

          k = 0.1818 0.5170 0.0000 ( 14479 PWs)   bands (ev):

   -78.5080 -50.0008 -49.8407 -49.6679 -22.0330 -21.8438 -21.0134 -20.4408
   -15.4691 -15.1476 -12.8276 -12.5566 -12.0452 -11.6751 -11.5223 -10.4457
    -9.5745  -9.2495  -8.4876  -8.0922  -6.8741

     occupation numbers 
     1.0000   1.0000   1.0000   1.0000   1.0000   1.0000   1.0000   1.0000
     1.0000   1.0000   1.0000   1.0000   1.0000   1.0000   1.0000   1.0000
     1.0000   1.0000   1.0000   1.0000   1.0000

          k = 0.1818 0.6204 0.0000 ( 14479 PWs)   bands (ev):

   -78.5080 -50.0008 -49.8407 -49.6679 -22.0329 -21.8438 -21.0135 -20.4407
   -15.4692 -15.1475 -12.8276 -12.5566 -12.0449 -11.6757 -11.5228 -10.4441
    -9.5755  -9.2498  -8.4880  -8.0920  -6.8736

     occupation numbers 
     1.0000   1.0000   1.0000   1.0000   1.0000   1.0000   1.0000   1.0000
     1.0000   1.0000   1.0000   1.0000   1.0000   1.0000   1.0000   1.0000
     1.0000   1.0000   1.0000   1.0000   1.0000

          k = 0.1818-0.4136 0.0000 ( 14478 PWs)   bands (ev):

   -78.5127 -49.9741 -49.8242 -49.6744 -22.6096 -22.4432 -21.1121 -20.4448
   -14.8455 -14.4697 -12.7981 -12.2759 -11.9671 -11.3460 -11.1462 -10.5883
    -9.2156  -9.0591  -8.6520  -8.2522  -7.0506

     occupation numbers 
     1.0000   1.0000   1.0000   1.0000   1.0000   1.0000   1.0000   1.0000
     1.0000   1.0000   1.0000   1.0000   1.0000   1.0000   1.0000   1.0000
     1.0000   1.0000   1.0000   1.0000   1.0000

          k = 0.1818-0.3102 0.0000 ( 14487 PWs)   bands (ev):

   -78.5206 -49.9271 -49.7983 -49.6855 -23.3258 -23.1640 -21.4121 -20.5745
   -14.1749 -13.4618 -12.7141 -11.6562 -11.5283 -11.1866 -10.6396 -10.1420
    -9.1345  -8.9249  -8.6248  -8.3494  -7.0941

     occupation numbers 
     1.0000   1.0000   1.0000   1.0000   1.0000   1.0000   1.0000   1.0000
     1.0000   1.0000   1.0000   1.0000   1.0000   1.0000   1.0000   1.0000
     1.0000   1.0000   1.0000   1.0000   1.0000

          k = 0.1818-0.2068 0.0000 ( 14545 PWs)   bands (ev):

   -78.5291 -49.8710 -49.7747 -49.6975 -23.9352 -23.7721 -21.7656 -20.7567
   -14.1151 -12.4659 -12.0901 -11.5789 -10.8886 -10.3586 -10.0771  -9.4473
    -9.3162  -8.9394  -8.7500  -8.1774  -6.8763

     occupation numbers 
     1.0000   1.0000   1.0000   1.0000   1.0000   1.0000   1.0000   1.0000
     1.0000   1.0000   1.0000   1.0000   1.0000   1.0000   1.0000   1.0000
     1.0000   1.0000   1.0000   1.0000   1.0000

          k = 0.1818-0.1034 0.0000 ( 14557 PWs)   bands (ev):

   -78.5357 -49.8199 -49.7647 -49.7066 -24.3310 -24.1658 -22.0316 -20.9005
   -14.2995 -11.9753 -11.3388 -11.1420 -10.2834  -9.8668  -9.6975  -9.5493
    -9.0892  -8.8843  -8.6863  -8.1042  -6.6159

     occupation numbers 
     1.0000   1.0000   1.0000   1.0000   1.0000   1.0000   1.0000   1.0000
     1.0000   1.0000   1.0000   1.0000   1.0000   1.0000   1.0000   1.0000
     1.0000   1.0000   1.0000   1.0000   1.0000

          k = 0.1818-0.0000 0.0000 ( 14573 PWs)   bands (ev):

   -78.5381 -49.7930 -49.7689 -49.7100 -24.4672 -24.3012 -22.1288 -20.9539
   -14.3849 -11.9558 -10.8547 -10.6649 -10.1767  -9.8456  -9.6729  -9.5431
    -9.2355  -8.7386  -8.6544  -7.9760  -6.5021

     occupation numbers 
     1.0000   1.0000   1.0000   1.0000   1.0000   1.0000   1.0000   1.0000
     1.0000   1.0000   1.0000   1.0000   1.0000   1.0000   1.0000   1.0000
     1.0000   1.0000   1.0000   1.0000   1.0000

          k = 0.2727 0.1551 0.0000 ( 14551 PWs)   bands (ev):

   -78.5247 -49.9000 -49.7851 -49.6915 -23.6697 -23.5078 -21.5987 -20.6689
   -14.1113 -13.1108 -12.6442 -11.6507 -11.0044 -10.2918 -10.1099  -9.4803
    -9.2415  -9.0891  -8.7426  -8.2538  -7.0030

     occupation numbers 
     1.0000   1.0000   1.0000   1.0000   1.0000   1.0000   1.0000   1.0000
     1.0000   1.0000   1.0000   1.0000   1.0000   1.0000   1.0000   1.0000
     1.0000   1.0000   1.0000   1.0000   1.0000

          k = 0.2727 0.2585 0.0000 ( 14499 PWs)   bands (ev):

   -78.5186 -49.9402 -49.8018 -49.6829 -23.2021 -23.0405 -21.3470 -20.5440
   -14.3639 -13.8423 -12.9087 -11.7046 -11.3607 -10.9166 -10.6288 -10.0162
    -9.1267  -8.9798  -8.7007  -8.2709  -7.0974

     occupation numbers 
     1.0000   1.0000   1.0000   1.0000   1.0000   1.0000   1.0000   1.0000
     1.0000   1.0000   1.0000   1.0000   1.0000   1.0000   1.0000   1.0000
     1.0000   1.0000   1.0000   1.0000   1.0000

          k = 0.2727 0.3619 0.0000 ( 14446 PWs)   bands (ev):

   -78.5119 -49.9678 -49.8361 -49.6735 -22.5938 -22.4281 -21.0935 -20.4290
   -14.7693 -14.3888 -12.7833 -12.3499 -12.0722 -11.3620 -11.1478 -10.5941
    -9.2576  -9.0777  -8.6595  -8.2416  -7.0422

     occupation numbers 
     1.0000   1.0000   1.0000   1.0000   1.0000   1.0000   1.0000   1.0000
     1.0000   1.0000   1.0000   1.0000   1.0000   1.0000   1.0000   1.0000
     1.0000   1.0000   1.0000   1.0000   1.0000

          k = 0.2727 0.4653 0.0000 ( 14474 PWs)   bands (ev):

   -78.5069 -49.9762 -49.8749 -49.6664 -22.0041 -21.8189 -20.9616 -20.3904
   -15.0354 -14.6805 -13.3298 -13.0900 -12.3358 -11.6157 -11.3181 -10.5837
    -9.9595  -9.3918  -8.4543  -8.0913  -6.8252

     occupation numbers 
     1.0000   1.0000   1.0000   1.0000   1.0000   1.0000   1.0000   1.0000
     1.0000   1.0000   1.0000   1.0000   1.0000   1.0000   1.0000   1.0000
     1.0000   1.0000   1.0000   1.0000   1.0000

          k = 0.2727 0.5687 0.0000 ( 14432 PWs)   bands (ev):

   -78.5050 -49.9743 -49.8945 -49.6638 -21.7285 -21.5107 -20.9704 -20.4085
   -15.1075 -14.7541 -13.7190 -13.5077 -12.0370 -11.8072 -11.4355 -10.4526
   -10.2212  -9.7051  -8.3397  -8.0100  -6.6826

     occupation numbers 
     1.0000   1.0000   1.0000   1.0000   1.0000   1.0000   1.0000   1.0000
     1.0000   1.0000   1.0000   1.0000   1.0000   1.0000   1.0000   1.0000
     1.0000   1.0000   1.0000   1.0000   1.0000

          k = 0.2727 0.6721 0.0000 ( 14474 PWs)   bands (ev):

   -78.5069 -49.9762 -49.8749 -49.6664 -22.0040 -21.8189 -20.9618 -20.3902
   -15.0360 -14.6800 -13.3291 -13.0904 -12.3359 -11.6168 -11.3187 -10.5821
    -9.9591  -9.3930  -8.4550  -8.0912  -6.8245

     occupation numbers 
     1.0000   1.0000   1.0000   1.0000   1.0000   1.0000   1.0000   1.0000
     1.0000   1.0000   1.0000   1.0000   1.0000   1.0000   1.0000   1.0000
     1.0000   1.0000   1.0000   1.0000   1.0000

          k = 0.2727-0.3619 0.0000 ( 14446 PWs)   bands (ev):

   -78.5120 -49.9678 -49.8360 -49.6736 -22.5937 -22.4281 -21.0938 -20.4287
   -14.7700 -14.3883 -12.7835 -12.3492 -12.0726 -11.3622 -11.1485 -10.5937
    -9.2573  -9.0787  -8.6608  -8.2413  -7.0408

     occupation numbers 
     1.0000   1.0000   1.0000   1.0000   1.0000   1.0000   1.0000   1.0000
     1.0000   1.0000   1.0000   1.0000   1.0000   1.0000   1.0000   1.0000
     1.0000   1.0000   1.0000   1.0000   1.0000

          k = 0.2727-0.2585 0.0000 ( 14499 PWs)   bands (ev):

   -78.5186 -49.9402 -49.8017 -49.6829 -23.2020 -23.0405 -21.3473 -20.5436
   -14.3645 -13.8420 -12.9089 -11.7043 -11.3604 -10.9155 -10.6298 -10.0170
    -9.1272  -8.9806  -8.7013  -8.2709  -7.0954

     occupation numbers 
     1.0000   1.0000   1.0000   1.0000   1.0000   1.0000   1.0000   1.0000
     1.0000   1.0000   1.0000   1.0000   1.0000   1.0000   1.0000   1.0000
     1.0000   1.0000   1.0000   1.0000   1.0000

          k = 0.2727-0.1551 0.0000 ( 14551 PWs)   bands (ev):

   -78.5247 -49.9001 -49.7850 -49.6915 -23.6696 -23.5078 -21.5990 -20.6686
   -14.1118 -13.1110 -12.6440 -11.6499 -11.0047 -10.2904 -10.1112  -9.4802
    -9.2416  -9.0914  -8.7426  -8.2536  -7.0013

     occupation numbers 
     1.0000   1.0000   1.0000   1.0000   1.0000   1.0000   1.0000   1.0000
     1.0000   1.0000   1.0000   1.0000   1.0000   1.0000   1.0000   1.0000
     1.0000   1.0000   1.0000   1.0000   1.0000

          k = 0.2727-0.0517 0.0000 ( 14554 PWs)   bands (ev):

   -78.5284 -49.8649 -49.7865 -49.6966 -23.9193 -23.7566 -21.7499 -20.7458
   -14.0967 -12.4392 -12.0679 -11.5791 -10.8740 -10.3922 -10.1178  -9.4325
    -9.3198  -8.9593  -8.7957  -8.1375  -6.8949

     occupation numbers 
     1.0000   1.0000   1.0000   1.0000   1.0000   1.0000   1.0000   1.0000
     1.0000   1.0000   1.0000   1.0000   1.0000   1.0000   1.0000   1.0000
     1.0000   1.0000   1.0000   1.0000   1.0000

          k = 0.2727 0.0517 0.0000 ( 14554 PWs)   bands (ev):

   -78.5284 -49.8648 -49.7865 -49.6966 -23.9193 -23.7566 -21.7499 -20.7459
   -14.0965 -12.4391 -12.0680 -11.5795 -10.8740 -10.3928 -10.1173  -9.4326
    -9.3197  -8.9594  -8.7946  -8.1377  -6.8956

     occupation numbers 
     1.0000   1.0000   1.0000   1.0000   1.0000   1.0000   1.0000   1.0000
     1.0000   1.0000   1.0000   1.0000   1.0000   1.0000   1.0000   1.0000
     1.0000   1.0000   1.0000   1.0000   1.0000

          k = 0.3636 0.2068 0.0000 ( 14479 PWs)   bands (ev):

   -78.5147 -49.9739 -49.8028 -49.6775 -22.8791 -22.7165 -21.2078 -20.4887
   -14.8968 -14.5385 -13.0026 -11.8787 -11.4677 -10.6433 -10.4573  -9.9632
    -9.4137  -8.9544  -8.3839  -8.2602  -7.1195

     occupation numbers 
     1.0000   1.0000   1.0000   1.0000   1.0000   1.0000   1.0000   1.0000
     1.0000   1.0000   1.0000   1.0000   1.0000   1.0000   1.0000   1.0000
     1.0000   1.0000   1.0000   1.0000   1.0000

          k = 0.3636 0.3102 0.0000 ( 14484 PWs)   bands (ev):

   -78.5104 -49.9948 -49.8209 -49.6716 -22.4433 -22.2746 -21.0674 -20.4399
   -15.3098 -14.9914 -12.8873 -12.1106 -11.5911 -11.1734 -11.0296 -10.2658
    -9.4357  -8.7789  -8.5480  -8.1719  -7.0382

     occupation numbers 
     1.0000   1.0000   1.0000   1.0000   1.0000   1.0000   1.0000   1.0000
     1.0000   1.0000   1.0000   1.0000   1.0000   1.0000   1.0000   1.0000
     1.0000   1.0000   1.0000   1.0000   1.0000

          k = 0.3636 0.4136 0.0000 ( 14456 PWs)   bands (ev):

   -78.5066 -49.9919 -49.8602 -49.6662 -21.9967 -21.8104 -20.9742 -20.4076
   -15.3648 -15.0481 -12.9100 -12.6607 -12.1170 -11.6899 -11.5453 -10.4379
    -9.6147  -9.3144  -8.4628  -8.0789  -6.8632

     occupation numbers 
     1.0000   1.0000   1.0000   1.0000   1.0000   1.0000   1.0000   1.0000
     1.0000   1.0000   1.0000   1.0000   1.0000   1.0000   1.0000   1.0000
     1.0000   1.0000   1.0000   1.0000   1.0000

          k = 0.3636 0.5170 0.0000 ( 14455 PWs)   bands (ev):

   -78.5042 -49.9666 -49.9072 -49.6629 -21.7061 -21.4893 -20.9529 -20.3944
   -15.0330 -14.6737 -13.8213 -13.6150 -12.0380 -11.8035 -11.4234 -10.4805
   -10.2310  -9.7062  -8.3230  -8.0066  -6.6884

     occupation numbers 
     1.0000   1.0000   1.0000   1.0000   1.0000   1.0000   1.0000   1.0000
     1.0000   1.0000   1.0000   1.0000   1.0000   1.0000   1.0000   1.0000
     1.0000   1.0000   1.0000   1.0000   1.0000

          k = 0.3636 0.6204 0.0000 ( 14455 PWs)   bands (ev):

   -78.5042 -49.9666 -49.9072 -49.6629 -21.7060 -21.4893 -20.9531 -20.3943
   -15.0335 -14.6732 -13.8204 -13.6156 -12.0383 -11.8037 -11.4237 -10.4803
   -10.2305  -9.7065  -8.3233  -8.0066  -6.6882

     occupation numbers 
     1.0000   1.0000   1.0000   1.0000   1.0000   1.0000   1.0000   1.0000
     1.0000   1.0000   1.0000   1.0000   1.0000   1.0000   1.0000   1.0000
     1.0000   1.0000   1.0000   1.0000   1.0000

          k = 0.3636 0.7238 0.0000 ( 14456 PWs)   bands (ev):

   -78.5066 -49.9919 -49.8601 -49.6662 -21.9965 -21.8104 -20.9746 -20.4074
   -15.3655 -15.0474 -12.9100 -12.6605 -12.1174 -11.6904 -11.5456 -10.4373
    -9.6149  -9.3149  -8.4635  -8.0788  -6.8624

     occupation numbers 
     1.0000   1.0000   1.0000   1.0000   1.0000   1.0000   1.0000   1.0000
     1.0000   1.0000   1.0000   1.0000   1.0000   1.0000   1.0000   1.0000
     1.0000   1.0000   1.0000   1.0000   1.0000

          k = 0.3636-0.3102 0.0000 ( 14484 PWs)   bands (ev):

   -78.5104 -49.9949 -49.8209 -49.6716 -22.4431 -22.2746 -21.0679 -20.4396
   -15.3105 -14.9906 -12.8879 -12.1106 -11.5907 -11.1723 -11.0306 -10.2656
    -9.4373  -8.7789  -8.5492  -8.1718  -7.0364

     occupation numbers 
     1.0000   1.0000   1.0000   1.0000   1.0000   1.0000   1.0000   1.0000
     1.0000   1.0000   1.0000   1.0000   1.0000   1.0000   1.0000   1.0000
     1.0000   1.0000   1.0000   1.0000   1.0000

          k = 0.3636-0.2068 0.0000 ( 14479 PWs)   bands (ev):

   -78.5147 -49.9739 -49.8027 -49.6775 -22.8789 -22.7165 -21.2082 -20.4883
   -14.8975 -14.5379 -13.0032 -11.8786 -11.4668 -10.6420 -10.4585  -9.9637
    -9.4155  -8.9546  -8.3844  -8.2601  -7.1176

     occupation numbers 
     1.0000   1.0000   1.0000   1.0000   1.0000   1.0000   1.0000   1.0000
     1.0000   1.0000   1.0000   1.0000   1.0000   1.0000   1.0000   1.0000
     1.0000   1.0000   1.0000   1.0000   1.0000

          k = 0.3636-0.1034 0.0000 ( 14506 PWs)   bands (ev):

   -78.5179 -49.9404 -49.8066 -49.6821 -23.1830 -23.0220 -21.3316 -20.5334
   -14.3630 -13.8523 -12.9141 -11.7141 -11.3649 -10.9145 -10.6295 -10.0295
    -9.1112  -8.9815  -8.6710  -8.2584  -7.1319

     occupation numbers 
     1.0000   1.0000   1.0000   1.0000   1.0000   1.0000   1.0000   1.0000
     1.0000   1.0000   1.0000   1.0000   1.0000   1.0000   1.0000   1.0000
     1.0000   1.0000   1.0000   1.0000   1.0000

          k = 0.3636 0.0000 0.0000 ( 14493 PWs)   bands (ev):

   -78.5191 -49.9210 -49.8150 -49.6838 -23.2909 -23.1301 -21.3800 -20.5517
   -14.1282 -13.4093 -12.6849 -11.7067 -11.5577 -11.2387 -10.6798 -10.1610
    -9.1181  -8.9317  -8.6559  -8.3021  -7.1353

     occupation numbers 
     1.0000   1.0000   1.0000   1.0000   1.0000   1.0000   1.0000   1.0000
     1.0000   1.0000   1.0000   1.0000   1.0000   1.0000   1.0000   1.0000
     1.0000   1.0000   1.0000   1.0000   1.0000

          k = 0.3636 0.1034 0.0000 ( 14506 PWs)   bands (ev):

   -78.5179 -49.9403 -49.8067 -49.6821 -23.1831 -23.0220 -21.3314 -20.5336
   -14.3626 -13.8525 -12.9139 -11.7144 -11.3654 -10.9152 -10.6289 -10.0284
    -9.1109  -8.9806  -8.6711  -8.2588  -7.1328

     occupation numbers 
     1.0000   1.0000   1.0000   1.0000   1.0000   1.0000   1.0000   1.0000
     1.0000   1.0000   1.0000   1.0000   1.0000   1.0000   1.0000   1.0000
     1.0000   1.0000   1.0000   1.0000   1.0000

          k = 0.4545 0.2585 0.0000 ( 14447 PWs)   bands (ev):

   -78.5087 -50.0175 -49.8132 -49.6692 -22.2257 -22.0487 -21.0479 -20.4624
   -15.7404 -15.4378 -12.8938 -12.2620 -11.6532 -10.8374 -10.6492 -10.1439
    -9.5904  -8.6923  -8.2025  -8.1561  -7.0697

     occupation numbers 
     1.0000   1.0000   1.0000   1.0000   1.0000   1.0000   1.0000   1.0000
     1.0000   1.0000   1.0000   1.0000   1.0000   1.0000   1.0000   1.0000
     1.0000   1.0000   1.0000   1.0000   1.0000

          k = 0.4545 0.3619 0.0000 ( 14473 PWs)   bands (ev):

   -78.5072 -50.0161 -49.8282 -49.6672 -22.0551 -21.8691 -21.0210 -20.4542
   -15.7592 -15.4571 -12.8002 -12.3313 -11.7243 -11.2479 -11.1747 -10.2696
    -9.6022  -8.6504  -8.4367  -8.1290  -6.9796

     occupation numbers 
     1.0000   1.0000   1.0000   1.0000   1.0000   1.0000   1.0000   1.0000
     1.0000   1.0000   1.0000   1.0000   1.0000   1.0000   1.0000   1.0000
     1.0000   1.0000   1.0000   1.0000   1.0000

          k = 0.4545 0.4653 0.0000 ( 14430 PWs)   bands (ev):

   -78.5061 -49.9927 -49.8623 -49.6657 -21.9790 -21.7925 -20.9667 -20.4031
   -15.3739 -15.0594 -12.9088 -12.6688 -12.1245 -11.6871 -11.5493 -10.4716
    -9.5782  -9.2953  -8.4499  -8.0820  -6.8912

     occupation numbers 
     1.0000   1.0000   1.0000   1.0000   1.0000   1.0000   1.0000   1.0000
     1.0000   1.0000   1.0000   1.0000   1.0000   1.0000   1.0000   1.0000
     1.0000   1.0000   1.0000   1.0000   1.0000

          k = 0.4545 0.5687 0.0000 ( 14406 PWs)   bands (ev):

   -78.5057 -49.9722 -49.8870 -49.6651 -21.9648 -21.7804 -20.9370 -20.3723
   -14.9958 -14.6423 -13.4021 -13.1715 -12.3332 -11.6099 -11.3465 -10.6168
    -9.9409  -9.3678  -8.4281  -8.0916  -6.8598

     occupation numbers 
     1.0000   1.0000   1.0000   1.0000   1.0000   1.0000   1.0000   1.0000
     1.0000   1.0000   1.0000   1.0000   1.0000   1.0000   1.0000   1.0000
     1.0000   1.0000   1.0000   1.0000   1.0000

          k = 0.4545 0.6721 0.0000 ( 14430 PWs)   bands (ev):

   -78.5061 -49.9928 -49.8622 -49.6657 -21.9788 -21.7925 -20.9671 -20.4029
   -15.3745 -15.0588 -12.9088 -12.6687 -12.1251 -11.6870 -11.5491 -10.4725
    -9.5776  -9.2953  -8.4503  -8.0821  -6.8908

     occupation numbers 
     1.0000   1.0000   1.0000   1.0000   1.0000   1.0000   1.0000   1.0000
     1.0000   1.0000   1.0000   1.0000   1.0000   1.0000   1.0000   1.0000
     1.0000   1.0000   1.0000   1.0000   1.0000

          k = 0.4545 0.7755 0.0000 ( 14473 PWs)   bands (ev):

   -78.5072 -50.0161 -49.8281 -49.6672 -22.0548 -21.8691 -21.0215 -20.4539
   -15.7599 -15.4563 -12.8012 -12.3311 -11.7238 -11.2469 -11.1757 -10.2700
    -9.6028  -8.6506  -8.4375  -8.1291  -6.9783

     occupation numbers 
     1.0000   1.0000   1.0000   1.0000   1.0000   1.0000   1.0000   1.0000
     1.0000   1.0000   1.0000   1.0000   1.0000   1.0000   1.0000   1.0000
     1.0000   1.0000   1.0000   1.0000   1.0000

          k = 0.4545-0.2585 0.0000 ( 14447 PWs)   bands (ev):

   -78.5087 -50.0176 -49.8131 -49.6692 -22.2254 -22.0487 -21.0485 -20.4620
   -15.7411 -15.4370 -12.8947 -12.2619 -11.6526 -10.8361 -10.6503 -10.1437
    -9.5918  -8.6925  -8.2028  -8.1571  -7.0678

     occupation numbers 
     1.0000   1.0000   1.0000   1.0000   1.0000   1.0000   1.0000   1.0000
     1.0000   1.0000   1.0000   1.0000   1.0000   1.0000   1.0000   1.0000
     1.0000   1.0000   1.0000   1.0000   1.0000

          k = 0.4545-0.1551 0.0000 ( 14436 PWs)   bands (ev):

   -78.5100 -49.9962 -49.8225 -49.6711 -22.4274 -22.2591 -21.0591 -20.4347
   -15.3230 -15.0056 -12.8874 -12.1213 -11.5951 -11.1703 -11.0178 -10.2985
    -9.3910  -8.7779  -8.5123  -8.1733  -7.0771

     occupation numbers 
     1.0000   1.0000   1.0000   1.0000   1.0000   1.0000   1.0000   1.0000
     1.0000   1.0000   1.0000   1.0000   1.0000   1.0000   1.0000   1.0000
     1.0000   1.0000   1.0000   1.0000   1.0000

          k = 0.4545-0.0517 0.0000 ( 14468 PWs)   bands (ev):

   -78.5108 -49.9677 -49.8441 -49.6722 -22.5584 -22.3936 -21.0684 -20.4119
   -14.7675 -14.3947 -12.7863 -12.3791 -12.0949 -11.3482 -11.1716 -10.6336
    -9.2137  -9.0533  -8.6308  -8.2435  -7.0940

     occupation numbers 
     1.0000   1.0000   1.0000   1.0000   1.0000   1.0000   1.0000   1.0000
     1.0000   1.0000   1.0000   1.0000   1.0000   1.0000   1.0000   1.0000
     1.0000   1.0000   1.0000   1.0000   1.0000

          k = 0.4545 0.0517 0.0000 ( 14468 PWs)   bands (ev):

   -78.5108 -49.9677 -49.8442 -49.6722 -22.5584 -22.3936 -21.0683 -20.4121
   -14.7672 -14.3950 -12.7862 -12.3793 -12.0946 -11.3490 -11.1716 -10.6324
    -9.2139  -9.0533  -8.6306  -8.2436  -7.0943

     occupation numbers 
     1.0000   1.0000   1.0000   1.0000   1.0000   1.0000   1.0000   1.0000
     1.0000   1.0000   1.0000   1.0000   1.0000   1.0000   1.0000   1.0000
     1.0000   1.0000   1.0000   1.0000   1.0000

          k = 0.4545 0.1551 0.0000 ( 14436 PWs)   bands (ev):

   -78.5100 -49.9962 -49.8226 -49.6711 -22.4276 -22.2590 -21.0587 -20.4350
   -15.3223 -15.0062 -12.8868 -12.1214 -11.5958 -11.1713 -11.0171 -10.2971
    -9.3909  -8.7777  -8.5122  -8.1730  -7.0781

     occupation numbers 
     1.0000   1.0000   1.0000   1.0000   1.0000   1.0000   1.0000   1.0000
     1.0000   1.0000   1.0000   1.0000   1.0000   1.0000   1.0000   1.0000
     1.0000   1.0000   1.0000   1.0000   1.0000

          k =-0.4545-0.2585 0.0000 ( 14447 PWs)   bands (ev):

   -78.5087 -50.0175 -49.8132 -49.6692 -22.2257 -22.0487 -21.0479 -20.4624
   -15.7404 -15.4378 -12.8938 -12.2620 -11.6532 -10.8374 -10.6492 -10.1439
    -9.5904  -8.6923  -8.2025  -8.1561  -7.0697

     occupation numbers 
     1.0000   1.0000   1.0000   1.0000   1.0000   1.0000   1.0000   1.0000
     1.0000   1.0000   1.0000   1.0000   1.0000   1.0000   1.0000   1.0000
     1.0000   1.0000   1.0000   1.0000   1.0000

          k =-0.4545-0.1551 0.0000 ( 14436 PWs)   bands (ev):

   -78.5100 -49.9962 -49.8226 -49.6711 -22.4276 -22.2590 -21.0587 -20.4350
   -15.3223 -15.0062 -12.8868 -12.1214 -11.5958 -11.1713 -11.0171 -10.2971
    -9.3909  -8.7777  -8.5122  -8.1730  -7.0781

     occupation numbers 
     1.0000   1.0000   1.0000   1.0000   1.0000   1.0000   1.0000   1.0000
     1.0000   1.0000   1.0000   1.0000   1.0000   1.0000   1.0000   1.0000
     1.0000   1.0000   1.0000   1.0000   1.0000

          k =-0.4545-0.0517 0.0000 ( 14468 PWs)   bands (ev):

   -78.5108 -49.9677 -49.8442 -49.6722 -22.5584 -22.3936 -21.0683 -20.4121
   -14.7672 -14.3950 -12.7862 -12.3793 -12.0946 -11.3490 -11.1716 -10.6324
    -9.2139  -9.0533  -8.6306  -8.2436  -7.0943

     occupation numbers 
     1.0000   1.0000   1.0000   1.0000   1.0000   1.0000   1.0000   1.0000
     1.0000   1.0000   1.0000   1.0000   1.0000   1.0000   1.0000   1.0000
     1.0000   1.0000   1.0000   1.0000   1.0000

          k =-0.4545 0.0517 0.0000 ( 14468 PWs)   bands (ev):

   -78.5108 -49.9677 -49.8441 -49.6722 -22.5584 -22.3936 -21.0684 -20.4119
   -14.7675 -14.3947 -12.7863 -12.3791 -12.0949 -11.3482 -11.1716 -10.6336
    -9.2137  -9.0533  -8.6308  -8.2435  -7.0940

     occupation numbers 
     1.0000   1.0000   1.0000   1.0000   1.0000   1.0000   1.0000   1.0000
     1.0000   1.0000   1.0000   1.0000   1.0000   1.0000   1.0000   1.0000
     1.0000   1.0000   1.0000   1.0000   1.0000

          k =-0.4545 0.1551 0.0000 ( 14436 PWs)   bands (ev):

   -78.5100 -49.9962 -49.8225 -49.6711 -22.4274 -22.2591 -21.0591 -20.4347
   -15.3230 -15.0056 -12.8874 -12.1213 -11.5951 -11.1703 -11.0178 -10.2985
    -9.3910  -8.7779  -8.5123  -8.1733  -7.0771

     occupation numbers 
     1.0000   1.0000   1.0000   1.0000   1.0000   1.0000   1.0000   1.0000
     1.0000   1.0000   1.0000   1.0000   1.0000   1.0000   1.0000   1.0000
     1.0000   1.0000   1.0000   1.0000   1.0000

          k =-0.4545 0.2585 0.0000 ( 14447 PWs)   bands (ev):

   -78.5087 -50.0176 -49.8131 -49.6692 -22.2254 -22.0487 -21.0485 -20.4620
   -15.7411 -15.4370 -12.8947 -12.2619 -11.6526 -10.8361 -10.6503 -10.1437
    -9.5918  -8.6925  -8.2028  -8.1571  -7.0678

     occupation numbers 
     1.0000   1.0000   1.0000   1.0000   1.0000   1.0000   1.0000   1.0000
     1.0000   1.0000   1.0000   1.0000   1.0000   1.0000   1.0000   1.0000
     1.0000   1.0000   1.0000   1.0000   1.0000

          k =-0.4545-0.7755 0.0000 ( 14473 PWs)   bands (ev):

   -78.5072 -50.0161 -49.8281 -49.6672 -22.0548 -21.8691 -21.0215 -20.4539
   -15.7599 -15.4563 -12.8012 -12.3311 -11.7238 -11.2469 -11.1757 -10.2700
    -9.6028  -8.6506  -8.4375  -8.1291  -6.9783

     occupation numbers 
     1.0000   1.0000   1.0000   1.0000   1.0000   1.0000   1.0000   1.0000
     1.0000   1.0000   1.0000   1.0000   1.0000   1.0000   1.0000   1.0000
     1.0000   1.0000   1.0000   1.0000   1.0000

          k =-0.4545-0.6721 0.0000 ( 14430 PWs)   bands (ev):

   -78.5061 -49.9928 -49.8622 -49.6657 -21.9788 -21.7925 -20.9671 -20.4029
   -15.3745 -15.0588 -12.9088 -12.6687 -12.1251 -11.6870 -11.5491 -10.4725
    -9.5776  -9.2953  -8.4503  -8.0821  -6.8908

     occupation numbers 
     1.0000   1.0000   1.0000   1.0000   1.0000   1.0000   1.0000   1.0000
     1.0000   1.0000   1.0000   1.0000   1.0000   1.0000   1.0000   1.0000
     1.0000   1.0000   1.0000   1.0000   1.0000

          k =-0.4545-0.5687 0.0000 ( 14406 PWs)   bands (ev):

   -78.5057 -49.9722 -49.8870 -49.6651 -21.9648 -21.7804 -20.9370 -20.3723
   -14.9958 -14.6423 -13.4021 -13.1715 -12.3332 -11.6099 -11.3465 -10.6168
    -9.9409  -9.3678  -8.4281  -8.0916  -6.8598

     occupation numbers 
     1.0000   1.0000   1.0000   1.0000   1.0000   1.0000   1.0000   1.0000
     1.0000   1.0000   1.0000   1.0000   1.0000   1.0000   1.0000   1.0000
     1.0000   1.0000   1.0000   1.0000   1.0000

          k =-0.4545-0.4653 0.0000 ( 14430 PWs)   bands (ev):

   -78.5061 -49.9927 -49.8623 -49.6657 -21.9790 -21.7925 -20.9667 -20.4031
   -15.3739 -15.0594 -12.9088 -12.6688 -12.1245 -11.6871 -11.5493 -10.4716
    -9.5782  -9.2953  -8.4499  -8.0820  -6.8912

     occupation numbers 
     1.0000   1.0000   1.0000   1.0000   1.0000   1.0000   1.0000   1.0000
     1.0000   1.0000   1.0000   1.0000   1.0000   1.0000   1.0000   1.0000
     1.0000   1.0000   1.0000   1.0000   1.0000

          k =-0.4545-0.3619 0.0000 ( 14473 PWs)   bands (ev):

   -78.5072 -50.0161 -49.8282 -49.6672 -22.0551 -21.8691 -21.0210 -20.4542
   -15.7592 -15.4571 -12.8002 -12.3313 -11.7243 -11.2479 -11.1747 -10.2696
    -9.6022  -8.6504  -8.4367  -8.1290  -6.9796

     occupation numbers 
     1.0000   1.0000   1.0000   1.0000   1.0000   1.0000   1.0000   1.0000
     1.0000   1.0000   1.0000   1.0000   1.0000   1.0000   1.0000   1.0000
     1.0000   1.0000   1.0000   1.0000   1.0000

          k =-0.3636-0.2068 0.0000 ( 14479 PWs)   bands (ev):

   -78.5147 -49.9739 -49.8028 -49.6775 -22.8791 -22.7165 -21.2078 -20.4887
   -14.8968 -14.5385 -13.0026 -11.8787 -11.4677 -10.6433 -10.4573  -9.9632
    -9.4137  -8.9544  -8.3839  -8.2602  -7.1195

     occupation numbers 
     1.0000   1.0000   1.0000   1.0000   1.0000   1.0000   1.0000   1.0000
     1.0000   1.0000   1.0000   1.0000   1.0000   1.0000   1.0000   1.0000
     1.0000   1.0000   1.0000   1.0000   1.0000

          k =-0.3636-0.1034 0.0000 ( 14506 PWs)   bands (ev):

   -78.5179 -49.9403 -49.8067 -49.6821 -23.1831 -23.0220 -21.3314 -20.5336
   -14.3626 -13.8525 -12.9139 -11.7144 -11.3654 -10.9152 -10.6289 -10.0284
    -9.1109  -8.9806  -8.6711  -8.2588  -7.1328

     occupation numbers 
     1.0000   1.0000   1.0000   1.0000   1.0000   1.0000   1.0000   1.0000
     1.0000   1.0000   1.0000   1.0000   1.0000   1.0000   1.0000   1.0000
     1.0000   1.0000   1.0000   1.0000   1.0000

          k =-0.3636 0.0000 0.0000 ( 14493 PWs)   bands (ev):

   -78.5191 -49.9210 -49.8150 -49.6838 -23.2909 -23.1301 -21.3800 -20.5517
   -14.1282 -13.4093 -12.6849 -11.7067 -11.5577 -11.2387 -10.6798 -10.1610
    -9.1181  -8.9317  -8.6559  -8.3021  -7.1353

     occupation numbers 
     1.0000   1.0000   1.0000   1.0000   1.0000   1.0000   1.0000   1.0000
     1.0000   1.0000   1.0000   1.0000   1.0000   1.0000   1.0000   1.0000
     1.0000   1.0000   1.0000   1.0000   1.0000

          k =-0.3636 0.1034 0.0000 ( 14506 PWs)   bands (ev):

   -78.5179 -49.9404 -49.8066 -49.6821 -23.1830 -23.0220 -21.3316 -20.5334
   -14.3630 -13.8523 -12.9141 -11.7141 -11.3649 -10.9145 -10.6295 -10.0295
    -9.1112  -8.9815  -8.6710  -8.2584  -7.1319

     occupation numbers 
     1.0000   1.0000   1.0000   1.0000   1.0000   1.0000   1.0000   1.0000
     1.0000   1.0000   1.0000   1.0000   1.0000   1.0000   1.0000   1.0000
     1.0000   1.0000   1.0000   1.0000   1.0000

          k =-0.3636 0.2068 0.0000 ( 14479 PWs)   bands (ev):

   -78.5147 -49.9739 -49.8027 -49.6775 -22.8789 -22.7165 -21.2082 -20.4883
   -14.8975 -14.5379 -13.0032 -11.8786 -11.4668 -10.6420 -10.4585  -9.9637
    -9.4155  -8.9546  -8.3844  -8.2601  -7.1176

     occupation numbers 
     1.0000   1.0000   1.0000   1.0000   1.0000   1.0000   1.0000   1.0000
     1.0000   1.0000   1.0000   1.0000   1.0000   1.0000   1.0000   1.0000
     1.0000   1.0000   1.0000   1.0000   1.0000

          k =-0.3636 0.3102 0.0000 ( 14484 PWs)   bands (ev):

   -78.5104 -49.9949 -49.8209 -49.6716 -22.4431 -22.2746 -21.0679 -20.4396
   -15.3105 -14.9906 -12.8879 -12.1106 -11.5907 -11.1723 -11.0306 -10.2656
    -9.4373  -8.7789  -8.5492  -8.1718  -7.0364

     occupation numbers 
     1.0000   1.0000   1.0000   1.0000   1.0000   1.0000   1.0000   1.0000
     1.0000   1.0000   1.0000   1.0000   1.0000   1.0000   1.0000   1.0000
     1.0000   1.0000   1.0000   1.0000   1.0000

          k =-0.3636-0.7238 0.0000 ( 14456 PWs)   bands (ev):

   -78.5066 -49.9919 -49.8601 -49.6662 -21.9965 -21.8104 -20.9746 -20.4074
   -15.3655 -15.0474 -12.9100 -12.6605 -12.1174 -11.6904 -11.5456 -10.4373
    -9.6149  -9.3149  -8.4635  -8.0788  -6.8624

     occupation numbers 
     1.0000   1.0000   1.0000   1.0000   1.0000   1.0000   1.0000   1.0000
     1.0000   1.0000   1.0000   1.0000   1.0000   1.0000   1.0000   1.0000
     1.0000   1.0000   1.0000   1.0000   1.0000

          k =-0.3636-0.6204 0.0000 ( 14455 PWs)   bands (ev):

   -78.5042 -49.9666 -49.9072 -49.6629 -21.7060 -21.4893 -20.9531 -20.3943
   -15.0335 -14.6732 -13.8204 -13.6156 -12.0383 -11.8037 -11.4237 -10.4803
   -10.2305  -9.7065  -8.3233  -8.0066  -6.6882

     occupation numbers 
     1.0000   1.0000   1.0000   1.0000   1.0000   1.0000   1.0000   1.0000
     1.0000   1.0000   1.0000   1.0000   1.0000   1.0000   1.0000   1.0000
     1.0000   1.0000   1.0000   1.0000   1.0000

          k =-0.3636-0.5170 0.0000 ( 14455 PWs)   bands (ev):

   -78.5042 -49.9666 -49.9072 -49.6629 -21.7061 -21.4893 -20.9529 -20.3944
   -15.0330 -14.6737 -13.8213 -13.6150 -12.0380 -11.8035 -11.4234 -10.4805
   -10.2310  -9.7062  -8.3230  -8.0066  -6.6884

     occupation numbers 
     1.0000   1.0000   1.0000   1.0000   1.0000   1.0000   1.0000   1.0000
     1.0000   1.0000   1.0000   1.0000   1.0000   1.0000   1.0000   1.0000
     1.0000   1.0000   1.0000   1.0000   1.0000

          k =-0.3636-0.4136 0.0000 ( 14456 PWs)   bands (ev):

   -78.5066 -49.9919 -49.8602 -49.6662 -21.9967 -21.8104 -20.9742 -20.4076
   -15.3648 -15.0481 -12.9100 -12.6607 -12.1170 -11.6899 -11.5453 -10.4379
    -9.6147  -9.3144  -8.4628  -8.0789  -6.8632

     occupation numbers 
     1.0000   1.0000   1.0000   1.0000   1.0000   1.0000   1.0000   1.0000
     1.0000   1.0000   1.0000   1.0000   1.0000   1.0000   1.0000   1.0000
     1.0000   1.0000   1.0000   1.0000   1.0000

          k =-0.3636-0.3102 0.0000 ( 14484 PWs)   bands (ev):

   -78.5104 -49.9948 -49.8209 -49.6716 -22.4433 -22.2746 -21.0674 -20.4399
   -15.3098 -14.9914 -12.8873 -12.1106 -11.5911 -11.1734 -11.0296 -10.2658
    -9.4357  -8.7789  -8.5480  -8.1719  -7.0382

     occupation numbers 
     1.0000   1.0000   1.0000   1.0000   1.0000   1.0000   1.0000   1.0000
     1.0000   1.0000   1.0000   1.0000   1.0000   1.0000   1.0000   1.0000
     1.0000   1.0000   1.0000   1.0000   1.0000

          k =-0.2727-0.1551 0.0000 ( 14551 PWs)   bands (ev):

   -78.5247 -49.9000 -49.7851 -49.6915 -23.6697 -23.5078 -21.5987 -20.6689
   -14.1113 -13.1108 -12.6442 -11.6507 -11.0044 -10.2918 -10.1099  -9.4803
    -9.2415  -9.0891  -8.7426  -8.2538  -7.0030

     occupation numbers 
     1.0000   1.0000   1.0000   1.0000   1.0000   1.0000   1.0000   1.0000
     1.0000   1.0000   1.0000   1.0000   1.0000   1.0000   1.0000   1.0000
     1.0000   1.0000   1.0000   1.0000   1.0000

          k =-0.2727-0.0517 0.0000 ( 14554 PWs)   bands (ev):

   -78.5284 -49.8648 -49.7865 -49.6966 -23.9193 -23.7566 -21.7499 -20.7459
   -14.0965 -12.4391 -12.0680 -11.5795 -10.8740 -10.3928 -10.1173  -9.4326
    -9.3197  -8.9594  -8.7946  -8.1377  -6.8956

     occupation numbers 
     1.0000   1.0000   1.0000   1.0000   1.0000   1.0000   1.0000   1.0000
     1.0000   1.0000   1.0000   1.0000   1.0000   1.0000   1.0000   1.0000
     1.0000   1.0000   1.0000   1.0000   1.0000

          k =-0.2727 0.0517 0.0000 ( 14554 PWs)   bands (ev):

   -78.5284 -49.8649 -49.7865 -49.6966 -23.9193 -23.7566 -21.7499 -20.7458
   -14.0967 -12.4392 -12.0679 -11.5791 -10.8740 -10.3922 -10.1178  -9.4325
    -9.3198  -8.9593  -8.7957  -8.1375  -6.8949

     occupation numbers 
     1.0000   1.0000   1.0000   1.0000   1.0000   1.0000   1.0000   1.0000
     1.0000   1.0000   1.0000   1.0000   1.0000   1.0000   1.0000   1.0000
     1.0000   1.0000   1.0000   1.0000   1.0000

          k =-0.2727 0.1551 0.0000 ( 14551 PWs)   bands (ev):

   -78.5247 -49.9001 -49.7850 -49.6915 -23.6696 -23.5078 -21.5990 -20.6686
   -14.1118 -13.1110 -12.6440 -11.6499 -11.0047 -10.2904 -10.1112  -9.4802
    -9.2416  -9.0914  -8.7426  -8.2536  -7.0013

     occupation numbers 
     1.0000   1.0000   1.0000   1.0000   1.0000   1.0000   1.0000   1.0000
     1.0000   1.0000   1.0000   1.0000   1.0000   1.0000   1.0000   1.0000
     1.0000   1.0000   1.0000   1.0000   1.0000

          k =-0.2727 0.2585 0.0000 ( 14499 PWs)   bands (ev):

   -78.5186 -49.9402 -49.8017 -49.6829 -23.2020 -23.0405 -21.3473 -20.5436
   -14.3645 -13.8420 -12.9089 -11.7043 -11.3604 -10.9155 -10.6298 -10.0170
    -9.1272  -8.9806  -8.7013  -8.2709  -7.0954

     occupation numbers 
     1.0000   1.0000   1.0000   1.0000   1.0000   1.0000   1.0000   1.0000
     1.0000   1.0000   1.0000   1.0000   1.0000   1.0000   1.0000   1.0000
     1.0000   1.0000   1.0000   1.0000   1.0000

          k =-0.2727 0.3619 0.0000 ( 14446 PWs)   bands (ev):

   -78.5120 -49.9678 -49.8360 -49.6736 -22.5937 -22.4281 -21.0938 -20.4287
   -14.7700 -14.3883 -12.7835 -12.3492 -12.0726 -11.3622 -11.1485 -10.5937
    -9.2573  -9.0787  -8.6608  -8.2413  -7.0408

     occupation numbers 
     1.0000   1.0000   1.0000   1.0000   1.0000   1.0000   1.0000   1.0000
     1.0000   1.0000   1.0000   1.0000   1.0000   1.0000   1.0000   1.0000
     1.0000   1.0000   1.0000   1.0000   1.0000

          k =-0.2727-0.6721 0.0000 ( 14474 PWs)   bands (ev):

   -78.5069 -49.9762 -49.8749 -49.6664 -22.0040 -21.8189 -20.9618 -20.3902
   -15.0360 -14.6800 -13.3291 -13.0904 -12.3359 -11.6168 -11.3187 -10.5821
    -9.9591  -9.3930  -8.4550  -8.0912  -6.8245

     occupation numbers 
     1.0000   1.0000   1.0000   1.0000   1.0000   1.0000   1.0000   1.0000
     1.0000   1.0000   1.0000   1.0000   1.0000   1.0000   1.0000   1.0000
     1.0000   1.0000   1.0000   1.0000   1.0000

          k =-0.2727-0.5687 0.0000 ( 14432 PWs)   bands (ev):

   -78.5050 -49.9743 -49.8945 -49.6638 -21.7285 -21.5107 -20.9704 -20.4085
   -15.1075 -14.7541 -13.7190 -13.5077 -12.0370 -11.8072 -11.4355 -10.4526
   -10.2212  -9.7051  -8.3397  -8.0100  -6.6826

     occupation numbers 
     1.0000   1.0000   1.0000   1.0000   1.0000   1.0000   1.0000   1.0000
     1.0000   1.0000   1.0000   1.0000   1.0000   1.0000   1.0000   1.0000
     1.0000   1.0000   1.0000   1.0000   1.0000

          k =-0.2727-0.4653 0.0000 ( 14474 PWs)   bands (ev):

   -78.5069 -49.9762 -49.8749 -49.6664 -22.0041 -21.8189 -20.9616 -20.3904
   -15.0354 -14.6805 -13.3298 -13.0900 -12.3358 -11.6157 -11.3181 -10.5837
    -9.9595  -9.3918  -8.4543  -8.0913  -6.8252

     occupation numbers 
     1.0000   1.0000   1.0000   1.0000   1.0000   1.0000   1.0000   1.0000
     1.0000   1.0000   1.0000   1.0000   1.0000   1.0000   1.0000   1.0000
     1.0000   1.0000   1.0000   1.0000   1.0000

          k =-0.2727-0.3619 0.0000 ( 14446 PWs)   bands (ev):

   -78.5119 -49.9678 -49.8361 -49.6735 -22.5938 -22.4281 -21.0935 -20.4290
   -14.7693 -14.3888 -12.7833 -12.3499 -12.0722 -11.3620 -11.1478 -10.5941
    -9.2576  -9.0777  -8.6595  -8.2416  -7.0422

     occupation numbers 
     1.0000   1.0000   1.0000   1.0000   1.0000   1.0000   1.0000   1.0000
     1.0000   1.0000   1.0000   1.0000   1.0000   1.0000   1.0000   1.0000
     1.0000   1.0000   1.0000   1.0000   1.0000

          k =-0.2727-0.2585 0.0000 ( 14499 PWs)   bands (ev):

   -78.5186 -49.9402 -49.8018 -49.6829 -23.2021 -23.0405 -21.3470 -20.5440
   -14.3639 -13.8423 -12.9087 -11.7046 -11.3607 -10.9166 -10.6288 -10.0162
    -9.1267  -8.9798  -8.7007  -8.2709  -7.0974

     occupation numbers 
     1.0000   1.0000   1.0000   1.0000   1.0000   1.0000   1.0000   1.0000
     1.0000   1.0000   1.0000   1.0000   1.0000   1.0000   1.0000   1.0000
     1.0000   1.0000   1.0000   1.0000   1.0000

          k =-0.1818-0.1034 0.0000 ( 14557 PWs)   bands (ev):

   -78.5356 -49.8199 -49.7648 -49.7066 -24.3310 -24.1658 -22.0315 -20.9006
   -14.2993 -11.9758 -11.3375 -11.1430 -10.2828  -9.8685  -9.6962  -9.5492
    -9.0895  -8.8863  -8.6835  -8.1038  -6.6170

     occupation numbers 
     1.0000   1.0000   1.0000   1.0000   1.0000   1.0000   1.0000   1.0000
     1.0000   1.0000   1.0000   1.0000   1.0000   1.0000   1.0000   1.0000
     1.0000   1.0000   1.0000   1.0000   1.0000

          k =-0.1818 0.0000 0.0000 ( 14573 PWs)   bands (ev):

   -78.5381 -49.7930 -49.7689 -49.7100 -24.4672 -24.3012 -22.1288 -20.9539
   -14.3849 -11.9558 -10.8547 -10.6649 -10.1767  -9.8456  -9.6729  -9.5431
    -9.2355  -8.7386  -8.6544  -7.9760  -6.5021

     occupation numbers 
     1.0000   1.0000   1.0000   1.0000   1.0000   1.0000   1.0000   1.0000
     1.0000   1.0000   1.0000   1.0000   1.0000   1.0000   1.0000   1.0000
     1.0000   1.0000   1.0000   1.0000   1.0000

          k =-0.1818 0.1034 0.0000 ( 14557 PWs)   bands (ev):

   -78.5357 -49.8199 -49.7647 -49.7066 -24.3310 -24.1658 -22.0316 -20.9005
   -14.2995 -11.9753 -11.3388 -11.1420 -10.2834  -9.8668  -9.6975  -9.5493
    -9.0892  -8.8843  -8.6863  -8.1042  -6.6159

     occupation numbers 
     1.0000   1.0000   1.0000   1.0000   1.0000   1.0000   1.0000   1.0000
     1.0000   1.0000   1.0000   1.0000   1.0000   1.0000   1.0000   1.0000
     1.0000   1.0000   1.0000   1.0000   1.0000

          k =-0.1818 0.2068 0.0000 ( 14545 PWs)   bands (ev):

   -78.5291 -49.8710 -49.7747 -49.6975 -23.9352 -23.7721 -21.7656 -20.7567
   -14.1151 -12.4659 -12.0901 -11.5789 -10.8886 -10.3586 -10.0771  -9.4473
    -9.3162  -8.9394  -8.7500  -8.1774  -6.8763

     occupation numbers 
     1.0000   1.0000   1.0000   1.0000   1.0000   1.0000   1.0000   1.0000
     1.0000   1.0000   1.0000   1.0000   1.0000   1.0000   1.0000   1.0000
     1.0000   1.0000   1.0000   1.0000   1.0000

          k =-0.1818 0.3102 0.0000 ( 14487 PWs)   bands (ev):

   -78.5206 -49.9271 -49.7983 -49.6855 -23.3258 -23.1640 -21.4121 -20.5745
   -14.1749 -13.4618 -12.7141 -11.6562 -11.5283 -11.1866 -10.6396 -10.1420
    -9.1345  -8.9249  -8.6248  -8.3494  -7.0941

     occupation numbers 
     1.0000   1.0000   1.0000   1.0000   1.0000   1.0000   1.0000   1.0000
     1.0000   1.0000   1.0000   1.0000   1.0000   1.0000   1.0000   1.0000
     1.0000   1.0000   1.0000   1.0000   1.0000

          k =-0.1818 0.4136 0.0000 ( 14478 PWs)   bands (ev):

   -78.5127 -49.9741 -49.8242 -49.6744 -22.6096 -22.4432 -21.1121 -20.4448
   -14.8455 -14.4697 -12.7981 -12.2759 -11.9671 -11.3460 -11.1462 -10.5883
    -9.2156  -9.0591  -8.6520  -8.2522  -7.0506

     occupation numbers 
     1.0000   1.0000   1.0000   1.0000   1.0000   1.0000   1.0000   1.0000
     1.0000   1.0000   1.0000   1.0000   1.0000   1.0000   1.0000   1.0000
     1.0000   1.0000   1.0000   1.0000   1.0000

          k =-0.1818-0.6204 0.0000 ( 14479 PWs)   bands (ev):

   -78.5080 -50.0008 -49.8407 -49.6679 -22.0329 -21.8438 -21.0135 -20.4407
   -15.4692 -15.1475 -12.8276 -12.5566 -12.0449 -11.6757 -11.5228 -10.4441
    -9.5755  -9.2498  -8.4880  -8.0920  -6.8736

     occupation numbers 
     1.0000   1.0000   1.0000   1.0000   1.0000   1.0000   1.0000   1.0000
     1.0000   1.0000   1.0000   1.0000   1.0000   1.0000   1.0000   1.0000
     1.0000   1.0000   1.0000   1.0000   1.0000

          k =-0.1818-0.5170 0.0000 ( 14479 PWs)   bands (ev):

   -78.5080 -50.0008 -49.8407 -49.6679 -22.0330 -21.8438 -21.0134 -20.4408
   -15.4691 -15.1476 -12.8276 -12.5566 -12.0452 -11.6751 -11.5223 -10.4457
    -9.5745  -9.2495  -8.4876  -8.0922  -6.8741

     occupation numbers 
     1.0000   1.0000   1.0000   1.0000   1.0000   1.0000   1.0000   1.0000
     1.0000   1.0000   1.0000   1.0000   1.0000   1.0000   1.0000   1.0000
     1.0000   1.0000   1.0000   1.0000   1.0000

          k =-0.1818-0.4136 0.0000 ( 14478 PWs)   bands (ev):

   -78.5127 -49.9741 -49.8242 -49.6744 -22.6097 -22.4432 -21.1119 -20.4450
   -14.8451 -14.4700 -12.7980 -12.2761 -11.9671 -11.3451 -11.1456 -10.5898
    -9.2156  -9.0581  -8.6509  -8.2525  -7.0518

     occupation numbers 
     1.0000   1.0000   1.0000   1.0000   1.0000   1.0000   1.0000   1.0000
     1.0000   1.0000   1.0000   1.0000   1.0000   1.0000   1.0000   1.0000
     1.0000   1.0000   1.0000   1.0000   1.0000

          k =-0.1818-0.3102 0.0000 ( 14487 PWs)   bands (ev):

   -78.5206 -49.9271 -49.7984 -49.6855 -23.3258 -23.1640 -21.4119 -20.5747
   -14.1745 -13.4618 -12.7142 -11.6562 -11.5287 -11.1871 -10.6387 -10.1413
    -9.1349  -8.9247  -8.6250  -8.3480  -7.0957

     occupation numbers 
     1.0000   1.0000   1.0000   1.0000   1.0000   1.0000   1.0000   1.0000
     1.0000   1.0000   1.0000   1.0000   1.0000   1.0000   1.0000   1.0000
     1.0000   1.0000   1.0000   1.0000   1.0000

          k =-0.1818-0.2068 0.0000 ( 14545 PWs)   bands (ev):

   -78.5291 -49.8710 -49.7748 -49.6975 -23.9352 -23.7721 -21.7654 -20.7569
   -14.1148 -12.4656 -12.0903 -11.5796 -10.8882 -10.3597 -10.0761  -9.4463
    -9.3159  -8.9396  -8.7508  -8.1759  -6.8780

     occupation numbers 
     1.0000   1.0000   1.0000   1.0000   1.0000   1.0000   1.0000   1.0000
     1.0000   1.0000   1.0000   1.0000   1.0000   1.0000   1.0000   1.0000
     1.0000   1.0000   1.0000   1.0000   1.0000

          k =-0.0909-0.0517 0.0000 ( 14561 PWs)   bands (ev):

   -78.5440 -49.7656 -49.7418 -49.7181 -24.7565 -24.5883 -22.3480 -21.0775
   -14.6027 -12.0195 -10.1085  -9.8468  -9.7241  -9.5691  -9.5198  -9.3953
    -9.1524  -8.4905  -8.3264  -8.0013  -6.2648

     occupation numbers 
     1.0000   1.0000   1.0000   1.0000   1.0000   1.0000   1.0000   1.0000
     1.0000   1.0000   1.0000   1.0000   1.0000   1.0000   1.0000   1.0000
     1.0000   1.0000   1.0000   1.0000   1.0000

          k =-0.0909 0.0517 0.0000 ( 14561 PWs)   bands (ev):

   -78.5440 -49.7657 -49.7417 -49.7181 -24.7565 -24.5883 -22.3481 -21.0774
   -14.6027 -12.0194 -10.1093  -9.8474  -9.7245  -9.5681  -9.5191  -9.3941
    -9.1536  -8.4879  -8.3298  -8.0007  -6.2645

     occupation numbers 
     1.0000   1.0000   1.0000   1.0000   1.0000   1.0000   1.0000   1.0000
     1.0000   1.0000   1.0000   1.0000   1.0000   1.0000   1.0000   1.0000
     1.0000   1.0000   1.0000   1.0000   1.0000

          k =-0.0909 0.1551 0.0000 ( 14541 PWs)   bands (ev):

   -78.5387 -49.8111 -49.7464 -49.7107 -24.4775 -24.3112 -22.1398 -20.9618
   -14.3980 -11.9630 -10.9762 -10.7880 -10.2170  -9.7208  -9.6398  -9.4643
    -9.1448  -8.7424  -8.6075  -8.0072  -6.4967

     occupation numbers 
     1.0000   1.0000   1.0000   1.0000   1.0000   1.0000   1.0000   1.0000
     1.0000   1.0000   1.0000   1.0000   1.0000   1.0000   1.0000   1.0000
     1.0000   1.0000   1.0000   1.0000   1.0000

          k =-0.0909 0.2585 0.0000 ( 14530 PWs)   bands (ev):

   -78.5297 -49.8793 -49.7622 -49.6982 -23.9454 -23.7820 -21.7768 -20.7658
   -14.1357 -12.5522 -12.1810 -11.6118 -10.8798 -10.2368  -9.9762  -9.4393
    -9.3146  -8.8826  -8.7370  -8.1831  -6.8786

     occupation numbers 
     1.0000   1.0000   1.0000   1.0000   1.0000   1.0000   1.0000   1.0000
     1.0000   1.0000   1.0000   1.0000   1.0000   1.0000   1.0000   1.0000
     1.0000   1.0000   1.0000   1.0000   1.0000

          k =-0.0909 0.3619 0.0000 ( 14507 PWs)   bands (ev):

   -78.5200 -49.9510 -49.7811 -49.6845 -23.2279 -23.0655 -21.3760 -20.5681
   -14.4672 -13.9681 -12.9564 -11.7170 -11.3746 -10.7397 -10.4616  -9.9926
    -9.1277  -8.9460  -8.6186  -8.2880  -7.1042

     occupation numbers 
     1.0000   1.0000   1.0000   1.0000   1.0000   1.0000   1.0000   1.0000
     1.0000   1.0000   1.0000   1.0000   1.0000   1.0000   1.0000   1.0000
     1.0000   1.0000   1.0000   1.0000   1.0000

          k =-0.0909 0.4653 0.0000 ( 14482 PWs)   bands (ev):

   -78.5125 -50.0049 -49.7960 -49.6740 -22.4879 -22.3167 -21.1176 -20.4830
   -15.4336 -15.1084 -12.9000 -12.1243 -11.6010 -10.9828 -10.8183 -10.2628
    -9.3649  -8.7974  -8.4696  -8.1930  -7.0551

     occupation numbers 
     1.0000   1.0000   1.0000   1.0000   1.0000   1.0000   1.0000   1.0000
     1.0000   1.0000   1.0000   1.0000   1.0000   1.0000   1.0000   1.0000
     1.0000   1.0000   1.0000   1.0000   1.0000

          k =-0.0909-0.5687 0.0000 ( 14530 PWs)   bands (ev):

   -78.5097 -50.0249 -49.8015 -49.6701 -22.1157 -21.9253 -21.0847 -20.5077
   -15.8698 -15.5573 -12.8098 -12.3428 -11.7265 -11.0492 -10.9519 -10.2692
    -9.5419  -8.6559  -8.3926  -8.1579  -6.9833

     occupation numbers 
     1.0000   1.0000   1.0000   1.0000   1.0000   1.0000   1.0000   1.0000
     1.0000   1.0000   1.0000   1.0000   1.0000   1.0000   1.0000   1.0000
     1.0000   1.0000   1.0000   1.0000   1.0000

          k =-0.0909-0.4653 0.0000 ( 14482 PWs)   bands (ev):

   -78.5125 -50.0049 -49.7960 -49.6740 -22.4879 -22.3167 -21.1175 -20.4831
   -15.4335 -15.1085 -12.9000 -12.1242 -11.6006 -10.9830 -10.8182 -10.2642
    -9.3636  -8.7975  -8.4685  -8.1934  -7.0559

     occupation numbers 
     1.0000   1.0000   1.0000   1.0000   1.0000   1.0000   1.0000   1.0000
     1.0000   1.0000   1.0000   1.0000   1.0000   1.0000   1.0000   1.0000
     1.0000   1.0000   1.0000   1.0000   1.0000

          k =-0.0909-0.3619 0.0000 ( 14507 PWs)   bands (ev):

   -78.5200 -49.9510 -49.7812 -49.6845 -23.2279 -23.0655 -21.3759 -20.5682
   -14.4670 -13.9682 -12.9564 -11.7169 -11.3744 -10.7400 -10.4613  -9.9928
    -9.1276  -8.9460  -8.6179  -8.2877  -7.1053

     occupation numbers 
     1.0000   1.0000   1.0000   1.0000   1.0000   1.0000   1.0000   1.0000
     1.0000   1.0000   1.0000   1.0000   1.0000   1.0000   1.0000   1.0000
     1.0000   1.0000   1.0000   1.0000   1.0000

          k =-0.0909-0.2585 0.0000 ( 14530 PWs)   bands (ev):

   -78.5297 -49.8793 -49.7622 -49.6982 -23.9454 -23.7820 -21.7767 -20.7659
   -14.1356 -12.5521 -12.1812 -11.6122 -10.8794 -10.2374  -9.9757  -9.4383
    -9.3143  -8.8827  -8.7391  -8.1813  -6.8797

     occupation numbers 
     1.0000   1.0000   1.0000   1.0000   1.0000   1.0000   1.0000   1.0000
     1.0000   1.0000   1.0000   1.0000   1.0000   1.0000   1.0000   1.0000
     1.0000   1.0000   1.0000   1.0000   1.0000

          k =-0.0909-0.1551 0.0000 ( 14541 PWs)   bands (ev):

   -78.5387 -49.8111 -49.7465 -49.7107 -24.4775 -24.3112 -22.1397 -20.9619
   -14.3978 -11.9634 -10.9749 -10.7889 -10.2165  -9.7218  -9.6400  -9.4635
    -9.1450  -8.7404  -8.6098  -8.0060  -6.4976

     occupation numbers 
     1.0000   1.0000   1.0000   1.0000   1.0000   1.0000   1.0000   1.0000
     1.0000   1.0000   1.0000   1.0000   1.0000   1.0000   1.0000   1.0000
     1.0000   1.0000   1.0000   1.0000   1.0000

     highest occupied level (ev):    -6.1689

!    total energy              =    -263.33677280 Ry
     estimated scf accuracy    <          2.4E-12 Ry

     The total energy is the sum of the following terms:
     one-electron contribution =   -6599.22781671 Ry
     hartree contribution      =    3295.33112817 Ry
     xc contribution           =     -44.64452910 Ry
     ewald contribution        =    3085.20444483 Ry

     convergence has been achieved in  30 iterations

     Forces acting on atoms (cartesian axes, Ry/au):

     atom    1 type  1   force =    -0.00031496   -0.00590755   -0.00096534
     atom    2 type  2   force =     0.00017158    0.00388984    0.01970614
     atom    3 type  2   force =     0.00019717    0.00226460    0.01013470
     atom    4 type  2   force =     0.00021295    0.00795378   -0.05420011
     atom    5 type  2   force =     0.00010334   -0.00910510    0.05541852
     atom    6 type  3   force =    -0.00019279    0.00992344   -0.05926823
     atom    7 type  3   force =    -0.00017729   -0.00901900    0.02917432
     The non-local contrib.  to forces
     atom    1 type  1   force =    -0.00012835   -0.00439413   -0.00663636
     atom    2 type  2   force =     0.00030303   -0.00610424   -0.07751294
     atom    3 type  2   force =     0.00008747   -0.00397324    0.12346083
     atom    4 type  2   force =    -0.00007534    0.01637900   -1.08159347
     atom    5 type  2   force =    -0.00024942   -0.01682939    1.05928930
     atom    6 type  3   force =    -0.00050349    0.00160760   -0.10331413
     atom    7 type  3   force =    -0.00062823    0.00220726    0.03607339
     The ionic contribution  to forces
     atom    1 type  1   force =    -0.00496431   -0.32177954   -0.11881432
     atom    2 type  2   force =     0.00172281    0.17539951  -43.52311203
     atom    3 type  2   force =     0.00247950    0.14067442   43.67637884
     atom    4 type  2   force =     0.00105692   -0.02215866   90.42298829
     atom    5 type  2   force =     0.00097244    0.01658004  -90.33724591
     atom    6 type  3   force =    -0.00037359   -0.01272089  -61.72942848
     atom    7 type  3   force =    -0.00089377    0.02400512   61.60923361
     The local contribution  to forces
     atom    1 type  1   force =     0.00468427    0.32031956    0.12458987
     atom    2 type  2   force =    -0.00194759   -0.16535203   43.62042739
     atom    3 type  2   force =    -0.00246316   -0.13438322  -43.78960504
     atom    4 type  2   force =    -0.00086198    0.01378683  -89.39549766
     atom    5 type  2   force =    -0.00071304   -0.00880237   89.33347007
     atom    6 type  3   force =     0.00059094    0.02109010   61.77356930
     atom    7 type  3   force =     0.00125136   -0.03517800  -61.61603508
     The core correction contribution to forces
     atom    1 type  1   force =     0.00000000    0.00000000    0.00000000
     atom    2 type  2   force =     0.00000000    0.00000000    0.00000000
     atom    3 type  2   force =     0.00000000    0.00000000    0.00000000
     atom    4 type  2   force =     0.00000000    0.00000000    0.00000000
     atom    5 type  2   force =     0.00000000    0.00000000    0.00000000
     atom    6 type  3   force =     0.00000000    0.00000000    0.00000000
     atom    7 type  3   force =     0.00000000    0.00000000    0.00000000
     The Hubbard contrib.    to forces
     atom    1 type  1   force =     0.00000000    0.00000000    0.00000000
     atom    2 type  2   force =     0.00000000    0.00000000    0.00000000
     atom    3 type  2   force =     0.00000000    0.00000000    0.00000000
     atom    4 type  2   force =     0.00000000    0.00000000    0.00000000
     atom    5 type  2   force =     0.00000000    0.00000000    0.00000000
     atom    6 type  3   force =     0.00000000    0.00000000    0.00000000
     atom    7 type  3   force =     0.00000000    0.00000000    0.00000000
     The SCF correction term to forces
     atom    1 type  1   force =     0.00000008   -0.00000006   -0.00000831
     atom    2 type  2   force =    -0.00000001   -0.00000003   -0.00000005
     atom    3 type  2   force =     0.00000001    0.00000002   -0.00000370
     atom    4 type  2   force =     0.00000001   -0.00000001   -0.00000104
     atom    5 type  2   force =     0.00000001    0.00000000    0.00000129
     atom    6 type  3   force =    -0.00000000   -0.00000000    0.00000131
     atom    7 type  3   force =    -0.00000000    0.00000000   -0.00000137

     Total force =     0.106048     Total SCF correction =     0.000009
     Energy error            =      6.2E-02 Ry
     Gradient error          =      5.9E-02 Ry/Bohr

     number of scf cycles    =   7
     number of bfgs steps    =   6

     energy             old  =    -263.2745627148 Ry
     energy             new  =    -263.3367727970 Ry

     CASE: energy            _new < energy            _old

     new trust radius        =       0.2030677979 bohr
     new conv_thr            =            5.9E-11 Ry


ATOMIC_POSITIONS (angstrom)
Cr               2.2011474810        0.3534465108       11.0196521039
N                0.8002829200        1.1692567055        9.8954733326
N                0.8001918376        1.1765237146       12.1682768653
N                2.2007084719        0.3414248495       14.5063752129
N               -0.6000727122        2.0034502329        7.5907095706
Si               0.8008065525        1.1703875213        8.1478925025
Si               0.8001930049        1.1742759089       13.9277670753



     Writing config-only to output data dir ./tmp/crsi2n4.save/ :
     XML data file
     NEW-OLD atomic charge density approx. for the potential

     negative rho (up, down):  2.091E-05 0.000E+00

     total cpu time spent up to now is     3557.9 secs

     Self-consistent Calculation
[tb_dev] Currently allocated     0.00E+00 Mbytes, locked:    0 /   0
[tb_pin] Currently allocated     0.00E+00 Mbytes, locked:    0 /   0

     iteration #  1     ecut=    80.00 Ry     beta= 0.40
     Davidson diagonalization with overlap

---- Real-time Memory Report at c_bands before calling an iterative solver
          1417 MiB given to the printing process from OS
             0 MiB allocation reported by mallinfo(arena+hblkhd)
         15906 MiB available memory on the node where the printing process lives
     GPU memory used/free/total (MiB): 1213 / 10700 / 11914
------------------
     ethr =  1.00E-06,  avg # of iterations = 12.8

     negative rho (up, down):  5.562E-06 0.000E+00

     total cpu time spent up to now is     3599.8 secs

     total energy              =    -263.34178382 Ry
     estimated scf accuracy    <       0.01864164 Ry
[tb_dev] Currently allocated     2.67E-05 Mbytes, locked:    0 /   1
[tb_pin] Currently allocated     0.00E+00 Mbytes, locked:    0 /   0

     iteration #  2     ecut=    80.00 Ry     beta= 0.40
     Davidson diagonalization with overlap

---- Real-time Memory Report at c_bands before calling an iterative solver
          1418 MiB given to the printing process from OS
             0 MiB allocation reported by mallinfo(arena+hblkhd)
         15898 MiB available memory on the node where the printing process lives
     GPU memory used/free/total (MiB): 1213 / 10700 / 11914
------------------
     ethr =  4.44E-05,  avg # of iterations =  2.6

     negative rho (up, down):  1.805E-06 0.000E+00

     total cpu time spent up to now is     3612.5 secs

     total energy              =    -263.34422523 Ry
     estimated scf accuracy    <       0.00406843 Ry
[tb_dev] Currently allocated     2.67E-05 Mbytes, locked:    0 /   1
[tb_pin] Currently allocated     0.00E+00 Mbytes, locked:    0 /   0

     iteration #  3     ecut=    80.00 Ry     beta= 0.40
     Davidson diagonalization with overlap

---- Real-time Memory Report at c_bands before calling an iterative solver
          1418 MiB given to the printing process from OS
             0 MiB allocation reported by mallinfo(arena+hblkhd)
         15884 MiB available memory on the node where the printing process lives
     GPU memory used/free/total (MiB): 1213 / 10700 / 11914
------------------
     ethr =  9.69E-06,  avg # of iterations =  4.1

     negative rho (up, down):  5.191E-07 0.000E+00

     total cpu time spent up to now is     3627.3 secs

     total energy              =    -263.34492589 Ry
     estimated scf accuracy    <       0.00150932 Ry
[tb_dev] Currently allocated     2.67E-05 Mbytes, locked:    0 /   1
[tb_pin] Currently allocated     0.00E+00 Mbytes, locked:    0 /   0

     iteration #  4     ecut=    80.00 Ry     beta= 0.40
     Davidson diagonalization with overlap

---- Real-time Memory Report at c_bands before calling an iterative solver
          1418 MiB given to the printing process from OS
             0 MiB allocation reported by mallinfo(arena+hblkhd)
         15886 MiB available memory on the node where the printing process lives
     GPU memory used/free/total (MiB): 1213 / 10700 / 11914
------------------
     ethr =  3.59E-06,  avg # of iterations =  4.2

     negative rho (up, down):  1.546E-07 0.000E+00

     total cpu time spent up to now is     3641.4 secs

     total energy              =    -263.34521075 Ry
     estimated scf accuracy    <       0.00031202 Ry
[tb_dev] Currently allocated     2.67E-05 Mbytes, locked:    0 /   1
[tb_pin] Currently allocated     0.00E+00 Mbytes, locked:    0 /   0

     iteration #  5     ecut=    80.00 Ry     beta= 0.40
     Davidson diagonalization with overlap

---- Real-time Memory Report at c_bands before calling an iterative solver
          1418 MiB given to the printing process from OS
             0 MiB allocation reported by mallinfo(arena+hblkhd)
         15884 MiB available memory on the node where the printing process lives
     GPU memory used/free/total (MiB): 1213 / 10700 / 11914
------------------
     ethr =  7.43E-07,  avg # of iterations =  3.8

     negative rho (up, down):  1.411E-07 0.000E+00

     total cpu time spent up to now is     3654.8 secs

     total energy              =    -263.34526731 Ry
     estimated scf accuracy    <       0.00006435 Ry
[tb_dev] Currently allocated     2.67E-05 Mbytes, locked:    0 /   1
[tb_pin] Currently allocated     0.00E+00 Mbytes, locked:    0 /   0

     iteration #  6     ecut=    80.00 Ry     beta= 0.40
     Davidson diagonalization with overlap

---- Real-time Memory Report at c_bands before calling an iterative solver
          1418 MiB given to the printing process from OS
             0 MiB allocation reported by mallinfo(arena+hblkhd)
         15876 MiB available memory on the node where the printing process lives
     GPU memory used/free/total (MiB): 1213 / 10700 / 11914
------------------
     ethr =  1.53E-07,  avg # of iterations =  5.7

     negative rho (up, down):  2.893E-07 0.000E+00

     total cpu time spent up to now is     3672.3 secs

     total energy              =    -263.34528210 Ry
     estimated scf accuracy    <       0.00003472 Ry
[tb_dev] Currently allocated     2.67E-05 Mbytes, locked:    0 /   1
[tb_pin] Currently allocated     0.00E+00 Mbytes, locked:    0 /   0

     iteration #  7     ecut=    80.00 Ry     beta= 0.40
     Davidson diagonalization with overlap

---- Real-time Memory Report at c_bands before calling an iterative solver
          1418 MiB given to the printing process from OS
             0 MiB allocation reported by mallinfo(arena+hblkhd)
         15871 MiB available memory on the node where the printing process lives
     GPU memory used/free/total (MiB): 1213 / 10700 / 11914
------------------
     ethr =  8.27E-08,  avg # of iterations =  4.6

     negative rho (up, down):  2.409E-07 0.000E+00

     total cpu time spent up to now is     3687.0 secs

     total energy              =    -263.34528552 Ry
     estimated scf accuracy    <       0.00000645 Ry
[tb_dev] Currently allocated     2.67E-05 Mbytes, locked:    0 /   1
[tb_pin] Currently allocated     0.00E+00 Mbytes, locked:    0 /   0

     iteration #  8     ecut=    80.00 Ry     beta= 0.40
     Davidson diagonalization with overlap

---- Real-time Memory Report at c_bands before calling an iterative solver
          1418 MiB given to the printing process from OS
             0 MiB allocation reported by mallinfo(arena+hblkhd)
         15872 MiB available memory on the node where the printing process lives
     GPU memory used/free/total (MiB): 1213 / 10700 / 11914
------------------
     ethr =  1.54E-08,  avg # of iterations =  7.4

     negative rho (up, down):  1.551E-07 0.000E+00

     total cpu time spent up to now is     3707.1 secs

     total energy              =    -263.34528652 Ry
     estimated scf accuracy    <       0.00000729 Ry
[tb_dev] Currently allocated     2.67E-05 Mbytes, locked:    0 /   1
[tb_pin] Currently allocated     0.00E+00 Mbytes, locked:    0 /   0

     iteration #  9     ecut=    80.00 Ry     beta= 0.40
     Davidson diagonalization with overlap

---- Real-time Memory Report at c_bands before calling an iterative solver
          1418 MiB given to the printing process from OS
             0 MiB allocation reported by mallinfo(arena+hblkhd)
         15869 MiB available memory on the node where the printing process lives
     GPU memory used/free/total (MiB): 1213 / 10700 / 11914
------------------
     ethr =  1.54E-08,  avg # of iterations =  5.8

     negative rho (up, down):  8.873E-08 0.000E+00

     total cpu time spent up to now is     3723.4 secs

     total energy              =    -263.34528828 Ry
     estimated scf accuracy    <       0.00000279 Ry
[tb_dev] Currently allocated     2.67E-05 Mbytes, locked:    0 /   1
[tb_pin] Currently allocated     0.00E+00 Mbytes, locked:    0 /   0

     iteration # 10     ecut=    80.00 Ry     beta= 0.40
     Davidson diagonalization with overlap

---- Real-time Memory Report at c_bands before calling an iterative solver
          1418 MiB given to the printing process from OS
             0 MiB allocation reported by mallinfo(arena+hblkhd)
         15862 MiB available memory on the node where the printing process lives
     GPU memory used/free/total (MiB): 1213 / 10700 / 11914
------------------
     ethr =  6.63E-09,  avg # of iterations =  3.1

     negative rho (up, down):  4.229E-08 0.000E+00

     total cpu time spent up to now is     3735.9 secs

     total energy              =    -263.34528846 Ry
     estimated scf accuracy    <       0.00000037 Ry
[tb_dev] Currently allocated     2.67E-05 Mbytes, locked:    0 /   1
[tb_pin] Currently allocated     0.00E+00 Mbytes, locked:    0 /   0

     iteration # 11     ecut=    80.00 Ry     beta= 0.40
     Davidson diagonalization with overlap

---- Real-time Memory Report at c_bands before calling an iterative solver
          1418 MiB given to the printing process from OS
             0 MiB allocation reported by mallinfo(arena+hblkhd)
         15854 MiB available memory on the node where the printing process lives
     GPU memory used/free/total (MiB): 1213 / 10700 / 11914
------------------
     ethr =  8.70E-10,  avg # of iterations =  7.4

     negative rho (up, down):  1.806E-08 0.000E+00

     total cpu time spent up to now is     3756.0 secs

     total energy              =    -263.34528861 Ry
     estimated scf accuracy    <       0.00000022 Ry
[tb_dev] Currently allocated     2.67E-05 Mbytes, locked:    0 /   1
[tb_pin] Currently allocated     0.00E+00 Mbytes, locked:    0 /   0

     iteration # 12     ecut=    80.00 Ry     beta= 0.40
     Davidson diagonalization with overlap

---- Real-time Memory Report at c_bands before calling an iterative solver
          1419 MiB given to the printing process from OS
             0 MiB allocation reported by mallinfo(arena+hblkhd)
         15856 MiB available memory on the node where the printing process lives
     GPU memory used/free/total (MiB): 1213 / 10700 / 11914
------------------
     ethr =  5.12E-10,  avg # of iterations =  4.3

     total cpu time spent up to now is     3771.1 secs

     total energy              =    -263.34528864 Ry
     estimated scf accuracy    <          2.0E-09 Ry
[tb_dev] Currently allocated     2.67E-05 Mbytes, locked:    0 /   1
[tb_pin] Currently allocated     0.00E+00 Mbytes, locked:    0 /   0

     iteration # 13     ecut=    80.00 Ry     beta= 0.40
     Davidson diagonalization with overlap

---- Real-time Memory Report at c_bands before calling an iterative solver
          1419 MiB given to the printing process from OS
             0 MiB allocation reported by mallinfo(arena+hblkhd)
         15854 MiB available memory on the node where the printing process lives
     GPU memory used/free/total (MiB): 1213 / 10700 / 11914
------------------
     ethr =  4.66E-12,  avg # of iterations = 10.0

     total cpu time spent up to now is     3800.5 secs

     total energy              =    -263.34528864 Ry
     estimated scf accuracy    <       0.00000006 Ry
[tb_dev] Currently allocated     2.67E-05 Mbytes, locked:    0 /   1
[tb_pin] Currently allocated     0.00E+00 Mbytes, locked:    0 /   0

     iteration # 14     ecut=    80.00 Ry     beta= 0.40
     Davidson diagonalization with overlap

---- Real-time Memory Report at c_bands before calling an iterative solver
          1420 MiB given to the printing process from OS
             0 MiB allocation reported by mallinfo(arena+hblkhd)
         15857 MiB available memory on the node where the printing process lives
     GPU memory used/free/total (MiB): 1213 / 10700 / 11914
------------------
     ethr =  4.66E-12,  avg # of iterations = 10.0

     total cpu time spent up to now is     3827.0 secs

     total energy              =    -263.34528865 Ry
     estimated scf accuracy    <          1.7E-10 Ry
[tb_dev] Currently allocated     2.67E-05 Mbytes, locked:    0 /   1
[tb_pin] Currently allocated     0.00E+00 Mbytes, locked:    0 /   0

     iteration # 15     ecut=    80.00 Ry     beta= 0.40
     Davidson diagonalization with overlap

---- Real-time Memory Report at c_bands before calling an iterative solver
          1420 MiB given to the printing process from OS
             0 MiB allocation reported by mallinfo(arena+hblkhd)
         15864 MiB available memory on the node where the printing process lives
     GPU memory used/free/total (MiB): 1213 / 10700 / 11914
------------------
     ethr =  4.00E-13,  avg # of iterations =  7.6

     total cpu time spent up to now is     3847.6 secs

     total energy              =    -263.34528865 Ry
     estimated scf accuracy    <          1.1E-09 Ry
[tb_dev] Currently allocated     2.67E-05 Mbytes, locked:    0 /   1
[tb_pin] Currently allocated     0.00E+00 Mbytes, locked:    0 /   0

     iteration # 16     ecut=    80.00 Ry     beta= 0.40
     Davidson diagonalization with overlap

---- Real-time Memory Report at c_bands before calling an iterative solver
          1420 MiB given to the printing process from OS
             0 MiB allocation reported by mallinfo(arena+hblkhd)
         15866 MiB available memory on the node where the printing process lives
     GPU memory used/free/total (MiB): 1213 / 10700 / 11914
------------------
     ethr =  4.00E-13,  avg # of iterations =  6.5

     total cpu time spent up to now is     3866.1 secs

     End of self-consistent calculation

          k = 0.0000 0.0000 0.0000 ( 14509 PWs)   bands (ev):

   -78.0500 -49.2765 -49.2487 -49.2185 -24.7659 -24.6549 -22.1590 -20.6753
   -14.3713 -11.6040  -9.6749  -9.4972  -9.3250  -9.3176  -9.1690  -9.1190
    -8.9965  -7.8553  -7.8306  -7.7004  -5.5619

     occupation numbers 
     1.0000   1.0000   1.0000   1.0000   1.0000   1.0000   1.0000   1.0000
     1.0000   1.0000   1.0000   1.0000   1.0000   1.0000   1.0000   1.0000
     1.0000   1.0000   1.0000   1.0000   1.0000

          k = 0.0000 0.1034 0.0000 ( 14525 PWs)   bands (ev):

   -78.0471 -49.2996 -49.2537 -49.2143 -24.6231 -24.5142 -22.0482 -20.6169
   -14.2579 -11.5566 -10.1363  -9.9794  -9.4957  -9.4535  -9.3832  -9.2456
    -8.9875  -8.1043  -7.9680  -7.5409  -5.6766

     occupation numbers 
     1.0000   1.0000   1.0000   1.0000   1.0000   1.0000   1.0000   1.0000
     1.0000   1.0000   1.0000   1.0000   1.0000   1.0000   1.0000   1.0000
     1.0000   1.0000   1.0000   1.0000   1.0000

          k = 0.0000 0.2068 0.0000 ( 14553 PWs)   bands (ev):

   -78.0392 -49.3612 -49.2671 -49.2031 -24.2066 -24.1034 -21.7432 -20.4592
   -13.9801 -11.6423 -11.3926 -11.2752 -10.0959  -9.6773  -9.5764  -9.2459
    -8.7716  -8.5023  -8.2957  -7.6381  -6.0658

     occupation numbers 
     1.0000   1.0000   1.0000   1.0000   1.0000   1.0000   1.0000   1.0000
     1.0000   1.0000   1.0000   1.0000   1.0000   1.0000   1.0000   1.0000
     1.0000   1.0000   1.0000   1.0000   1.0000

          k = 0.0000 0.3102 0.0000 ( 14539 PWs)   bands (ev):

   -78.0289 -49.4411 -49.2846 -49.1884 -23.5587 -23.4641 -21.3308 -20.2596
   -13.9325 -13.1655 -12.6415 -11.2845 -10.7547 -10.0656  -9.9667  -9.1138
    -8.8856  -8.7027  -8.3700  -7.8379  -6.4817

     occupation numbers 
     1.0000   1.0000   1.0000   1.0000   1.0000   1.0000   1.0000   1.0000
     1.0000   1.0000   1.0000   1.0000   1.0000   1.0000   1.0000   1.0000
     1.0000   1.0000   1.0000   1.0000   1.0000

          k = 0.0000 0.4136 0.0000 ( 14485 PWs)   bands (ev):

   -78.0193 -49.5138 -49.3006 -49.1749 -22.7810 -22.6987 -20.9681 -20.1225
   -14.9060 -14.5948 -12.7496 -11.5487 -11.1165 -10.3919 -10.2886  -9.5127
    -9.0012  -8.6391  -7.9961  -7.9273  -6.6217

     occupation numbers 
     1.0000   1.0000   1.0000   1.0000   1.0000   1.0000   1.0000   1.0000
     1.0000   1.0000   1.0000   1.0000   1.0000   1.0000   1.0000   1.0000
     1.0000   1.0000   1.0000   1.0000   1.0000

          k = 0.0000 0.5170 0.0000 ( 14484 PWs)   bands (ev):

   -78.0137 -49.5568 -49.3101 -49.1668 -22.1311 -22.0675 -20.8288 -20.1328
   -15.7384 -15.4653 -12.5905 -11.9454 -11.2560 -10.5728 -10.4663  -9.6747
    -9.1699  -8.3744  -7.9457  -7.7475  -6.5804

     occupation numbers 
     1.0000   1.0000   1.0000   1.0000   1.0000   1.0000   1.0000   1.0000
     1.0000   1.0000   1.0000   1.0000   1.0000   1.0000   1.0000   1.0000
     1.0000   1.0000   1.0000   1.0000   1.0000

          k = 0.0000-0.5170 0.0000 ( 14484 PWs)   bands (ev):

   -78.0137 -49.5568 -49.3101 -49.1668 -22.1311 -22.0675 -20.8288 -20.1328
   -15.7384 -15.4653 -12.5905 -11.9454 -11.2560 -10.5728 -10.4663  -9.6747
    -9.1699  -8.3744  -7.9457  -7.7475  -6.5804

     occupation numbers 
     1.0000   1.0000   1.0000   1.0000   1.0000   1.0000   1.0000   1.0000
     1.0000   1.0000   1.0000   1.0000   1.0000   1.0000   1.0000   1.0000
     1.0000   1.0000   1.0000   1.0000   1.0000

          k = 0.0000-0.4136 0.0000 ( 14485 PWs)   bands (ev):

   -78.0193 -49.5138 -49.3006 -49.1749 -22.7810 -22.6987 -20.9681 -20.1225
   -14.9060 -14.5948 -12.7496 -11.5487 -11.1165 -10.3919 -10.2886  -9.5127
    -9.0012  -8.6391  -7.9961  -7.9273  -6.6217

     occupation numbers 
     1.0000   1.0000   1.0000   1.0000   1.0000   1.0000   1.0000   1.0000
     1.0000   1.0000   1.0000   1.0000   1.0000   1.0000   1.0000   1.0000
     1.0000   1.0000   1.0000   1.0000   1.0000

          k = 0.0000-0.3102 0.0000 ( 14539 PWs)   bands (ev):

   -78.0289 -49.4411 -49.2846 -49.1884 -23.5587 -23.4641 -21.3308 -20.2596
   -13.9325 -13.1655 -12.6415 -11.2845 -10.7547 -10.0656  -9.9667  -9.1138
    -8.8856  -8.7027  -8.3700  -7.8379  -6.4817

     occupation numbers 
     1.0000   1.0000   1.0000   1.0000   1.0000   1.0000   1.0000   1.0000
     1.0000   1.0000   1.0000   1.0000   1.0000   1.0000   1.0000   1.0000
     1.0000   1.0000   1.0000   1.0000   1.0000

          k = 0.0000-0.2068 0.0000 ( 14553 PWs)   bands (ev):

   -78.0392 -49.3612 -49.2671 -49.2031 -24.2066 -24.1034 -21.7432 -20.4592
   -13.9801 -11.6423 -11.3926 -11.2752 -10.0959  -9.6773  -9.5764  -9.2459
    -8.7716  -8.5023  -8.2957  -7.6381  -6.0658

     occupation numbers 
     1.0000   1.0000   1.0000   1.0000   1.0000   1.0000   1.0000   1.0000
     1.0000   1.0000   1.0000   1.0000   1.0000   1.0000   1.0000   1.0000
     1.0000   1.0000   1.0000   1.0000   1.0000

          k = 0.0000-0.1034 0.0000 ( 14525 PWs)   bands (ev):

   -78.0471 -49.2996 -49.2537 -49.2143 -24.6231 -24.5142 -22.0482 -20.6169
   -14.2579 -11.5566 -10.1363  -9.9794  -9.4957  -9.4535  -9.3832  -9.2456
    -8.9875  -8.1043  -7.9680  -7.5409  -5.6766

     occupation numbers 
     1.0000   1.0000   1.0000   1.0000   1.0000   1.0000   1.0000   1.0000
     1.0000   1.0000   1.0000   1.0000   1.0000   1.0000   1.0000   1.0000
     1.0000   1.0000   1.0000   1.0000   1.0000

          k = 0.0909 0.0517 0.0000 ( 14561 PWs)   bands (ev):

   -78.0469 -49.2889 -49.2660 -49.2141 -24.6196 -24.5107 -22.0445 -20.6138
   -14.2537 -11.5536 -10.0238  -9.8472  -9.5339  -9.4485  -9.4049  -9.3590
    -9.0916  -8.1020  -7.9940  -7.5202  -5.6745

     occupation numbers 
     1.0000   1.0000   1.0000   1.0000   1.0000   1.0000   1.0000   1.0000
     1.0000   1.0000   1.0000   1.0000   1.0000   1.0000   1.0000   1.0000
     1.0000   1.0000   1.0000   1.0000   1.0000

          k = 0.0909 0.1551 0.0000 ( 14541 PWs)   bands (ev):

   -78.0415 -49.3356 -49.2708 -49.2064 -24.3398 -24.2348 -21.8363 -20.5053
   -14.0546 -11.4961 -10.9385 -10.8423 -10.0170  -9.7006  -9.5428  -9.2921
    -8.9273  -8.3836  -8.2410  -7.5206  -5.9356

     occupation numbers 
     1.0000   1.0000   1.0000   1.0000   1.0000   1.0000   1.0000   1.0000
     1.0000   1.0000   1.0000   1.0000   1.0000   1.0000   1.0000   1.0000
     1.0000   1.0000   1.0000   1.0000   1.0000

          k = 0.0909 0.2585 0.0000 ( 14530 PWs)   bands (ev):

   -78.0324 -49.4055 -49.2870 -49.1934 -23.8059 -23.7080 -21.4756 -20.3237
   -13.8252 -12.4307 -12.1458 -11.2685 -10.6432 -10.1997 -10.0048  -9.1020
    -8.9918  -8.6183  -8.3602  -7.7109  -6.3532

     occupation numbers 
     1.0000   1.0000   1.0000   1.0000   1.0000   1.0000   1.0000   1.0000
     1.0000   1.0000   1.0000   1.0000   1.0000   1.0000   1.0000   1.0000
     1.0000   1.0000   1.0000   1.0000   1.0000

          k = 0.0909 0.3619 0.0000 ( 14507 PWs)   bands (ev):

   -78.0224 -49.4792 -49.3064 -49.1793 -23.0847 -22.9968 -21.0814 -20.1482
   -14.3155 -13.8935 -12.7364 -11.3721 -11.0530 -10.6664 -10.4883  -9.6134
    -8.8372  -8.5423  -8.3047  -7.8877  -6.6117

     occupation numbers 
     1.0000   1.0000   1.0000   1.0000   1.0000   1.0000   1.0000   1.0000
     1.0000   1.0000   1.0000   1.0000   1.0000   1.0000   1.0000   1.0000
     1.0000   1.0000   1.0000   1.0000   1.0000

          k = 0.0909 0.4653 0.0000 ( 14482 PWs)   bands (ev):

   -78.0148 -49.5345 -49.3216 -49.1685 -22.3359 -22.2634 -20.8318 -20.0883
   -15.3179 -15.0362 -12.6016 -11.7897 -11.2407 -10.9492 -10.8062  -9.8253
    -9.0100  -8.4425  -8.1495  -7.8378  -6.5861

     occupation numbers 
     1.0000   1.0000   1.0000   1.0000   1.0000   1.0000   1.0000   1.0000
     1.0000   1.0000   1.0000   1.0000   1.0000   1.0000   1.0000   1.0000
     1.0000   1.0000   1.0000   1.0000   1.0000

          k = 0.0909 0.5687 0.0000 ( 14530 PWs)   bands (ev):

   -78.0120 -49.5550 -49.3273 -49.1645 -21.9540 -21.8966 -20.7966 -20.1238
   -15.7509 -15.4778 -12.4866 -12.0094 -11.3459 -11.0886 -10.8938  -9.7866
    -9.2004  -8.3060  -8.0830  -7.8034  -6.5186

     occupation numbers 
     1.0000   1.0000   1.0000   1.0000   1.0000   1.0000   1.0000   1.0000
     1.0000   1.0000   1.0000   1.0000   1.0000   1.0000   1.0000   1.0000
     1.0000   1.0000   1.0000   1.0000   1.0000

          k = 0.0909-0.4653 0.0000 ( 14482 PWs)   bands (ev):

   -78.0148 -49.5345 -49.3216 -49.1685 -22.3359 -22.2633 -20.8318 -20.0882
   -15.3179 -15.0362 -12.6016 -11.7897 -11.2408 -10.9496 -10.8061  -9.8245
    -9.0107  -8.4426  -8.1500  -7.8377  -6.5856

     occupation numbers 
     1.0000   1.0000   1.0000   1.0000   1.0000   1.0000   1.0000   1.0000
     1.0000   1.0000   1.0000   1.0000   1.0000   1.0000   1.0000   1.0000
     1.0000   1.0000   1.0000   1.0000   1.0000

          k = 0.0909-0.3619 0.0000 ( 14507 PWs)   bands (ev):

   -78.0224 -49.4792 -49.3064 -49.1793 -23.0847 -22.9967 -21.0815 -20.1481
   -14.3155 -13.8934 -12.7364 -11.3722 -11.0530 -10.6666 -10.4883  -9.6132
    -8.8372  -8.5422  -8.3051  -7.8880  -6.6111

     occupation numbers 
     1.0000   1.0000   1.0000   1.0000   1.0000   1.0000   1.0000   1.0000
     1.0000   1.0000   1.0000   1.0000   1.0000   1.0000   1.0000   1.0000
     1.0000   1.0000   1.0000   1.0000   1.0000

          k = 0.0909-0.2585 0.0000 ( 14530 PWs)   bands (ev):

   -78.0324 -49.4055 -49.2870 -49.1934 -23.8059 -23.7080 -21.4756 -20.3237
   -13.8253 -12.4305 -12.1459 -11.2683 -10.6434 -10.1998 -10.0048  -9.1023
    -8.9922  -8.6182  -8.3592  -7.7118  -6.3527

     occupation numbers 
     1.0000   1.0000   1.0000   1.0000   1.0000   1.0000   1.0000   1.0000
     1.0000   1.0000   1.0000   1.0000   1.0000   1.0000   1.0000   1.0000
     1.0000   1.0000   1.0000   1.0000   1.0000

          k = 0.0909-0.1551 0.0000 ( 14541 PWs)   bands (ev):

   -78.0415 -49.3356 -49.2708 -49.2064 -24.3398 -24.2347 -21.8364 -20.5052
   -14.0546 -11.4959 -10.9377 -10.8430 -10.0174  -9.7009  -9.5427  -9.2922
    -8.9270  -8.3848  -8.2396  -7.5212  -5.9352

     occupation numbers 
     1.0000   1.0000   1.0000   1.0000   1.0000   1.0000   1.0000   1.0000
     1.0000   1.0000   1.0000   1.0000   1.0000   1.0000   1.0000   1.0000
     1.0000   1.0000   1.0000   1.0000   1.0000

          k = 0.0909-0.0517 0.0000 ( 14561 PWs)   bands (ev):

   -78.0469 -49.2889 -49.2660 -49.2141 -24.6196 -24.5107 -22.0445 -20.6138
   -14.2537 -11.5536 -10.0233  -9.8475  -9.5346  -9.4488  -9.4045  -9.3588
    -9.0914  -8.1003  -7.9959  -7.5201  -5.6744

     occupation numbers 
     1.0000   1.0000   1.0000   1.0000   1.0000   1.0000   1.0000   1.0000
     1.0000   1.0000   1.0000   1.0000   1.0000   1.0000   1.0000   1.0000
     1.0000   1.0000   1.0000   1.0000   1.0000

          k = 0.1818 0.1034 0.0000 ( 14557 PWs)   bands (ev):

   -78.0384 -49.3456 -49.2885 -49.2022 -24.1927 -24.0896 -21.7291 -20.4470
   -13.9617 -11.5661 -11.2599 -11.1894 -10.0300  -9.8580  -9.7576  -9.2279
    -8.8657  -8.5007  -8.3547  -7.6060  -6.0607

     occupation numbers 
     1.0000   1.0000   1.0000   1.0000   1.0000   1.0000   1.0000   1.0000
     1.0000   1.0000   1.0000   1.0000   1.0000   1.0000   1.0000   1.0000
     1.0000   1.0000   1.0000   1.0000   1.0000

          k = 0.1818 0.2068 0.0000 ( 14545 PWs)   bands (ev):

   -78.0318 -49.3976 -49.2992 -49.1927 -23.7955 -23.6977 -21.4650 -20.3140
   -13.8039 -12.3413 -12.0630 -11.2512 -10.6795 -10.3224 -10.0618  -9.0995
    -9.0016  -8.6689  -8.3807  -7.7007  -6.3487

     occupation numbers 
     1.0000   1.0000   1.0000   1.0000   1.0000   1.0000   1.0000   1.0000
     1.0000   1.0000   1.0000   1.0000   1.0000   1.0000   1.0000   1.0000
     1.0000   1.0000   1.0000   1.0000   1.0000

          k = 0.1818 0.3102 0.0000 ( 14487 PWs)   bands (ev):

   -78.0230 -49.4550 -49.3236 -49.1804 -23.1831 -23.0934 -21.1170 -20.1498
   -13.9784 -13.3768 -12.5673 -11.5128 -11.3053 -10.9804 -10.4875  -9.7767
    -8.8348  -8.6285  -8.1985  -7.9262  -6.6038

     occupation numbers 
     1.0000   1.0000   1.0000   1.0000   1.0000   1.0000   1.0000   1.0000
     1.0000   1.0000   1.0000   1.0000   1.0000   1.0000   1.0000   1.0000
     1.0000   1.0000   1.0000   1.0000   1.0000

          k = 0.1818 0.4136 0.0000 ( 14478 PWs)   bands (ev):

   -78.0150 -49.5031 -49.3502 -49.1690 -22.4602 -22.3825 -20.8259 -20.0426
   -14.7271 -14.3975 -12.5522 -12.1259 -11.9229 -11.0245 -10.8833 -10.1718
    -8.8447  -8.7198  -8.2811  -7.8714  -6.5995

     occupation numbers 
     1.0000   1.0000   1.0000   1.0000   1.0000   1.0000   1.0000   1.0000
     1.0000   1.0000   1.0000   1.0000   1.0000   1.0000   1.0000   1.0000
     1.0000   1.0000   1.0000   1.0000   1.0000

          k = 0.1818 0.5170 0.0000 ( 14479 PWs)   bands (ev):

   -78.0103 -49.5305 -49.3672 -49.1622 -21.8707 -21.8120 -20.7279 -20.0543
   -15.3531 -15.0722 -12.6541 -12.4033 -11.9085 -11.4112 -11.1856  -9.9706
    -9.1836  -8.8696  -8.2228  -7.6913  -6.4375

     occupation numbers 
     1.0000   1.0000   1.0000   1.0000   1.0000   1.0000   1.0000   1.0000
     1.0000   1.0000   1.0000   1.0000   1.0000   1.0000   1.0000   1.0000
     1.0000   1.0000   1.0000   1.0000   1.0000

          k = 0.1818 0.6204 0.0000 ( 14479 PWs)   bands (ev):

   -78.0103 -49.5304 -49.3672 -49.1622 -21.8707 -21.8120 -20.7280 -20.0543
   -15.3530 -15.0722 -12.6541 -12.4033 -11.9084 -11.4114 -11.1859  -9.9698
    -9.1840  -8.8698  -8.2230  -7.6912  -6.4373

     occupation numbers 
     1.0000   1.0000   1.0000   1.0000   1.0000   1.0000   1.0000   1.0000
     1.0000   1.0000   1.0000   1.0000   1.0000   1.0000   1.0000   1.0000
     1.0000   1.0000   1.0000   1.0000   1.0000

          k = 0.1818-0.4136 0.0000 ( 14478 PWs)   bands (ev):

   -78.0150 -49.5031 -49.3502 -49.1690 -22.4602 -22.3825 -20.8260 -20.0425
   -14.7270 -14.3975 -12.5523 -12.1259 -11.9229 -11.0251 -10.8837 -10.1709
    -8.8445  -8.7201  -8.2821  -7.8713  -6.5988

     occupation numbers 
     1.0000   1.0000   1.0000   1.0000   1.0000   1.0000   1.0000   1.0000
     1.0000   1.0000   1.0000   1.0000   1.0000   1.0000   1.0000   1.0000
     1.0000   1.0000   1.0000   1.0000   1.0000

          k = 0.1818-0.3102 0.0000 ( 14487 PWs)   bands (ev):

   -78.0230 -49.4550 -49.3236 -49.1804 -23.1831 -23.0933 -21.1171 -20.1497
   -13.9785 -13.3766 -12.5673 -11.5131 -11.3052 -10.9802 -10.4880  -9.7770
    -8.8347  -8.6284  -8.1982  -7.9272  -6.6030

     occupation numbers 
     1.0000   1.0000   1.0000   1.0000   1.0000   1.0000   1.0000   1.0000
     1.0000   1.0000   1.0000   1.0000   1.0000   1.0000   1.0000   1.0000
     1.0000   1.0000   1.0000   1.0000   1.0000

          k = 0.1818-0.2068 0.0000 ( 14545 PWs)   bands (ev):

   -78.0318 -49.3976 -49.2992 -49.1928 -23.7956 -23.6976 -21.4651 -20.3139
   -13.8040 -12.3408 -12.0632 -11.2509 -10.6798 -10.3226 -10.0620  -9.0997
    -9.0021  -8.6688  -8.3802  -7.7014  -6.3478

     occupation numbers 
     1.0000   1.0000   1.0000   1.0000   1.0000   1.0000   1.0000   1.0000
     1.0000   1.0000   1.0000   1.0000   1.0000   1.0000   1.0000   1.0000
     1.0000   1.0000   1.0000   1.0000   1.0000

          k = 0.1818-0.1034 0.0000 ( 14557 PWs)   bands (ev):

   -78.0384 -49.3456 -49.2885 -49.2022 -24.1927 -24.0896 -21.7292 -20.4470
   -13.9618 -11.5658 -11.2595 -11.1897 -10.0304  -9.8592  -9.7567  -9.2279
    -8.8656  -8.4996  -8.3561  -7.6063  -6.0602

     occupation numbers 
     1.0000   1.0000   1.0000   1.0000   1.0000   1.0000   1.0000   1.0000
     1.0000   1.0000   1.0000   1.0000   1.0000   1.0000   1.0000   1.0000
     1.0000   1.0000   1.0000   1.0000   1.0000

          k = 0.1818-0.0000 0.0000 ( 14573 PWs)   bands (ev):

   -78.0409 -49.3187 -49.2919 -49.2057 -24.3294 -24.2245 -21.8260 -20.4967
   -14.0427 -11.4847 -10.8388 -10.7443 -10.0168  -9.8057  -9.6092  -9.2856
    -9.0015  -8.3927  -8.2732  -7.4964  -5.9349

     occupation numbers 
     1.0000   1.0000   1.0000   1.0000   1.0000   1.0000   1.0000   1.0000
     1.0000   1.0000   1.0000   1.0000   1.0000   1.0000   1.0000   1.0000
     1.0000   1.0000   1.0000   1.0000   1.0000

          k = 0.2727 0.1551 0.0000 ( 14551 PWs)   bands (ev):

   -78.0273 -49.4280 -49.3090 -49.1866 -23.5286 -23.4342 -21.3014 -20.2328
   -13.8580 -13.0355 -12.5599 -11.2568 -10.7007 -10.2732 -10.1754  -9.0962
    -8.8789  -8.7843  -8.4648  -7.8030  -6.4770

     occupation numbers 
     1.0000   1.0000   1.0000   1.0000   1.0000   1.0000   1.0000   1.0000
     1.0000   1.0000   1.0000   1.0000   1.0000   1.0000   1.0000   1.0000
     1.0000   1.0000   1.0000   1.0000   1.0000

          k = 0.2727 0.2585 0.0000 ( 14499 PWs)   bands (ev):

   -78.0210 -49.4690 -49.3263 -49.1778 -23.0581 -22.9701 -21.0548 -20.1223
   -14.2150 -13.7768 -12.7032 -11.3725 -11.0844 -10.8247 -10.5959  -9.6370
    -8.8329  -8.5882  -8.3790  -7.8651  -6.6004

     occupation numbers 
     1.0000   1.0000   1.0000   1.0000   1.0000   1.0000   1.0000   1.0000
     1.0000   1.0000   1.0000   1.0000   1.0000   1.0000   1.0000   1.0000
     1.0000   1.0000   1.0000   1.0000   1.0000

          k = 0.2727 0.3619 0.0000 ( 14446 PWs)   bands (ev):

   -78.0143 -49.4972 -49.3617 -49.1681 -22.4437 -22.3659 -20.8093 -20.0258
   -14.6573 -14.3226 -12.5514 -12.2002 -12.0325 -11.0257 -10.8689 -10.1844
    -8.8889  -8.7233  -8.2974  -7.8610  -6.5891

     occupation numbers 
     1.0000   1.0000   1.0000   1.0000   1.0000   1.0000   1.0000   1.0000
     1.0000   1.0000   1.0000   1.0000   1.0000   1.0000   1.0000   1.0000
     1.0000   1.0000   1.0000   1.0000   1.0000

          k = 0.2727 0.4653 0.0000 ( 14474 PWs)   bands (ev):

   -78.0091 -49.5057 -49.4017 -49.1608 -21.8419 -21.7809 -20.6799 -20.0017
   -14.9241 -14.6070 -13.2372 -13.0817 -12.0429 -11.2835 -10.9796 -10.1414
    -9.5618  -8.9339  -8.2423  -7.6628  -6.3948

     occupation numbers 
     1.0000   1.0000   1.0000   1.0000   1.0000   1.0000   1.0000   1.0000
     1.0000   1.0000   1.0000   1.0000   1.0000   1.0000   1.0000   1.0000
     1.0000   1.0000   1.0000   1.0000   1.0000

          k = 0.2727 0.5687 0.0000 ( 14432 PWs)   bands (ev):

   -78.0071 -49.5037 -49.4218 -49.1580 -21.5561 -21.5077 -20.6748 -20.0222
   -14.9913 -14.6748 -13.6287 -13.5108 -11.7313 -11.4711 -11.0875 -10.0963
    -9.6997  -9.2601  -8.1686  -7.5568  -6.2535

     occupation numbers 
     1.0000   1.0000   1.0000   1.0000   1.0000   1.0000   1.0000   1.0000
     1.0000   1.0000   1.0000   1.0000   1.0000   1.0000   1.0000   1.0000
     1.0000   1.0000   1.0000   1.0000   1.0000

          k = 0.2727 0.6721 0.0000 ( 14474 PWs)   bands (ev):

   -78.0091 -49.5057 -49.4016 -49.1608 -21.8419 -21.7808 -20.6801 -20.0016
   -14.9239 -14.6069 -13.2374 -13.0816 -12.0430 -11.2839 -10.9801 -10.1406
    -9.5614  -8.9345  -8.2428  -7.6628  -6.3944

     occupation numbers 
     1.0000   1.0000   1.0000   1.0000   1.0000   1.0000   1.0000   1.0000
     1.0000   1.0000   1.0000   1.0000   1.0000   1.0000   1.0000   1.0000
     1.0000   1.0000   1.0000   1.0000   1.0000

          k = 0.2727-0.3619 0.0000 ( 14446 PWs)   bands (ev):

   -78.0143 -49.4972 -49.3617 -49.1681 -22.4437 -22.3658 -20.8095 -20.0257
   -14.6571 -14.3225 -12.5515 -12.2004 -12.0325 -11.0261 -10.8691 -10.1840
    -8.8886  -8.7236  -8.2985  -7.8609  -6.5883

     occupation numbers 
     1.0000   1.0000   1.0000   1.0000   1.0000   1.0000   1.0000   1.0000
     1.0000   1.0000   1.0000   1.0000   1.0000   1.0000   1.0000   1.0000
     1.0000   1.0000   1.0000   1.0000   1.0000

          k = 0.2727-0.2585 0.0000 ( 14499 PWs)   bands (ev):

   -78.0210 -49.4690 -49.3263 -49.1778 -23.0581 -22.9701 -21.0550 -20.1221
   -14.2150 -13.7766 -12.7033 -11.3726 -11.0844 -10.8246 -10.5961  -9.6373
    -8.8331  -8.5886  -8.3793  -7.8652  -6.5994

     occupation numbers 
     1.0000   1.0000   1.0000   1.0000   1.0000   1.0000   1.0000   1.0000
     1.0000   1.0000   1.0000   1.0000   1.0000   1.0000   1.0000   1.0000
     1.0000   1.0000   1.0000   1.0000   1.0000

          k = 0.2727-0.1551 0.0000 ( 14551 PWs)   bands (ev):

   -78.0273 -49.4280 -49.3090 -49.1866 -23.5286 -23.4341 -21.3015 -20.2327
   -13.8582 -13.0353 -12.5600 -11.2564 -10.7009 -10.2742 -10.1746  -9.0959
    -8.8792  -8.7854  -8.4649  -7.8030  -6.4761

     occupation numbers 
     1.0000   1.0000   1.0000   1.0000   1.0000   1.0000   1.0000   1.0000
     1.0000   1.0000   1.0000   1.0000   1.0000   1.0000   1.0000   1.0000
     1.0000   1.0000   1.0000   1.0000   1.0000

          k = 0.2727-0.0517 0.0000 ( 14554 PWs)   bands (ev):

   -78.0310 -49.3923 -49.3100 -49.1919 -23.7794 -23.6816 -21.4504 -20.3023
   -13.7876 -12.3244 -12.0514 -11.2520 -10.6700 -10.3405 -10.0902  -9.0930
    -9.0061  -8.6889  -8.4126  -7.6726  -6.3577

     occupation numbers 
     1.0000   1.0000   1.0000   1.0000   1.0000   1.0000   1.0000   1.0000
     1.0000   1.0000   1.0000   1.0000   1.0000   1.0000   1.0000   1.0000
     1.0000   1.0000   1.0000   1.0000   1.0000

          k = 0.2727 0.0517 0.0000 ( 14554 PWs)   bands (ev):

   -78.0310 -49.3922 -49.3100 -49.1919 -23.7794 -23.6816 -21.4503 -20.3023
   -13.7875 -12.3246 -12.0513 -11.2522 -10.6698 -10.3404 -10.0901  -9.0931
    -9.0060  -8.6890  -8.4120  -7.6727  -6.3580

     occupation numbers 
     1.0000   1.0000   1.0000   1.0000   1.0000   1.0000   1.0000   1.0000
     1.0000   1.0000   1.0000   1.0000   1.0000   1.0000   1.0000   1.0000
     1.0000   1.0000   1.0000   1.0000   1.0000

          k = 0.3636 0.2068 0.0000 ( 14479 PWs)   bands (ev):

   -78.0170 -49.5037 -49.3270 -49.1723 -22.7315 -22.6491 -20.9215 -20.0778
   -14.7911 -14.4835 -12.7311 -11.5018 -11.0871 -10.6179 -10.5168  -9.5007
    -9.1054  -8.6075  -8.0880  -7.8901  -6.6143

     occupation numbers 
     1.0000   1.0000   1.0000   1.0000   1.0000   1.0000   1.0000   1.0000
     1.0000   1.0000   1.0000   1.0000   1.0000   1.0000   1.0000   1.0000
     1.0000   1.0000   1.0000   1.0000   1.0000

          k = 0.3636 0.3102 0.0000 ( 14484 PWs)   bands (ev):

   -78.0127 -49.5251 -49.3457 -49.1662 -22.2893 -22.2164 -20.7869 -20.0434
   -15.2087 -14.9320 -12.5939 -11.7850 -11.3115 -11.0805 -10.9605  -9.8333
    -9.0695  -8.4284  -8.2229  -7.8230  -6.5641

     occupation numbers 
     1.0000   1.0000   1.0000   1.0000   1.0000   1.0000   1.0000   1.0000
     1.0000   1.0000   1.0000   1.0000   1.0000   1.0000   1.0000   1.0000
     1.0000   1.0000   1.0000   1.0000   1.0000

          k = 0.3636 0.4136 0.0000 ( 14456 PWs)   bands (ev):

   -78.0088 -49.5222 -49.3859 -49.1605 -21.8324 -21.7732 -20.6941 -20.0207
   -15.2626 -14.9852 -12.7563 -12.5319 -11.9500 -11.3965 -11.1996  -9.9763
    -9.2206  -8.9196  -8.1997  -7.6849  -6.4233

     occupation numbers 
     1.0000   1.0000   1.0000   1.0000   1.0000   1.0000   1.0000   1.0000
     1.0000   1.0000   1.0000   1.0000   1.0000   1.0000   1.0000   1.0000
     1.0000   1.0000   1.0000   1.0000   1.0000

          k = 0.3636 0.5170 0.0000 ( 14455 PWs)   bands (ev):

   -78.0064 -49.4969 -49.4335 -49.1572 -21.5321 -21.4837 -20.6604 -20.0083
   -14.9292 -14.6067 -13.7177 -13.6090 -11.7286 -11.4726 -11.0750 -10.1254
    -9.7153  -9.2510  -8.1541  -7.5551  -6.2577

     occupation numbers 
     1.0000   1.0000   1.0000   1.0000   1.0000   1.0000   1.0000   1.0000
     1.0000   1.0000   1.0000   1.0000   1.0000   1.0000   1.0000   1.0000
     1.0000   1.0000   1.0000   1.0000   1.0000

          k = 0.3636 0.6204 0.0000 ( 14455 PWs)   bands (ev):

   -78.0064 -49.4969 -49.4335 -49.1572 -21.5321 -21.4836 -20.6606 -20.0082
   -14.9290 -14.6066 -13.7180 -13.6088 -11.7288 -11.4726 -11.0753 -10.1252
    -9.7149  -9.2513  -8.1544  -7.5551  -6.2575

     occupation numbers 
     1.0000   1.0000   1.0000   1.0000   1.0000   1.0000   1.0000   1.0000
     1.0000   1.0000   1.0000   1.0000   1.0000   1.0000   1.0000   1.0000
     1.0000   1.0000   1.0000   1.0000   1.0000

          k = 0.3636 0.7238 0.0000 ( 14456 PWs)   bands (ev):

   -78.0088 -49.5222 -49.3858 -49.1605 -21.8324 -21.7731 -20.6944 -20.0206
   -15.2624 -14.9850 -12.7566 -12.5319 -11.9504 -11.3966 -11.1998  -9.9759
    -9.2206  -8.9199  -8.2003  -7.6849  -6.4228

     occupation numbers 
     1.0000   1.0000   1.0000   1.0000   1.0000   1.0000   1.0000   1.0000
     1.0000   1.0000   1.0000   1.0000   1.0000   1.0000   1.0000   1.0000
     1.0000   1.0000   1.0000   1.0000   1.0000

          k = 0.3636-0.3102 0.0000 ( 14484 PWs)   bands (ev):

   -78.0127 -49.5252 -49.3457 -49.1662 -22.2894 -22.2163 -20.7872 -20.0433
   -15.2085 -14.9319 -12.5943 -11.7851 -11.3116 -11.0811 -10.9599  -9.8331
    -9.0702  -8.4286  -8.2235  -7.8231  -6.5632

     occupation numbers 
     1.0000   1.0000   1.0000   1.0000   1.0000   1.0000   1.0000   1.0000
     1.0000   1.0000   1.0000   1.0000   1.0000   1.0000   1.0000   1.0000
     1.0000   1.0000   1.0000   1.0000   1.0000

          k = 0.3636-0.2068 0.0000 ( 14479 PWs)   bands (ev):

   -78.0170 -49.5037 -49.3270 -49.1723 -22.7315 -22.6490 -20.9217 -20.0777
   -14.7910 -14.4834 -12.7314 -11.5019 -11.0866 -10.6189 -10.5161  -9.5007
    -9.1063  -8.6077  -8.0882  -7.8900  -6.6133

     occupation numbers 
     1.0000   1.0000   1.0000   1.0000   1.0000   1.0000   1.0000   1.0000
     1.0000   1.0000   1.0000   1.0000   1.0000   1.0000   1.0000   1.0000
     1.0000   1.0000   1.0000   1.0000   1.0000

          k = 0.3636-0.1034 0.0000 ( 14506 PWs)   bands (ev):

   -78.0203 -49.4695 -49.3308 -49.1769 -23.0387 -22.9508 -21.0404 -20.1114
   -14.2214 -13.7940 -12.7070 -11.3793 -11.0834 -10.8123 -10.5990  -9.6531
    -8.8251  -8.5811  -8.3585  -7.8553  -6.6242

     occupation numbers 
     1.0000   1.0000   1.0000   1.0000   1.0000   1.0000   1.0000   1.0000
     1.0000   1.0000   1.0000   1.0000   1.0000   1.0000   1.0000   1.0000
     1.0000   1.0000   1.0000   1.0000   1.0000

          k = 0.3636 0.0000 0.0000 ( 14493 PWs)   bands (ev):

   -78.0216 -49.4499 -49.3391 -49.1787 -23.1475 -23.0579 -21.0873 -20.1255
   -13.9416 -13.3424 -12.5518 -11.5624 -11.3590 -10.9828 -10.5116  -9.8032
    -8.8140  -8.6418  -8.2324  -7.8832  -6.6293

     occupation numbers 
     1.0000   1.0000   1.0000   1.0000   1.0000   1.0000   1.0000   1.0000
     1.0000   1.0000   1.0000   1.0000   1.0000   1.0000   1.0000   1.0000
     1.0000   1.0000   1.0000   1.0000   1.0000

          k = 0.3636 0.1034 0.0000 ( 14506 PWs)   bands (ev):

   -78.0203 -49.4695 -49.3308 -49.1769 -23.0387 -22.9509 -21.0403 -20.1115
   -14.2214 -13.7942 -12.7069 -11.3792 -11.0834 -10.8125 -10.5990  -9.6527
    -8.8249  -8.5807  -8.3586  -7.8555  -6.6247

     occupation numbers 
     1.0000   1.0000   1.0000   1.0000   1.0000   1.0000   1.0000   1.0000
     1.0000   1.0000   1.0000   1.0000   1.0000   1.0000   1.0000   1.0000
     1.0000   1.0000   1.0000   1.0000   1.0000

          k = 0.4545 0.2585 0.0000 ( 14447 PWs)   bands (ev):

   -78.0109 -49.5485 -49.3376 -49.1637 -22.0653 -22.0011 -20.7699 -20.0747
   -15.6389 -15.3739 -12.5720 -11.9067 -11.2442 -10.8084 -10.7047  -9.6484
    -9.2830  -8.3254  -7.9068  -7.8418  -6.5658

     occupation numbers 
     1.0000   1.0000   1.0000   1.0000   1.0000   1.0000   1.0000   1.0000
     1.0000   1.0000   1.0000   1.0000   1.0000   1.0000   1.0000   1.0000
     1.0000   1.0000   1.0000   1.0000   1.0000

          k = 0.4545 0.3619 0.0000 ( 14473 PWs)   bands (ev):

   -78.0095 -49.5470 -49.3530 -49.1616 -21.8899 -21.8320 -20.7418 -20.0698
   -15.6572 -15.3917 -12.4830 -11.9990 -11.3928 -11.2736 -11.0469  -9.7954
    -9.2498  -8.2962  -8.1218  -7.7935  -6.5063

     occupation numbers 
     1.0000   1.0000   1.0000   1.0000   1.0000   1.0000   1.0000   1.0000
     1.0000   1.0000   1.0000   1.0000   1.0000   1.0000   1.0000   1.0000
     1.0000   1.0000   1.0000   1.0000   1.0000

          k = 0.4545 0.4653 0.0000 ( 14430 PWs)   bands (ev):

   -78.0083 -49.5233 -49.3877 -49.1601 -21.8137 -21.7550 -20.6878 -20.0165
   -15.2757 -15.0003 -12.7526 -12.5322 -11.9530 -11.4039 -11.2042 -10.0017
    -9.1919  -8.9019  -8.1851  -7.6898  -6.4480

     occupation numbers 
     1.0000   1.0000   1.0000   1.0000   1.0000   1.0000   1.0000   1.0000
     1.0000   1.0000   1.0000   1.0000   1.0000   1.0000   1.0000   1.0000
     1.0000   1.0000   1.0000   1.0000   1.0000

          k = 0.4545 0.5687 0.0000 ( 14406 PWs)   bands (ev):

   -78.0079 -49.5026 -49.4126 -49.1595 -21.8006 -21.7400 -20.6586 -19.9837
   -14.9005 -14.5867 -13.2956 -13.1433 -12.0382 -11.2881 -11.0085 -10.1614
    -9.5519  -8.9098  -8.2164  -7.6667  -6.4247

     occupation numbers 
     1.0000   1.0000   1.0000   1.0000   1.0000   1.0000   1.0000   1.0000
     1.0000   1.0000   1.0000   1.0000   1.0000   1.0000   1.0000   1.0000
     1.0000   1.0000   1.0000   1.0000   1.0000

          k = 0.4545 0.6721 0.0000 ( 14430 PWs)   bands (ev):

   -78.0083 -49.5233 -49.3877 -49.1601 -21.8137 -21.7549 -20.6880 -20.0164
   -15.2755 -15.0002 -12.7528 -12.5321 -11.9535 -11.4039 -11.2041 -10.0020
    -9.1916  -8.9020  -8.1855  -7.6898  -6.4478

     occupation numbers 
     1.0000   1.0000   1.0000   1.0000   1.0000   1.0000   1.0000   1.0000
     1.0000   1.0000   1.0000   1.0000   1.0000   1.0000   1.0000   1.0000
     1.0000   1.0000   1.0000   1.0000   1.0000

          k = 0.4545 0.7755 0.0000 ( 14473 PWs)   bands (ev):

   -78.0095 -49.5470 -49.3529 -49.1616 -21.8899 -21.8318 -20.7421 -20.0697
   -15.6570 -15.3916 -12.4836 -11.9990 -11.3926 -11.2742 -11.0465  -9.7955
    -9.2500  -8.2964  -8.1224  -7.7936  -6.5057

     occupation numbers 
     1.0000   1.0000   1.0000   1.0000   1.0000   1.0000   1.0000   1.0000
     1.0000   1.0000   1.0000   1.0000   1.0000   1.0000   1.0000   1.0000
     1.0000   1.0000   1.0000   1.0000   1.0000

          k = 0.4545-0.2585 0.0000 ( 14447 PWs)   bands (ev):

   -78.0109 -49.5485 -49.3375 -49.1637 -22.0653 -22.0009 -20.7702 -20.0746
   -15.6387 -15.3737 -12.5725 -11.9067 -11.2438 -10.8093 -10.7041  -9.6482
    -9.2838  -8.3256  -7.9070  -7.8422  -6.5649

     occupation numbers 
     1.0000   1.0000   1.0000   1.0000   1.0000   1.0000   1.0000   1.0000
     1.0000   1.0000   1.0000   1.0000   1.0000   1.0000   1.0000   1.0000
     1.0000   1.0000   1.0000   1.0000   1.0000

          k = 0.4545-0.1551 0.0000 ( 14436 PWs)   bands (ev):

   -78.0123 -49.5267 -49.3471 -49.1657 -22.2730 -22.2003 -20.7794 -20.0385
   -15.2241 -14.9496 -12.5920 -11.7964 -11.3156 -11.0652 -10.9555  -9.8640
    -9.0340  -8.4194  -8.1975  -7.8252  -6.5951

     occupation numbers 
     1.0000   1.0000   1.0000   1.0000   1.0000   1.0000   1.0000   1.0000
     1.0000   1.0000   1.0000   1.0000   1.0000   1.0000   1.0000   1.0000
     1.0000   1.0000   1.0000   1.0000   1.0000

          k = 0.4545-0.0517 0.0000 ( 14468 PWs)   bands (ev):

   -78.0131 -49.4977 -49.3690 -49.1668 -22.4071 -22.3296 -20.7865 -20.0085
   -14.6674 -14.3416 -12.5520 -12.2200 -12.0377 -11.0219 -10.8934 -10.2148
    -8.8512  -8.7091  -8.2599  -7.8708  -6.6302

     occupation numbers 
     1.0000   1.0000   1.0000   1.0000   1.0000   1.0000   1.0000   1.0000
     1.0000   1.0000   1.0000   1.0000   1.0000   1.0000   1.0000   1.0000
     1.0000   1.0000   1.0000   1.0000   1.0000

          k = 0.4545 0.0517 0.0000 ( 14468 PWs)   bands (ev):

   -78.0131 -49.4977 -49.3690 -49.1668 -22.4071 -22.3297 -20.7864 -20.0086
   -14.6674 -14.3417 -12.5520 -12.2199 -12.0376 -11.0220 -10.8937 -10.2143
    -8.8513  -8.7091  -8.2597  -7.8709  -6.6303

     occupation numbers 
     1.0000   1.0000   1.0000   1.0000   1.0000   1.0000   1.0000   1.0000
     1.0000   1.0000   1.0000   1.0000   1.0000   1.0000   1.0000   1.0000
     1.0000   1.0000   1.0000   1.0000   1.0000

          k = 0.4545 0.1551 0.0000 ( 14436 PWs)   bands (ev):

   -78.0123 -49.5267 -49.3471 -49.1657 -22.2730 -22.2004 -20.7791 -20.0386
   -15.2243 -14.9497 -12.5916 -11.7963 -11.3154 -11.0651 -10.9559  -9.8633
    -9.0339  -8.4192  -8.1974  -7.8252  -6.5956

     occupation numbers 
     1.0000   1.0000   1.0000   1.0000   1.0000   1.0000   1.0000   1.0000
     1.0000   1.0000   1.0000   1.0000   1.0000   1.0000   1.0000   1.0000
     1.0000   1.0000   1.0000   1.0000   1.0000

          k =-0.4545-0.2585 0.0000 ( 14447 PWs)   bands (ev):

   -78.0109 -49.5485 -49.3376 -49.1637 -22.0653 -22.0011 -20.7699 -20.0747
   -15.6389 -15.3739 -12.5720 -11.9067 -11.2442 -10.8084 -10.7047  -9.6484
    -9.2830  -8.3254  -7.9068  -7.8418  -6.5658

     occupation numbers 
     1.0000   1.0000   1.0000   1.0000   1.0000   1.0000   1.0000   1.0000
     1.0000   1.0000   1.0000   1.0000   1.0000   1.0000   1.0000   1.0000
     1.0000   1.0000   1.0000   1.0000   1.0000

          k =-0.4545-0.1551 0.0000 ( 14436 PWs)   bands (ev):

   -78.0123 -49.5267 -49.3471 -49.1657 -22.2730 -22.2004 -20.7791 -20.0386
   -15.2243 -14.9497 -12.5916 -11.7963 -11.3154 -11.0651 -10.9559  -9.8633
    -9.0339  -8.4192  -8.1974  -7.8252  -6.5956

     occupation numbers 
     1.0000   1.0000   1.0000   1.0000   1.0000   1.0000   1.0000   1.0000
     1.0000   1.0000   1.0000   1.0000   1.0000   1.0000   1.0000   1.0000
     1.0000   1.0000   1.0000   1.0000   1.0000

          k =-0.4545-0.0517 0.0000 ( 14468 PWs)   bands (ev):

   -78.0131 -49.4977 -49.3690 -49.1668 -22.4071 -22.3297 -20.7864 -20.0086
   -14.6674 -14.3417 -12.5520 -12.2199 -12.0376 -11.0220 -10.8937 -10.2143
    -8.8513  -8.7091  -8.2597  -7.8709  -6.6303

     occupation numbers 
     1.0000   1.0000   1.0000   1.0000   1.0000   1.0000   1.0000   1.0000
     1.0000   1.0000   1.0000   1.0000   1.0000   1.0000   1.0000   1.0000
     1.0000   1.0000   1.0000   1.0000   1.0000

          k =-0.4545 0.0517 0.0000 ( 14468 PWs)   bands (ev):

   -78.0131 -49.4977 -49.3690 -49.1668 -22.4071 -22.3296 -20.7865 -20.0085
   -14.6674 -14.3416 -12.5520 -12.2200 -12.0377 -11.0219 -10.8934 -10.2148
    -8.8512  -8.7091  -8.2599  -7.8708  -6.6302

     occupation numbers 
     1.0000   1.0000   1.0000   1.0000   1.0000   1.0000   1.0000   1.0000
     1.0000   1.0000   1.0000   1.0000   1.0000   1.0000   1.0000   1.0000
     1.0000   1.0000   1.0000   1.0000   1.0000

          k =-0.4545 0.1551 0.0000 ( 14436 PWs)   bands (ev):

   -78.0123 -49.5267 -49.3471 -49.1657 -22.2730 -22.2003 -20.7794 -20.0385
   -15.2241 -14.9496 -12.5920 -11.7964 -11.3156 -11.0652 -10.9555  -9.8640
    -9.0340  -8.4194  -8.1975  -7.8252  -6.5951

     occupation numbers 
     1.0000   1.0000   1.0000   1.0000   1.0000   1.0000   1.0000   1.0000
     1.0000   1.0000   1.0000   1.0000   1.0000   1.0000   1.0000   1.0000
     1.0000   1.0000   1.0000   1.0000   1.0000

          k =-0.4545 0.2585 0.0000 ( 14447 PWs)   bands (ev):

   -78.0109 -49.5485 -49.3375 -49.1637 -22.0653 -22.0009 -20.7702 -20.0746
   -15.6387 -15.3737 -12.5725 -11.9067 -11.2438 -10.8093 -10.7041  -9.6482
    -9.2838  -8.3256  -7.9070  -7.8422  -6.5649

     occupation numbers 
     1.0000   1.0000   1.0000   1.0000   1.0000   1.0000   1.0000   1.0000
     1.0000   1.0000   1.0000   1.0000   1.0000   1.0000   1.0000   1.0000
     1.0000   1.0000   1.0000   1.0000   1.0000

          k =-0.4545-0.7755 0.0000 ( 14473 PWs)   bands (ev):

   -78.0095 -49.5470 -49.3529 -49.1616 -21.8899 -21.8318 -20.7421 -20.0697
   -15.6570 -15.3916 -12.4836 -11.9990 -11.3926 -11.2742 -11.0465  -9.7955
    -9.2500  -8.2964  -8.1224  -7.7936  -6.5057

     occupation numbers 
     1.0000   1.0000   1.0000   1.0000   1.0000   1.0000   1.0000   1.0000
     1.0000   1.0000   1.0000   1.0000   1.0000   1.0000   1.0000   1.0000
     1.0000   1.0000   1.0000   1.0000   1.0000

          k =-0.4545-0.6721 0.0000 ( 14430 PWs)   bands (ev):

   -78.0083 -49.5233 -49.3877 -49.1601 -21.8137 -21.7549 -20.6880 -20.0164
   -15.2755 -15.0002 -12.7528 -12.5321 -11.9535 -11.4039 -11.2041 -10.0020
    -9.1916  -8.9020  -8.1855  -7.6898  -6.4478

     occupation numbers 
     1.0000   1.0000   1.0000   1.0000   1.0000   1.0000   1.0000   1.0000
     1.0000   1.0000   1.0000   1.0000   1.0000   1.0000   1.0000   1.0000
     1.0000   1.0000   1.0000   1.0000   1.0000

          k =-0.4545-0.5687 0.0000 ( 14406 PWs)   bands (ev):

   -78.0079 -49.5026 -49.4126 -49.1595 -21.8006 -21.7400 -20.6586 -19.9837
   -14.9005 -14.5867 -13.2956 -13.1433 -12.0382 -11.2881 -11.0085 -10.1614
    -9.5519  -8.9098  -8.2164  -7.6667  -6.4247

     occupation numbers 
     1.0000   1.0000   1.0000   1.0000   1.0000   1.0000   1.0000   1.0000
     1.0000   1.0000   1.0000   1.0000   1.0000   1.0000   1.0000   1.0000
     1.0000   1.0000   1.0000   1.0000   1.0000

          k =-0.4545-0.4653 0.0000 ( 14430 PWs)   bands (ev):

   -78.0083 -49.5233 -49.3877 -49.1601 -21.8137 -21.7550 -20.6878 -20.0165
   -15.2757 -15.0003 -12.7526 -12.5322 -11.9530 -11.4039 -11.2042 -10.0017
    -9.1919  -8.9019  -8.1851  -7.6898  -6.4480

     occupation numbers 
     1.0000   1.0000   1.0000   1.0000   1.0000   1.0000   1.0000   1.0000
     1.0000   1.0000   1.0000   1.0000   1.0000   1.0000   1.0000   1.0000
     1.0000   1.0000   1.0000   1.0000   1.0000

          k =-0.4545-0.3619 0.0000 ( 14473 PWs)   bands (ev):

   -78.0095 -49.5470 -49.3530 -49.1616 -21.8899 -21.8320 -20.7418 -20.0698
   -15.6572 -15.3917 -12.4830 -11.9990 -11.3928 -11.2736 -11.0469  -9.7954
    -9.2498  -8.2962  -8.1218  -7.7935  -6.5063

     occupation numbers 
     1.0000   1.0000   1.0000   1.0000   1.0000   1.0000   1.0000   1.0000
     1.0000   1.0000   1.0000   1.0000   1.0000   1.0000   1.0000   1.0000
     1.0000   1.0000   1.0000   1.0000   1.0000

          k =-0.3636-0.2068 0.0000 ( 14479 PWs)   bands (ev):

   -78.0170 -49.5037 -49.3270 -49.1723 -22.7315 -22.6491 -20.9215 -20.0778
   -14.7911 -14.4835 -12.7311 -11.5018 -11.0871 -10.6179 -10.5168  -9.5007
    -9.1054  -8.6075  -8.0880  -7.8901  -6.6143

     occupation numbers 
     1.0000   1.0000   1.0000   1.0000   1.0000   1.0000   1.0000   1.0000
     1.0000   1.0000   1.0000   1.0000   1.0000   1.0000   1.0000   1.0000
     1.0000   1.0000   1.0000   1.0000   1.0000

          k =-0.3636-0.1034 0.0000 ( 14506 PWs)   bands (ev):

   -78.0203 -49.4695 -49.3308 -49.1769 -23.0387 -22.9509 -21.0403 -20.1115
   -14.2214 -13.7942 -12.7069 -11.3792 -11.0834 -10.8125 -10.5990  -9.6527
    -8.8249  -8.5807  -8.3586  -7.8555  -6.6247

     occupation numbers 
     1.0000   1.0000   1.0000   1.0000   1.0000   1.0000   1.0000   1.0000
     1.0000   1.0000   1.0000   1.0000   1.0000   1.0000   1.0000   1.0000
     1.0000   1.0000   1.0000   1.0000   1.0000

          k =-0.3636 0.0000 0.0000 ( 14493 PWs)   bands (ev):

   -78.0216 -49.4499 -49.3391 -49.1787 -23.1475 -23.0579 -21.0873 -20.1255
   -13.9416 -13.3424 -12.5518 -11.5624 -11.3590 -10.9828 -10.5116  -9.8032
    -8.8140  -8.6418  -8.2324  -7.8832  -6.6293

     occupation numbers 
     1.0000   1.0000   1.0000   1.0000   1.0000   1.0000   1.0000   1.0000
     1.0000   1.0000   1.0000   1.0000   1.0000   1.0000   1.0000   1.0000
     1.0000   1.0000   1.0000   1.0000   1.0000

          k =-0.3636 0.1034 0.0000 ( 14506 PWs)   bands (ev):

   -78.0203 -49.4695 -49.3308 -49.1769 -23.0387 -22.9508 -21.0404 -20.1114
   -14.2214 -13.7940 -12.7070 -11.3793 -11.0834 -10.8123 -10.5990  -9.6531
    -8.8251  -8.5811  -8.3585  -7.8553  -6.6242

     occupation numbers 
     1.0000   1.0000   1.0000   1.0000   1.0000   1.0000   1.0000   1.0000
     1.0000   1.0000   1.0000   1.0000   1.0000   1.0000   1.0000   1.0000
     1.0000   1.0000   1.0000   1.0000   1.0000

          k =-0.3636 0.2068 0.0000 ( 14479 PWs)   bands (ev):

   -78.0170 -49.5037 -49.3270 -49.1723 -22.7315 -22.6490 -20.9217 -20.0777
   -14.7910 -14.4834 -12.7314 -11.5019 -11.0866 -10.6189 -10.5161  -9.5007
    -9.1063  -8.6077  -8.0882  -7.8900  -6.6133

     occupation numbers 
     1.0000   1.0000   1.0000   1.0000   1.0000   1.0000   1.0000   1.0000
     1.0000   1.0000   1.0000   1.0000   1.0000   1.0000   1.0000   1.0000
     1.0000   1.0000   1.0000   1.0000   1.0000

          k =-0.3636 0.3102 0.0000 ( 14484 PWs)   bands (ev):

   -78.0127 -49.5252 -49.3457 -49.1662 -22.2894 -22.2163 -20.7872 -20.0433
   -15.2085 -14.9319 -12.5943 -11.7851 -11.3116 -11.0811 -10.9599  -9.8331
    -9.0702  -8.4286  -8.2235  -7.8231  -6.5632

     occupation numbers 
     1.0000   1.0000   1.0000   1.0000   1.0000   1.0000   1.0000   1.0000
     1.0000   1.0000   1.0000   1.0000   1.0000   1.0000   1.0000   1.0000
     1.0000   1.0000   1.0000   1.0000   1.0000

          k =-0.3636-0.7238 0.0000 ( 14456 PWs)   bands (ev):

   -78.0088 -49.5222 -49.3858 -49.1605 -21.8324 -21.7731 -20.6944 -20.0206
   -15.2624 -14.9850 -12.7566 -12.5319 -11.9504 -11.3966 -11.1998  -9.9759
    -9.2206  -8.9199  -8.2003  -7.6849  -6.4228

     occupation numbers 
     1.0000   1.0000   1.0000   1.0000   1.0000   1.0000   1.0000   1.0000
     1.0000   1.0000   1.0000   1.0000   1.0000   1.0000   1.0000   1.0000
     1.0000   1.0000   1.0000   1.0000   1.0000

          k =-0.3636-0.6204 0.0000 ( 14455 PWs)   bands (ev):

   -78.0064 -49.4969 -49.4335 -49.1572 -21.5321 -21.4836 -20.6606 -20.0082
   -14.9290 -14.6066 -13.7180 -13.6088 -11.7288 -11.4726 -11.0753 -10.1252
    -9.7149  -9.2513  -8.1544  -7.5551  -6.2575

     occupation numbers 
     1.0000   1.0000   1.0000   1.0000   1.0000   1.0000   1.0000   1.0000
     1.0000   1.0000   1.0000   1.0000   1.0000   1.0000   1.0000   1.0000
     1.0000   1.0000   1.0000   1.0000   1.0000

          k =-0.3636-0.5170 0.0000 ( 14455 PWs)   bands (ev):

   -78.0064 -49.4969 -49.4335 -49.1572 -21.5321 -21.4837 -20.6604 -20.0083
   -14.9292 -14.6067 -13.7177 -13.6090 -11.7286 -11.4726 -11.0750 -10.1254
    -9.7153  -9.2510  -8.1541  -7.5551  -6.2577

     occupation numbers 
     1.0000   1.0000   1.0000   1.0000   1.0000   1.0000   1.0000   1.0000
     1.0000   1.0000   1.0000   1.0000   1.0000   1.0000   1.0000   1.0000
     1.0000   1.0000   1.0000   1.0000   1.0000

          k =-0.3636-0.4136 0.0000 ( 14456 PWs)   bands (ev):

   -78.0088 -49.5222 -49.3859 -49.1605 -21.8324 -21.7732 -20.6941 -20.0207
   -15.2626 -14.9852 -12.7563 -12.5319 -11.9500 -11.3965 -11.1996  -9.9763
    -9.2206  -8.9196  -8.1997  -7.6849  -6.4233

     occupation numbers 
     1.0000   1.0000   1.0000   1.0000   1.0000   1.0000   1.0000   1.0000
     1.0000   1.0000   1.0000   1.0000   1.0000   1.0000   1.0000   1.0000
     1.0000   1.0000   1.0000   1.0000   1.0000

          k =-0.3636-0.3102 0.0000 ( 14484 PWs)   bands (ev):

   -78.0127 -49.5251 -49.3457 -49.1662 -22.2893 -22.2164 -20.7869 -20.0434
   -15.2087 -14.9320 -12.5939 -11.7850 -11.3115 -11.0805 -10.9605  -9.8333
    -9.0695  -8.4284  -8.2229  -7.8230  -6.5641

     occupation numbers 
     1.0000   1.0000   1.0000   1.0000   1.0000   1.0000   1.0000   1.0000
     1.0000   1.0000   1.0000   1.0000   1.0000   1.0000   1.0000   1.0000
     1.0000   1.0000   1.0000   1.0000   1.0000

          k =-0.2727-0.1551 0.0000 ( 14551 PWs)   bands (ev):

   -78.0273 -49.4280 -49.3090 -49.1866 -23.5286 -23.4342 -21.3014 -20.2328
   -13.8580 -13.0355 -12.5599 -11.2568 -10.7007 -10.2732 -10.1754  -9.0962
    -8.8789  -8.7843  -8.4648  -7.8030  -6.4770

     occupation numbers 
     1.0000   1.0000   1.0000   1.0000   1.0000   1.0000   1.0000   1.0000
     1.0000   1.0000   1.0000   1.0000   1.0000   1.0000   1.0000   1.0000
     1.0000   1.0000   1.0000   1.0000   1.0000

          k =-0.2727-0.0517 0.0000 ( 14554 PWs)   bands (ev):

   -78.0310 -49.3922 -49.3100 -49.1919 -23.7794 -23.6816 -21.4503 -20.3023
   -13.7875 -12.3246 -12.0513 -11.2522 -10.6698 -10.3404 -10.0901  -9.0931
    -9.0060  -8.6890  -8.4120  -7.6727  -6.3580

     occupation numbers 
     1.0000   1.0000   1.0000   1.0000   1.0000   1.0000   1.0000   1.0000
     1.0000   1.0000   1.0000   1.0000   1.0000   1.0000   1.0000   1.0000
     1.0000   1.0000   1.0000   1.0000   1.0000

          k =-0.2727 0.0517 0.0000 ( 14554 PWs)   bands (ev):

   -78.0310 -49.3923 -49.3100 -49.1919 -23.7794 -23.6816 -21.4504 -20.3023
   -13.7876 -12.3244 -12.0514 -11.2520 -10.6700 -10.3405 -10.0902  -9.0930
    -9.0061  -8.6889  -8.4126  -7.6726  -6.3577

     occupation numbers 
     1.0000   1.0000   1.0000   1.0000   1.0000   1.0000   1.0000   1.0000
     1.0000   1.0000   1.0000   1.0000   1.0000   1.0000   1.0000   1.0000
     1.0000   1.0000   1.0000   1.0000   1.0000

          k =-0.2727 0.1551 0.0000 ( 14551 PWs)   bands (ev):

   -78.0273 -49.4280 -49.3090 -49.1866 -23.5286 -23.4341 -21.3015 -20.2327
   -13.8582 -13.0353 -12.5600 -11.2564 -10.7009 -10.2742 -10.1746  -9.0959
    -8.8792  -8.7854  -8.4649  -7.8030  -6.4761

     occupation numbers 
     1.0000   1.0000   1.0000   1.0000   1.0000   1.0000   1.0000   1.0000
     1.0000   1.0000   1.0000   1.0000   1.0000   1.0000   1.0000   1.0000
     1.0000   1.0000   1.0000   1.0000   1.0000

          k =-0.2727 0.2585 0.0000 ( 14499 PWs)   bands (ev):

   -78.0210 -49.4690 -49.3263 -49.1778 -23.0581 -22.9701 -21.0550 -20.1221
   -14.2150 -13.7766 -12.7033 -11.3726 -11.0844 -10.8246 -10.5961  -9.6373
    -8.8331  -8.5886  -8.3793  -7.8652  -6.5994

     occupation numbers 
     1.0000   1.0000   1.0000   1.0000   1.0000   1.0000   1.0000   1.0000
     1.0000   1.0000   1.0000   1.0000   1.0000   1.0000   1.0000   1.0000
     1.0000   1.0000   1.0000   1.0000   1.0000

          k =-0.2727 0.3619 0.0000 ( 14446 PWs)   bands (ev):

   -78.0143 -49.4972 -49.3617 -49.1681 -22.4437 -22.3658 -20.8095 -20.0257
   -14.6571 -14.3225 -12.5515 -12.2004 -12.0325 -11.0261 -10.8691 -10.1840
    -8.8886  -8.7236  -8.2985  -7.8609  -6.5883

     occupation numbers 
     1.0000   1.0000   1.0000   1.0000   1.0000   1.0000   1.0000   1.0000
     1.0000   1.0000   1.0000   1.0000   1.0000   1.0000   1.0000   1.0000
     1.0000   1.0000   1.0000   1.0000   1.0000

          k =-0.2727-0.6721 0.0000 ( 14474 PWs)   bands (ev):

   -78.0091 -49.5057 -49.4016 -49.1608 -21.8419 -21.7808 -20.6801 -20.0016
   -14.9239 -14.6069 -13.2374 -13.0816 -12.0430 -11.2839 -10.9801 -10.1406
    -9.5614  -8.9345  -8.2428  -7.6628  -6.3944

     occupation numbers 
     1.0000   1.0000   1.0000   1.0000   1.0000   1.0000   1.0000   1.0000
     1.0000   1.0000   1.0000   1.0000   1.0000   1.0000   1.0000   1.0000
     1.0000   1.0000   1.0000   1.0000   1.0000

          k =-0.2727-0.5687 0.0000 ( 14432 PWs)   bands (ev):

   -78.0071 -49.5037 -49.4218 -49.1580 -21.5561 -21.5077 -20.6748 -20.0222
   -14.9913 -14.6748 -13.6287 -13.5108 -11.7313 -11.4711 -11.0875 -10.0963
    -9.6997  -9.2601  -8.1686  -7.5568  -6.2535

     occupation numbers 
     1.0000   1.0000   1.0000   1.0000   1.0000   1.0000   1.0000   1.0000
     1.0000   1.0000   1.0000   1.0000   1.0000   1.0000   1.0000   1.0000
     1.0000   1.0000   1.0000   1.0000   1.0000

          k =-0.2727-0.4653 0.0000 ( 14474 PWs)   bands (ev):

   -78.0091 -49.5057 -49.4017 -49.1608 -21.8419 -21.7809 -20.6799 -20.0017
   -14.9241 -14.6070 -13.2372 -13.0817 -12.0429 -11.2835 -10.9796 -10.1414
    -9.5618  -8.9339  -8.2423  -7.6628  -6.3948

     occupation numbers 
     1.0000   1.0000   1.0000   1.0000   1.0000   1.0000   1.0000   1.0000
     1.0000   1.0000   1.0000   1.0000   1.0000   1.0000   1.0000   1.0000
     1.0000   1.0000   1.0000   1.0000   1.0000

          k =-0.2727-0.3619 0.0000 ( 14446 PWs)   bands (ev):

   -78.0143 -49.4972 -49.3617 -49.1681 -22.4437 -22.3659 -20.8093 -20.0258
   -14.6573 -14.3226 -12.5514 -12.2002 -12.0325 -11.0257 -10.8689 -10.1844
    -8.8889  -8.7233  -8.2974  -7.8610  -6.5891

     occupation numbers 
     1.0000   1.0000   1.0000   1.0000   1.0000   1.0000   1.0000   1.0000
     1.0000   1.0000   1.0000   1.0000   1.0000   1.0000   1.0000   1.0000
     1.0000   1.0000   1.0000   1.0000   1.0000

          k =-0.2727-0.2585 0.0000 ( 14499 PWs)   bands (ev):

   -78.0210 -49.4690 -49.3263 -49.1778 -23.0581 -22.9701 -21.0548 -20.1223
   -14.2150 -13.7768 -12.7032 -11.3725 -11.0844 -10.8247 -10.5959  -9.6370
    -8.8329  -8.5882  -8.3790  -7.8651  -6.6004

     occupation numbers 
     1.0000   1.0000   1.0000   1.0000   1.0000   1.0000   1.0000   1.0000
     1.0000   1.0000   1.0000   1.0000   1.0000   1.0000   1.0000   1.0000
     1.0000   1.0000   1.0000   1.0000   1.0000

          k =-0.1818-0.1034 0.0000 ( 14557 PWs)   bands (ev):

   -78.0384 -49.3456 -49.2885 -49.2022 -24.1927 -24.0896 -21.7291 -20.4470
   -13.9617 -11.5661 -11.2599 -11.1894 -10.0300  -9.8580  -9.7576  -9.2279
    -8.8657  -8.5007  -8.3547  -7.6060  -6.0607

     occupation numbers 
     1.0000   1.0000   1.0000   1.0000   1.0000   1.0000   1.0000   1.0000
     1.0000   1.0000   1.0000   1.0000   1.0000   1.0000   1.0000   1.0000
     1.0000   1.0000   1.0000   1.0000   1.0000

          k =-0.1818 0.0000 0.0000 ( 14573 PWs)   bands (ev):

   -78.0409 -49.3187 -49.2919 -49.2057 -24.3294 -24.2245 -21.8260 -20.4967
   -14.0427 -11.4847 -10.8388 -10.7443 -10.0168  -9.8057  -9.6092  -9.2856
    -9.0015  -8.3927  -8.2732  -7.4964  -5.9349

     occupation numbers 
     1.0000   1.0000   1.0000   1.0000   1.0000   1.0000   1.0000   1.0000
     1.0000   1.0000   1.0000   1.0000   1.0000   1.0000   1.0000   1.0000
     1.0000   1.0000   1.0000   1.0000   1.0000

          k =-0.1818 0.1034 0.0000 ( 14557 PWs)   bands (ev):

   -78.0384 -49.3456 -49.2885 -49.2022 -24.1927 -24.0896 -21.7292 -20.4470
   -13.9618 -11.5658 -11.2595 -11.1897 -10.0304  -9.8592  -9.7567  -9.2279
    -8.8656  -8.4996  -8.3561  -7.6063  -6.0602

     occupation numbers 
     1.0000   1.0000   1.0000   1.0000   1.0000   1.0000   1.0000   1.0000
     1.0000   1.0000   1.0000   1.0000   1.0000   1.0000   1.0000   1.0000
     1.0000   1.0000   1.0000   1.0000   1.0000

          k =-0.1818 0.2068 0.0000 ( 14545 PWs)   bands (ev):

   -78.0318 -49.3976 -49.2992 -49.1928 -23.7956 -23.6976 -21.4651 -20.3139
   -13.8040 -12.3408 -12.0632 -11.2509 -10.6798 -10.3226 -10.0620  -9.0997
    -9.0021  -8.6688  -8.3802  -7.7014  -6.3478

     occupation numbers 
     1.0000   1.0000   1.0000   1.0000   1.0000   1.0000   1.0000   1.0000
     1.0000   1.0000   1.0000   1.0000   1.0000   1.0000   1.0000   1.0000
     1.0000   1.0000   1.0000   1.0000   1.0000

          k =-0.1818 0.3102 0.0000 ( 14487 PWs)   bands (ev):

   -78.0230 -49.4550 -49.3236 -49.1804 -23.1831 -23.0933 -21.1171 -20.1497
   -13.9785 -13.3766 -12.5673 -11.5131 -11.3052 -10.9802 -10.4880  -9.7770
    -8.8347  -8.6284  -8.1982  -7.9272  -6.6030

     occupation numbers 
     1.0000   1.0000   1.0000   1.0000   1.0000   1.0000   1.0000   1.0000
     1.0000   1.0000   1.0000   1.0000   1.0000   1.0000   1.0000   1.0000
     1.0000   1.0000   1.0000   1.0000   1.0000

          k =-0.1818 0.4136 0.0000 ( 14478 PWs)   bands (ev):

   -78.0150 -49.5031 -49.3502 -49.1690 -22.4602 -22.3825 -20.8260 -20.0425
   -14.7270 -14.3975 -12.5523 -12.1259 -11.9229 -11.0251 -10.8837 -10.1709
    -8.8445  -8.7201  -8.2821  -7.8713  -6.5988

     occupation numbers 
     1.0000   1.0000   1.0000   1.0000   1.0000   1.0000   1.0000   1.0000
     1.0000   1.0000   1.0000   1.0000   1.0000   1.0000   1.0000   1.0000
     1.0000   1.0000   1.0000   1.0000   1.0000

          k =-0.1818-0.6204 0.0000 ( 14479 PWs)   bands (ev):

   -78.0103 -49.5304 -49.3672 -49.1622 -21.8707 -21.8120 -20.7280 -20.0543
   -15.3530 -15.0722 -12.6541 -12.4033 -11.9084 -11.4114 -11.1859  -9.9698
    -9.1840  -8.8698  -8.2230  -7.6912  -6.4373

     occupation numbers 
     1.0000   1.0000   1.0000   1.0000   1.0000   1.0000   1.0000   1.0000
     1.0000   1.0000   1.0000   1.0000   1.0000   1.0000   1.0000   1.0000
     1.0000   1.0000   1.0000   1.0000   1.0000

          k =-0.1818-0.5170 0.0000 ( 14479 PWs)   bands (ev):

   -78.0103 -49.5305 -49.3672 -49.1622 -21.8707 -21.8120 -20.7279 -20.0543
   -15.3531 -15.0722 -12.6541 -12.4033 -11.9085 -11.4112 -11.1856  -9.9706
    -9.1836  -8.8696  -8.2228  -7.6913  -6.4375

     occupation numbers 
     1.0000   1.0000   1.0000   1.0000   1.0000   1.0000   1.0000   1.0000
     1.0000   1.0000   1.0000   1.0000   1.0000   1.0000   1.0000   1.0000
     1.0000   1.0000   1.0000   1.0000   1.0000

          k =-0.1818-0.4136 0.0000 ( 14478 PWs)   bands (ev):

   -78.0150 -49.5031 -49.3502 -49.1690 -22.4602 -22.3825 -20.8259 -20.0426
   -14.7271 -14.3975 -12.5522 -12.1259 -11.9229 -11.0245 -10.8833 -10.1718
    -8.8447  -8.7198  -8.2811  -7.8714  -6.5995

     occupation numbers 
     1.0000   1.0000   1.0000   1.0000   1.0000   1.0000   1.0000   1.0000
     1.0000   1.0000   1.0000   1.0000   1.0000   1.0000   1.0000   1.0000
     1.0000   1.0000   1.0000   1.0000   1.0000

          k =-0.1818-0.3102 0.0000 ( 14487 PWs)   bands (ev):

   -78.0230 -49.4550 -49.3236 -49.1804 -23.1831 -23.0934 -21.1170 -20.1498
   -13.9784 -13.3768 -12.5673 -11.5128 -11.3053 -10.9804 -10.4875  -9.7767
    -8.8348  -8.6285  -8.1985  -7.9262  -6.6038

     occupation numbers 
     1.0000   1.0000   1.0000   1.0000   1.0000   1.0000   1.0000   1.0000
     1.0000   1.0000   1.0000   1.0000   1.0000   1.0000   1.0000   1.0000
     1.0000   1.0000   1.0000   1.0000   1.0000

          k =-0.1818-0.2068 0.0000 ( 14545 PWs)   bands (ev):

   -78.0318 -49.3976 -49.2992 -49.1927 -23.7955 -23.6977 -21.4650 -20.3140
   -13.8039 -12.3413 -12.0630 -11.2512 -10.6795 -10.3224 -10.0618  -9.0995
    -9.0016  -8.6689  -8.3807  -7.7007  -6.3487

     occupation numbers 
     1.0000   1.0000   1.0000   1.0000   1.0000   1.0000   1.0000   1.0000
     1.0000   1.0000   1.0000   1.0000   1.0000   1.0000   1.0000   1.0000
     1.0000   1.0000   1.0000   1.0000   1.0000

          k =-0.0909-0.0517 0.0000 ( 14561 PWs)   bands (ev):

   -78.0469 -49.2889 -49.2660 -49.2141 -24.6196 -24.5107 -22.0445 -20.6138
   -14.2537 -11.5536 -10.0238  -9.8472  -9.5339  -9.4485  -9.4049  -9.3590
    -9.0916  -8.1020  -7.9940  -7.5202  -5.6745

     occupation numbers 
     1.0000   1.0000   1.0000   1.0000   1.0000   1.0000   1.0000   1.0000
     1.0000   1.0000   1.0000   1.0000   1.0000   1.0000   1.0000   1.0000
     1.0000   1.0000   1.0000   1.0000   1.0000

          k =-0.0909 0.0517 0.0000 ( 14561 PWs)   bands (ev):

   -78.0469 -49.2889 -49.2660 -49.2141 -24.6196 -24.5107 -22.0445 -20.6138
   -14.2537 -11.5536 -10.0233  -9.8475  -9.5346  -9.4488  -9.4045  -9.3588
    -9.0914  -8.1003  -7.9959  -7.5201  -5.6744

     occupation numbers 
     1.0000   1.0000   1.0000   1.0000   1.0000   1.0000   1.0000   1.0000
     1.0000   1.0000   1.0000   1.0000   1.0000   1.0000   1.0000   1.0000
     1.0000   1.0000   1.0000   1.0000   1.0000

          k =-0.0909 0.1551 0.0000 ( 14541 PWs)   bands (ev):

   -78.0415 -49.3356 -49.2708 -49.2064 -24.3398 -24.2347 -21.8364 -20.5052
   -14.0546 -11.4959 -10.9377 -10.8430 -10.0174  -9.7009  -9.5427  -9.2922
    -8.9270  -8.3848  -8.2396  -7.5212  -5.9352

     occupation numbers 
     1.0000   1.0000   1.0000   1.0000   1.0000   1.0000   1.0000   1.0000
     1.0000   1.0000   1.0000   1.0000   1.0000   1.0000   1.0000   1.0000
     1.0000   1.0000   1.0000   1.0000   1.0000

          k =-0.0909 0.2585 0.0000 ( 14530 PWs)   bands (ev):

   -78.0324 -49.4055 -49.2870 -49.1934 -23.8059 -23.7080 -21.4756 -20.3237
   -13.8253 -12.4305 -12.1459 -11.2683 -10.6434 -10.1998 -10.0048  -9.1023
    -8.9922  -8.6182  -8.3592  -7.7118  -6.3527

     occupation numbers 
     1.0000   1.0000   1.0000   1.0000   1.0000   1.0000   1.0000   1.0000
     1.0000   1.0000   1.0000   1.0000   1.0000   1.0000   1.0000   1.0000
     1.0000   1.0000   1.0000   1.0000   1.0000

          k =-0.0909 0.3619 0.0000 ( 14507 PWs)   bands (ev):

   -78.0224 -49.4792 -49.3064 -49.1793 -23.0847 -22.9967 -21.0815 -20.1481
   -14.3155 -13.8934 -12.7364 -11.3722 -11.0530 -10.6666 -10.4883  -9.6132
    -8.8372  -8.5422  -8.3051  -7.8880  -6.6111

     occupation numbers 
     1.0000   1.0000   1.0000   1.0000   1.0000   1.0000   1.0000   1.0000
     1.0000   1.0000   1.0000   1.0000   1.0000   1.0000   1.0000   1.0000
     1.0000   1.0000   1.0000   1.0000   1.0000

          k =-0.0909 0.4653 0.0000 ( 14482 PWs)   bands (ev):

   -78.0148 -49.5345 -49.3216 -49.1685 -22.3359 -22.2633 -20.8318 -20.0882
   -15.3179 -15.0362 -12.6016 -11.7897 -11.2408 -10.9496 -10.8061  -9.8245
    -9.0107  -8.4426  -8.1500  -7.8377  -6.5856

     occupation numbers 
     1.0000   1.0000   1.0000   1.0000   1.0000   1.0000   1.0000   1.0000
     1.0000   1.0000   1.0000   1.0000   1.0000   1.0000   1.0000   1.0000
     1.0000   1.0000   1.0000   1.0000   1.0000

          k =-0.0909-0.5687 0.0000 ( 14530 PWs)   bands (ev):

   -78.0120 -49.5550 -49.3273 -49.1645 -21.9540 -21.8966 -20.7966 -20.1238
   -15.7509 -15.4778 -12.4866 -12.0094 -11.3459 -11.0886 -10.8938  -9.7866
    -9.2004  -8.3060  -8.0830  -7.8034  -6.5186

     occupation numbers 
     1.0000   1.0000   1.0000   1.0000   1.0000   1.0000   1.0000   1.0000
     1.0000   1.0000   1.0000   1.0000   1.0000   1.0000   1.0000   1.0000
     1.0000   1.0000   1.0000   1.0000   1.0000

          k =-0.0909-0.4653 0.0000 ( 14482 PWs)   bands (ev):

   -78.0148 -49.5345 -49.3216 -49.1685 -22.3359 -22.2634 -20.8318 -20.0883
   -15.3179 -15.0362 -12.6016 -11.7897 -11.2407 -10.9492 -10.8062  -9.8253
    -9.0100  -8.4425  -8.1495  -7.8378  -6.5861

     occupation numbers 
     1.0000   1.0000   1.0000   1.0000   1.0000   1.0000   1.0000   1.0000
     1.0000   1.0000   1.0000   1.0000   1.0000   1.0000   1.0000   1.0000
     1.0000   1.0000   1.0000   1.0000   1.0000

          k =-0.0909-0.3619 0.0000 ( 14507 PWs)   bands (ev):

   -78.0224 -49.4792 -49.3064 -49.1793 -23.0847 -22.9968 -21.0814 -20.1482
   -14.3155 -13.8935 -12.7364 -11.3721 -11.0530 -10.6664 -10.4883  -9.6134
    -8.8372  -8.5423  -8.3047  -7.8877  -6.6117

     occupation numbers 
     1.0000   1.0000   1.0000   1.0000   1.0000   1.0000   1.0000   1.0000
     1.0000   1.0000   1.0000   1.0000   1.0000   1.0000   1.0000   1.0000
     1.0000   1.0000   1.0000   1.0000   1.0000

          k =-0.0909-0.2585 0.0000 ( 14530 PWs)   bands (ev):

   -78.0324 -49.4055 -49.2870 -49.1934 -23.8059 -23.7080 -21.4756 -20.3237
   -13.8252 -12.4307 -12.1458 -11.2685 -10.6432 -10.1997 -10.0048  -9.1020
    -8.9918  -8.6183  -8.3602  -7.7109  -6.3532

     occupation numbers 
     1.0000   1.0000   1.0000   1.0000   1.0000   1.0000   1.0000   1.0000
     1.0000   1.0000   1.0000   1.0000   1.0000   1.0000   1.0000   1.0000
     1.0000   1.0000   1.0000   1.0000   1.0000

          k =-0.0909-0.1551 0.0000 ( 14541 PWs)   bands (ev):

   -78.0415 -49.3356 -49.2708 -49.2064 -24.3398 -24.2348 -21.8363 -20.5053
   -14.0546 -11.4961 -10.9385 -10.8423 -10.0170  -9.7006  -9.5428  -9.2921
    -8.9273  -8.3836  -8.2410  -7.5206  -5.9356

     occupation numbers 
     1.0000   1.0000   1.0000   1.0000   1.0000   1.0000   1.0000   1.0000
     1.0000   1.0000   1.0000   1.0000   1.0000   1.0000   1.0000   1.0000
     1.0000   1.0000   1.0000   1.0000   1.0000

     highest occupied level (ev):    -5.5619

!    total energy              =    -263.34528865 Ry
     estimated scf accuracy    <          5.3E-11 Ry

     The total energy is the sum of the following terms:
     one-electron contribution =   -6703.82433725 Ry
     hartree contribution      =    3348.19527419 Ry
     xc contribution           =     -44.79656893 Ry
     ewald contribution        =    3137.08034335 Ry

     convergence has been achieved in  16 iterations

     Forces acting on atoms (cartesian axes, Ry/au):

     atom    1 type  1   force =    -0.00006444   -0.00326492    0.00825568
     atom    2 type  2   force =    -0.00002224    0.00276654   -0.02563159
     atom    3 type  2   force =    -0.00000174    0.00072705    0.01754385
     atom    4 type  2   force =    -0.00006774    0.00304969   -0.01611481
     atom    5 type  2   force =     0.00025179   -0.00341950    0.00850723
     atom    6 type  3   force =    -0.00009439    0.00411843   -0.00987322
     atom    7 type  3   force =    -0.00000123   -0.00397730    0.01731286
     The non-local contrib.  to forces
     atom    1 type  1   force =    -0.00005512   -0.00275957   -0.00419707
     atom    2 type  2   force =    -0.00009626   -0.00769683   -0.10221814
     atom    3 type  2   force =    -0.00031543   -0.00773832    0.12362362
     atom    4 type  2   force =    -0.00045025    0.01506583   -0.93775036
     atom    5 type  2   force =    -0.00008074   -0.01526475    0.87394101
     atom    6 type  3   force =    -0.00041429   -0.01367839   -0.11076909
     atom    7 type  3   force =    -0.00039439    0.01450997    0.09104234
     The ionic contribution  to forces
     atom    1 type  1   force =    -0.00255767   -0.29585148   -0.30883143
     atom    2 type  2   force =     0.00065305    0.16208421  -43.14804672
     atom    3 type  2   force =     0.00144617    0.13015473   43.42331345
     atom    4 type  2   force =     0.00059330   -0.04416674   89.98183571
     atom    5 type  2   force =     0.00078141    0.04275028  -89.75982544
     atom    6 type  3   force =    -0.00034300   -0.03668304  -62.26831059
     atom    7 type  3   force =    -0.00057326    0.04171204   62.07986503
     The local contribution  to forces
     atom    1 type  1   force =     0.00239527    0.29540713    0.32128645
     atom    2 type  2   force =    -0.00073220   -0.15155992   43.22467571
     atom    3 type  2   force =    -0.00128571   -0.12162850  -43.52934049
     atom    4 type  2   force =    -0.00036396    0.03221139  -89.06013962
     atom    5 type  2   force =    -0.00060206   -0.03084414   88.89445050
     atom    6 type  3   force =     0.00050973    0.05454070   62.36926435
     atom    7 type  3   force =     0.00081325   -0.06013848  -62.15353526
     The core correction contribution to forces
     atom    1 type  1   force =     0.00000000    0.00000000    0.00000000
     atom    2 type  2   force =     0.00000000    0.00000000    0.00000000
     atom    3 type  2   force =     0.00000000    0.00000000    0.00000000
     atom    4 type  2   force =     0.00000000    0.00000000    0.00000000
     atom    5 type  2   force =     0.00000000    0.00000000    0.00000000
     atom    6 type  3   force =     0.00000000    0.00000000    0.00000000
     atom    7 type  3   force =     0.00000000    0.00000000    0.00000000
     The Hubbard contrib.    to forces
     atom    1 type  1   force =     0.00000000    0.00000000    0.00000000
     atom    2 type  2   force =     0.00000000    0.00000000    0.00000000
     atom    3 type  2   force =     0.00000000    0.00000000    0.00000000
     atom    4 type  2   force =     0.00000000    0.00000000    0.00000000
     atom    5 type  2   force =     0.00000000    0.00000000    0.00000000
     atom    6 type  3   force =     0.00000000    0.00000000    0.00000000
     atom    7 type  3   force =     0.00000000    0.00000000    0.00000000
     The SCF correction term to forces
     atom    1 type  1   force =    -0.00000010   -0.00000017    0.00005900
     atom    2 type  2   force =     0.00000001   -0.00000008    0.00001883
     atom    3 type  2   force =     0.00000006   -0.00000001    0.00000853
     atom    4 type  2   force =     0.00000000    0.00000006    0.00000073
     atom    5 type  2   force =     0.00000001   -0.00000005    0.00000242
     atom    6 type  3   force =    -0.00000000   -0.00000000    0.00000337
     atom    7 type  3   force =     0.00000000   -0.00000000    0.00000202

     Total force =     0.042836     Total SCF correction =     0.000063
     Energy error            =      8.5E-03 Ry
     Gradient error          =      2.6E-02 Ry/Bohr

     number of scf cycles    =   8
     number of bfgs steps    =   7

     energy             old  =    -263.3367727970 Ry
     energy             new  =    -263.3452886476 Ry

     CASE: energy            _new < energy            _old

     new trust radius        =       0.0318261614 bohr
     new conv_thr            =            2.6E-11 Ry


ATOMIC_POSITIONS (angstrom)
Cr               2.2011246110        0.3520105354       11.0252400522
N                0.8002673617        1.1706336714        9.8827777159
N                0.8001869974        1.1766629943       12.1761101817
N                2.2006634742        0.3423098304       14.5054524986
N               -0.5999657325        2.0024377377        7.5862225794
Si               0.8007619344        1.1716913767        8.1357818458
Si               0.8002189095        1.1730192976       13.9445617893



     Writing config-only to output data dir ./tmp/crsi2n4.save/ :
     XML data file
     NEW-OLD atomic charge density approx. for the potential

     negative rho (up, down):  3.482E-07 0.000E+00

     total cpu time spent up to now is     3868.0 secs

     Self-consistent Calculation
[tb_dev] Currently allocated     0.00E+00 Mbytes, locked:    0 /   0
[tb_pin] Currently allocated     0.00E+00 Mbytes, locked:    0 /   0

     iteration #  1     ecut=    80.00 Ry     beta= 0.40
     Davidson diagonalization with overlap

---- Real-time Memory Report at c_bands before calling an iterative solver
          1420 MiB given to the printing process from OS
             0 MiB allocation reported by mallinfo(arena+hblkhd)
         15875 MiB available memory on the node where the printing process lives
     GPU memory used/free/total (MiB): 1213 / 10700 / 11914
------------------
     ethr =  1.00E-06,  avg # of iterations =  7.0

     negative rho (up, down):  1.839E-07 0.000E+00

     total cpu time spent up to now is     3893.4 secs

     total energy              =    -263.34626282 Ry
     estimated scf accuracy    <       0.00039586 Ry
[tb_dev] Currently allocated     2.67E-05 Mbytes, locked:    0 /   1
[tb_pin] Currently allocated     0.00E+00 Mbytes, locked:    0 /   0

     iteration #  2     ecut=    80.00 Ry     beta= 0.40
     Davidson diagonalization with overlap

---- Real-time Memory Report at c_bands before calling an iterative solver
          1420 MiB given to the printing process from OS
             0 MiB allocation reported by mallinfo(arena+hblkhd)
         15864 MiB available memory on the node where the printing process lives
     GPU memory used/free/total (MiB): 1213 / 10700 / 11914
------------------
     ethr =  9.43E-07,  avg # of iterations =  5.1

     negative rho (up, down):  2.173E-07 0.000E+00

     total cpu time spent up to now is     3909.2 secs

     total energy              =    -263.34629461 Ry
     estimated scf accuracy    <       0.00050792 Ry
[tb_dev] Currently allocated     2.67E-05 Mbytes, locked:    0 /   1
[tb_pin] Currently allocated     0.00E+00 Mbytes, locked:    0 /   0

     iteration #  3     ecut=    80.00 Ry     beta= 0.40
     Davidson diagonalization with overlap

---- Real-time Memory Report at c_bands before calling an iterative solver
          1420 MiB given to the printing process from OS
             0 MiB allocation reported by mallinfo(arena+hblkhd)
         15855 MiB available memory on the node where the printing process lives
     GPU memory used/free/total (MiB): 1213 / 10700 / 11914
------------------
     ethr =  9.43E-07,  avg # of iterations =  4.8

     negative rho (up, down):  1.019E-07 0.000E+00

     total cpu time spent up to now is     3923.5 secs

     total energy              =    -263.34637109 Ry
     estimated scf accuracy    <       0.00006141 Ry
[tb_dev] Currently allocated     2.67E-05 Mbytes, locked:    0 /   1
[tb_pin] Currently allocated     0.00E+00 Mbytes, locked:    0 /   0

     iteration #  4     ecut=    80.00 Ry     beta= 0.40
     Davidson diagonalization with overlap

---- Real-time Memory Report at c_bands before calling an iterative solver
          1420 MiB given to the printing process from OS
             0 MiB allocation reported by mallinfo(arena+hblkhd)
         15856 MiB available memory on the node where the printing process lives
     GPU memory used/free/total (MiB): 1213 / 10700 / 11914
------------------
     ethr =  1.46E-07,  avg # of iterations =  5.0

     negative rho (up, down):  2.486E-08 0.000E+00

     total cpu time spent up to now is     3939.7 secs

     total energy              =    -263.34638210 Ry
     estimated scf accuracy    <       0.00001932 Ry
[tb_dev] Currently allocated     2.67E-05 Mbytes, locked:    0 /   1
[tb_pin] Currently allocated     0.00E+00 Mbytes, locked:    0 /   0

     iteration #  5     ecut=    80.00 Ry     beta= 0.40
     Davidson diagonalization with overlap

---- Real-time Memory Report at c_bands before calling an iterative solver
          1420 MiB given to the printing process from OS
             0 MiB allocation reported by mallinfo(arena+hblkhd)
         15860 MiB available memory on the node where the printing process lives
     GPU memory used/free/total (MiB): 1213 / 10700 / 11914
------------------
     ethr =  4.60E-08,  avg # of iterations =  5.9

     total cpu time spent up to now is     3956.1 secs

     total energy              =    -263.34638493 Ry
     estimated scf accuracy    <       0.00001061 Ry
[tb_dev] Currently allocated     2.67E-05 Mbytes, locked:    0 /   1
[tb_pin] Currently allocated     0.00E+00 Mbytes, locked:    0 /   0

     iteration #  6     ecut=    80.00 Ry     beta= 0.40
     Davidson diagonalization with overlap

---- Real-time Memory Report at c_bands before calling an iterative solver
          1420 MiB given to the printing process from OS
             0 MiB allocation reported by mallinfo(arena+hblkhd)
         15863 MiB available memory on the node where the printing process lives
     GPU memory used/free/total (MiB): 1213 / 10700 / 11914
------------------
     ethr =  2.53E-08,  avg # of iterations =  4.0

     negative rho (up, down):  1.656E-08 0.000E+00

     total cpu time spent up to now is     3969.3 secs

     total energy              =    -263.34638688 Ry
     estimated scf accuracy    <       0.00000097 Ry
[tb_dev] Currently allocated     2.67E-05 Mbytes, locked:    0 /   1
[tb_pin] Currently allocated     0.00E+00 Mbytes, locked:    0 /   0

     iteration #  7     ecut=    80.00 Ry     beta= 0.40
     Davidson diagonalization with overlap

---- Real-time Memory Report at c_bands before calling an iterative solver
          1420 MiB given to the printing process from OS
             0 MiB allocation reported by mallinfo(arena+hblkhd)
         15861 MiB available memory on the node where the printing process lives
     GPU memory used/free/total (MiB): 1213 / 10700 / 11914
------------------
     ethr =  2.31E-09,  avg # of iterations =  6.8

     total cpu time spent up to now is     3988.7 secs

     total energy              =    -263.34638685 Ry
     estimated scf accuracy    <       0.00000158 Ry
[tb_dev] Currently allocated     2.67E-05 Mbytes, locked:    0 /   1
[tb_pin] Currently allocated     0.00E+00 Mbytes, locked:    0 /   0

     iteration #  8     ecut=    80.00 Ry     beta= 0.40
     Davidson diagonalization with overlap

---- Real-time Memory Report at c_bands before calling an iterative solver
          1420 MiB given to the printing process from OS
             0 MiB allocation reported by mallinfo(arena+hblkhd)
         15875 MiB available memory on the node where the printing process lives
     GPU memory used/free/total (MiB): 1213 / 10700 / 11914
------------------
     ethr =  2.31E-09,  avg # of iterations =  5.9

     total cpu time spent up to now is     4005.3 secs

     total energy              =    -263.34638722 Ry
     estimated scf accuracy    <       0.00000031 Ry
[tb_dev] Currently allocated     2.67E-05 Mbytes, locked:    0 /   1
[tb_pin] Currently allocated     0.00E+00 Mbytes, locked:    0 /   0

     iteration #  9     ecut=    80.00 Ry     beta= 0.40
     Davidson diagonalization with overlap

---- Real-time Memory Report at c_bands before calling an iterative solver
          1420 MiB given to the printing process from OS
             0 MiB allocation reported by mallinfo(arena+hblkhd)
         15877 MiB available memory on the node where the printing process lives
     GPU memory used/free/total (MiB): 1213 / 10700 / 11914
------------------
     ethr =  7.38E-10,  avg # of iterations =  2.7

     total cpu time spent up to now is     4016.8 secs

     total energy              =    -263.34638724 Ry
     estimated scf accuracy    <       0.00000006 Ry
[tb_dev] Currently allocated     2.67E-05 Mbytes, locked:    0 /   1
[tb_pin] Currently allocated     0.00E+00 Mbytes, locked:    0 /   0

     iteration # 10     ecut=    80.00 Ry     beta= 0.40
     Davidson diagonalization with overlap

---- Real-time Memory Report at c_bands before calling an iterative solver
          1421 MiB given to the printing process from OS
             0 MiB allocation reported by mallinfo(arena+hblkhd)
         15867 MiB available memory on the node where the printing process lives
     GPU memory used/free/total (MiB): 1213 / 10700 / 11914
------------------
     ethr =  1.49E-10,  avg # of iterations =  6.9

     total cpu time spent up to now is     4035.7 secs

     total energy              =    -263.34638726 Ry
     estimated scf accuracy    <       0.00000004 Ry
[tb_dev] Currently allocated     2.67E-05 Mbytes, locked:    0 /   1
[tb_pin] Currently allocated     0.00E+00 Mbytes, locked:    0 /   0

     iteration # 11     ecut=    80.00 Ry     beta= 0.40
     Davidson diagonalization with overlap

---- Real-time Memory Report at c_bands before calling an iterative solver
          1422 MiB given to the printing process from OS
             0 MiB allocation reported by mallinfo(arena+hblkhd)
         15874 MiB available memory on the node where the printing process lives
     GPU memory used/free/total (MiB): 1213 / 10700 / 11914
------------------
     ethr =  8.66E-11,  avg # of iterations =  3.8

     total cpu time spent up to now is     4049.0 secs

     total energy              =    -263.34638727 Ry
     estimated scf accuracy    <          1.6E-09 Ry
[tb_dev] Currently allocated     2.67E-05 Mbytes, locked:    0 /   1
[tb_pin] Currently allocated     0.00E+00 Mbytes, locked:    0 /   0

     iteration # 12     ecut=    80.00 Ry     beta= 0.40
     Davidson diagonalization with overlap

---- Real-time Memory Report at c_bands before calling an iterative solver
          1422 MiB given to the printing process from OS
             0 MiB allocation reported by mallinfo(arena+hblkhd)
         15873 MiB available memory on the node where the printing process lives
     GPU memory used/free/total (MiB): 1213 / 10700 / 11914
------------------
     ethr =  3.72E-12,  avg # of iterations =  8.1

     total cpu time spent up to now is     4072.8 secs

     total energy              =    -263.34638727 Ry
     estimated scf accuracy    <       0.00000001 Ry
[tb_dev] Currently allocated     2.67E-05 Mbytes, locked:    0 /   1
[tb_pin] Currently allocated     0.00E+00 Mbytes, locked:    0 /   0

     iteration # 13     ecut=    80.00 Ry     beta= 0.40
     Davidson diagonalization with overlap

---- Real-time Memory Report at c_bands before calling an iterative solver
          1422 MiB given to the printing process from OS
             0 MiB allocation reported by mallinfo(arena+hblkhd)
         15873 MiB available memory on the node where the printing process lives
     GPU memory used/free/total (MiB): 1213 / 10700 / 11914
------------------
     ethr =  3.72E-12,  avg # of iterations =  5.7

     total cpu time spent up to now is     4088.8 secs

     total energy              =    -263.34638727 Ry
     estimated scf accuracy    <          1.2E-09 Ry
[tb_dev] Currently allocated     2.67E-05 Mbytes, locked:    0 /   1
[tb_pin] Currently allocated     0.00E+00 Mbytes, locked:    0 /   0

     iteration # 14     ecut=    80.00 Ry     beta= 0.40
     Davidson diagonalization with overlap

---- Real-time Memory Report at c_bands before calling an iterative solver
          1422 MiB given to the printing process from OS
             0 MiB allocation reported by mallinfo(arena+hblkhd)
         15870 MiB available memory on the node where the printing process lives
     GPU memory used/free/total (MiB): 1213 / 10700 / 11914
------------------
     ethr =  2.79E-12,  avg # of iterations =  6.3

     total cpu time spent up to now is     4106.1 secs

     total energy              =    -263.34638727 Ry
     estimated scf accuracy    <          9.4E-10 Ry
[tb_dev] Currently allocated     2.67E-05 Mbytes, locked:    0 /   1
[tb_pin] Currently allocated     0.00E+00 Mbytes, locked:    0 /   0

     iteration # 15     ecut=    80.00 Ry     beta= 0.40
     Davidson diagonalization with overlap

---- Real-time Memory Report at c_bands before calling an iterative solver
          1423 MiB given to the printing process from OS
             0 MiB allocation reported by mallinfo(arena+hblkhd)
         15867 MiB available memory on the node where the printing process lives
     GPU memory used/free/total (MiB): 1213 / 10700 / 11914
------------------
     ethr =  2.25E-12,  avg # of iterations =  1.0

     total cpu time spent up to now is     4114.6 secs

     total energy              =    -263.34638727 Ry
     estimated scf accuracy    <          6.8E-10 Ry
[tb_dev] Currently allocated     2.67E-05 Mbytes, locked:    0 /   1
[tb_pin] Currently allocated     0.00E+00 Mbytes, locked:    0 /   0

     iteration # 16     ecut=    80.00 Ry     beta= 0.40
     Davidson diagonalization with overlap

---- Real-time Memory Report at c_bands before calling an iterative solver
          1423 MiB given to the printing process from OS
             0 MiB allocation reported by mallinfo(arena+hblkhd)
         15866 MiB available memory on the node where the printing process lives
     GPU memory used/free/total (MiB): 1213 / 10700 / 11914
------------------
     ethr =  1.61E-12,  avg # of iterations =  4.4

     total cpu time spent up to now is     4128.1 secs

     total energy              =    -263.34638727 Ry
     estimated scf accuracy    <          4.3E-11 Ry
[tb_dev] Currently allocated     2.67E-05 Mbytes, locked:    0 /   1
[tb_pin] Currently allocated     0.00E+00 Mbytes, locked:    0 /   0

     iteration # 17     ecut=    80.00 Ry     beta= 0.40
     Davidson diagonalization with overlap

---- Real-time Memory Report at c_bands before calling an iterative solver
          1423 MiB given to the printing process from OS
             0 MiB allocation reported by mallinfo(arena+hblkhd)
         15867 MiB available memory on the node where the printing process lives
     GPU memory used/free/total (MiB): 1213 / 10700 / 11914
------------------
     ethr =  1.03E-13,  avg # of iterations =  5.2

     total cpu time spent up to now is     4144.1 secs

     total energy              =    -263.34638727 Ry
     estimated scf accuracy    <          5.2E-11 Ry
[tb_dev] Currently allocated     2.67E-05 Mbytes, locked:    0 /   1
[tb_pin] Currently allocated     0.00E+00 Mbytes, locked:    0 /   0

     iteration # 18     ecut=    80.00 Ry     beta= 0.40
     Davidson diagonalization with overlap

---- Real-time Memory Report at c_bands before calling an iterative solver
          1424 MiB given to the printing process from OS
             0 MiB allocation reported by mallinfo(arena+hblkhd)
         15868 MiB available memory on the node where the printing process lives
     GPU memory used/free/total (MiB): 1213 / 10700 / 11914
------------------
     ethr =  1.03E-13,  avg # of iterations =  4.3

     total cpu time spent up to now is     4157.6 secs

     End of self-consistent calculation

          k = 0.0000 0.0000 0.0000 ( 14509 PWs)   bands (ev):

   -77.9021 -49.1219 -49.0941 -49.0722 -24.7091 -24.6171 -21.9731 -20.5273
   -14.1941 -11.5369  -9.5964  -9.3942  -9.3193  -9.2148  -9.1347  -9.0263
    -8.8846  -7.6839  -7.6299  -7.6082  -5.4544

     occupation numbers 
     1.0000   1.0000   1.0000   1.0000   1.0000   1.0000   1.0000   1.0000
     1.0000   1.0000   1.0000   1.0000   1.0000   1.0000   1.0000   1.0000
     1.0000   1.0000   1.0000   1.0000   1.0000

          k = 0.0000 0.1034 0.0000 ( 14525 PWs)   bands (ev):

   -77.8992 -49.1448 -49.0990 -49.0681 -24.5665 -24.4764 -21.8622 -20.4682
   -14.0794 -11.4857 -10.0843  -9.9841  -9.3837  -9.3274  -9.2861  -9.2676
    -8.8106  -7.9510  -7.7704  -7.4321  -5.5646

     occupation numbers 
     1.0000   1.0000   1.0000   1.0000   1.0000   1.0000   1.0000   1.0000
     1.0000   1.0000   1.0000   1.0000   1.0000   1.0000   1.0000   1.0000
     1.0000   1.0000   1.0000   1.0000   1.0000

          k = 0.0000 0.2068 0.0000 ( 14553 PWs)   bands (ev):

   -77.8913 -49.2059 -49.1123 -49.0570 -24.1508 -24.0659 -21.5570 -20.3087
   -13.7999 -11.5823 -11.3879 -11.2177  -9.8909  -9.6477  -9.6009  -9.1605
    -8.5543  -8.3523  -8.1077  -7.5329  -5.9429

     occupation numbers 
     1.0000   1.0000   1.0000   1.0000   1.0000   1.0000   1.0000   1.0000
     1.0000   1.0000   1.0000   1.0000   1.0000   1.0000   1.0000   1.0000
     1.0000   1.0000   1.0000   1.0000   1.0000

          k = 0.0000 0.3102 0.0000 ( 14539 PWs)   bands (ev):

   -77.8810 -49.2852 -49.1297 -49.0424 -23.5045 -23.4269 -21.1439 -20.1064
   -13.8011 -13.1359 -12.5644 -11.1786 -10.5648 -10.0377  -9.9883  -8.9876
    -8.7984  -8.4978  -8.1697  -7.7351  -6.3500

     occupation numbers 
     1.0000   1.0000   1.0000   1.0000   1.0000   1.0000   1.0000   1.0000
     1.0000   1.0000   1.0000   1.0000   1.0000   1.0000   1.0000   1.0000
     1.0000   1.0000   1.0000   1.0000   1.0000

          k = 0.0000 0.4136 0.0000 ( 14485 PWs)   bands (ev):

   -77.8716 -49.3574 -49.1456 -49.0290 -22.7318 -22.6614 -20.7791 -19.9664
   -14.8478 -14.5658 -12.5798 -11.3873 -10.9649 -10.3633 -10.3067  -9.3953
    -8.8074  -8.5775  -7.8264  -7.7895  -6.4889

     occupation numbers 
     1.0000   1.0000   1.0000   1.0000   1.0000   1.0000   1.0000   1.0000
     1.0000   1.0000   1.0000   1.0000   1.0000   1.0000   1.0000   1.0000
     1.0000   1.0000   1.0000   1.0000   1.0000

          k = 0.0000 0.5170 0.0000 ( 14484 PWs)   bands (ev):

   -77.8659 -49.4001 -49.1550 -49.0210 -22.0967 -22.0284 -20.6345 -19.9729
   -15.6865 -15.4319 -12.4047 -11.7773 -11.0989 -10.5436 -10.4826  -9.5687
    -8.9785  -8.3308  -7.8409  -7.5429  -6.4514

     occupation numbers 
     1.0000   1.0000   1.0000   1.0000   1.0000   1.0000   1.0000   1.0000
     1.0000   1.0000   1.0000   1.0000   1.0000   1.0000   1.0000   1.0000
     1.0000   1.0000   1.0000   1.0000   1.0000

          k = 0.0000-0.5170 0.0000 ( 14484 PWs)   bands (ev):

   -77.8659 -49.4001 -49.1550 -49.0210 -22.0967 -22.0284 -20.6345 -19.9729
   -15.6865 -15.4319 -12.4047 -11.7773 -11.0989 -10.5436 -10.4826  -9.5687
    -8.9785  -8.3308  -7.8409  -7.5429  -6.4514

     occupation numbers 
     1.0000   1.0000   1.0000   1.0000   1.0000   1.0000   1.0000   1.0000
     1.0000   1.0000   1.0000   1.0000   1.0000   1.0000   1.0000   1.0000
     1.0000   1.0000   1.0000   1.0000   1.0000

          k = 0.0000-0.4136 0.0000 ( 14485 PWs)   bands (ev):

   -77.8716 -49.3574 -49.1456 -49.0290 -22.7318 -22.6614 -20.7791 -19.9664
   -14.8478 -14.5658 -12.5798 -11.3873 -10.9649 -10.3633 -10.3067  -9.3953
    -8.8074  -8.5775  -7.8264  -7.7895  -6.4889

     occupation numbers 
     1.0000   1.0000   1.0000   1.0000   1.0000   1.0000   1.0000   1.0000
     1.0000   1.0000   1.0000   1.0000   1.0000   1.0000   1.0000   1.0000
     1.0000   1.0000   1.0000   1.0000   1.0000

          k = 0.0000-0.3102 0.0000 ( 14539 PWs)   bands (ev):

   -77.8810 -49.2852 -49.1297 -49.0424 -23.5045 -23.4269 -21.1439 -20.1064
   -13.8011 -13.1359 -12.5644 -11.1786 -10.5648 -10.0377  -9.9883  -8.9876
    -8.7984  -8.4978  -8.1697  -7.7351  -6.3500

     occupation numbers 
     1.0000   1.0000   1.0000   1.0000   1.0000   1.0000   1.0000   1.0000
     1.0000   1.0000   1.0000   1.0000   1.0000   1.0000   1.0000   1.0000
     1.0000   1.0000   1.0000   1.0000   1.0000

          k = 0.0000-0.2068 0.0000 ( 14553 PWs)   bands (ev):

   -77.8913 -49.2059 -49.1123 -49.0570 -24.1508 -24.0659 -21.5570 -20.3087
   -13.7999 -11.5823 -11.3879 -11.2177  -9.8909  -9.6477  -9.6009  -9.1605
    -8.5543  -8.3523  -8.1077  -7.5329  -5.9429

     occupation numbers 
     1.0000   1.0000   1.0000   1.0000   1.0000   1.0000   1.0000   1.0000
     1.0000   1.0000   1.0000   1.0000   1.0000   1.0000   1.0000   1.0000
     1.0000   1.0000   1.0000   1.0000   1.0000

          k = 0.0000-0.1034 0.0000 ( 14525 PWs)   bands (ev):

   -77.8992 -49.1448 -49.0990 -49.0681 -24.5665 -24.4764 -21.8622 -20.4682
   -14.0794 -11.4857 -10.0843  -9.9841  -9.3837  -9.3274  -9.2861  -9.2676
    -8.8106  -7.9510  -7.7704  -7.4321  -5.5646

     occupation numbers 
     1.0000   1.0000   1.0000   1.0000   1.0000   1.0000   1.0000   1.0000
     1.0000   1.0000   1.0000   1.0000   1.0000   1.0000   1.0000   1.0000
     1.0000   1.0000   1.0000   1.0000   1.0000

          k = 0.0909 0.0517 0.0000 ( 14561 PWs)   bands (ev):

   -77.8989 -49.1342 -49.1113 -49.0678 -24.5629 -24.4728 -21.8587 -20.4650
   -14.0754 -11.4821  -9.9772  -9.8575  -9.4740  -9.4141  -9.3408  -9.2039
    -8.9032  -7.9381  -7.8108  -7.4084  -5.5609

     occupation numbers 
     1.0000   1.0000   1.0000   1.0000   1.0000   1.0000   1.0000   1.0000
     1.0000   1.0000   1.0000   1.0000   1.0000   1.0000   1.0000   1.0000
     1.0000   1.0000   1.0000   1.0000   1.0000

          k = 0.0909 0.1551 0.0000 ( 14541 PWs)   bands (ev):

   -77.8936 -49.1805 -49.1160 -49.0602 -24.2836 -24.1971 -21.6504 -20.3552
   -13.8745 -11.4174 -10.9036 -10.8471  -9.8800  -9.6884  -9.4731  -9.2116
    -8.7053  -8.2045  -8.0900  -7.4043  -5.8144

     occupation numbers 
     1.0000   1.0000   1.0000   1.0000   1.0000   1.0000   1.0000   1.0000
     1.0000   1.0000   1.0000   1.0000   1.0000   1.0000   1.0000   1.0000
     1.0000   1.0000   1.0000   1.0000   1.0000

          k = 0.0909 0.2585 0.0000 ( 14530 PWs)   bands (ev):

   -77.8845 -49.2500 -49.1321 -49.0474 -23.7509 -23.6706 -21.2891 -20.1714
   -13.6557 -12.4000 -12.1155 -11.1788 -10.5029 -10.1927  -9.9381  -8.9942
    -8.8391  -8.4096  -8.2170  -7.5937  -6.2223

     occupation numbers 
     1.0000   1.0000   1.0000   1.0000   1.0000   1.0000   1.0000   1.0000
     1.0000   1.0000   1.0000   1.0000   1.0000   1.0000   1.0000   1.0000
     1.0000   1.0000   1.0000   1.0000   1.0000

          k = 0.0909 0.3619 0.0000 ( 14507 PWs)   bands (ev):

   -77.8746 -49.3230 -49.1514 -49.0334 -23.0326 -22.9595 -20.8936 -19.9931
   -14.2372 -13.8665 -12.5949 -11.2390 -10.9241 -10.6545 -10.4355  -9.4677
    -8.7345  -8.4040  -8.1127  -7.7784  -6.4726

     occupation numbers 
     1.0000   1.0000   1.0000   1.0000   1.0000   1.0000   1.0000   1.0000
     1.0000   1.0000   1.0000   1.0000   1.0000   1.0000   1.0000   1.0000
     1.0000   1.0000   1.0000   1.0000   1.0000

          k = 0.0909 0.4653 0.0000 ( 14482 PWs)   bands (ev):

   -77.8671 -49.3780 -49.1665 -49.0226 -22.2935 -22.2254 -20.6403 -19.9298
   -15.2646 -15.0053 -12.4232 -11.6433 -11.1143 -10.8609 -10.8235  -9.6950
    -8.8593  -8.3641  -7.9770  -7.7218  -6.4429

     occupation numbers 
     1.0000   1.0000   1.0000   1.0000   1.0000   1.0000   1.0000   1.0000
     1.0000   1.0000   1.0000   1.0000   1.0000   1.0000   1.0000   1.0000
     1.0000   1.0000   1.0000   1.0000   1.0000

          k = 0.0909 0.5687 0.0000 ( 14530 PWs)   bands (ev):

   -77.8642 -49.3983 -49.1721 -49.0187 -21.9262 -21.8564 -20.5992 -19.9618
   -15.6988 -15.4438 -12.3043 -11.8570 -11.2133 -11.0072 -10.9101  -9.6597
    -9.0476  -8.2325  -7.9202  -7.6866  -6.3746

     occupation numbers 
     1.0000   1.0000   1.0000   1.0000   1.0000   1.0000   1.0000   1.0000
     1.0000   1.0000   1.0000   1.0000   1.0000   1.0000   1.0000   1.0000
     1.0000   1.0000   1.0000   1.0000   1.0000

          k = 0.0909-0.4653 0.0000 ( 14482 PWs)   bands (ev):

   -77.8671 -49.3780 -49.1665 -49.0226 -22.2935 -22.2254 -20.6403 -19.9298
   -15.2647 -15.0053 -12.4232 -11.6433 -11.1142 -10.8611 -10.8234  -9.6943
    -8.8599  -8.3641  -7.9773  -7.7218  -6.4424

     occupation numbers 
     1.0000   1.0000   1.0000   1.0000   1.0000   1.0000   1.0000   1.0000
     1.0000   1.0000   1.0000   1.0000   1.0000   1.0000   1.0000   1.0000
     1.0000   1.0000   1.0000   1.0000   1.0000

          k = 0.0909-0.3619 0.0000 ( 14507 PWs)   bands (ev):

   -77.8746 -49.3230 -49.1514 -49.0334 -23.0326 -22.9595 -20.8936 -19.9930
   -14.2374 -13.8666 -12.5949 -11.2390 -10.9241 -10.6543 -10.4356  -9.4676
    -8.7345  -8.4038  -8.1131  -7.7788  -6.4721

     occupation numbers 
     1.0000   1.0000   1.0000   1.0000   1.0000   1.0000   1.0000   1.0000
     1.0000   1.0000   1.0000   1.0000   1.0000   1.0000   1.0000   1.0000
     1.0000   1.0000   1.0000   1.0000   1.0000

          k = 0.0909-0.2585 0.0000 ( 14530 PWs)   bands (ev):

   -77.8845 -49.2500 -49.1321 -49.0474 -23.7509 -23.6705 -21.2891 -20.1714
   -13.6558 -12.4003 -12.1157 -11.1786 -10.5029 -10.1923  -9.9382  -8.9943
    -8.8397  -8.4095  -8.2159  -7.5947  -6.2218

     occupation numbers 
     1.0000   1.0000   1.0000   1.0000   1.0000   1.0000   1.0000   1.0000
     1.0000   1.0000   1.0000   1.0000   1.0000   1.0000   1.0000   1.0000
     1.0000   1.0000   1.0000   1.0000   1.0000

          k = 0.0909-0.1551 0.0000 ( 14541 PWs)   bands (ev):

   -77.8936 -49.1806 -49.1160 -49.0602 -24.2836 -24.1971 -21.6504 -20.3552
   -13.8745 -11.4173 -10.9046 -10.8470  -9.8797  -9.6878  -9.4731  -9.2116
    -8.7050  -8.2057  -8.0887  -7.4048  -5.8140

     occupation numbers 
     1.0000   1.0000   1.0000   1.0000   1.0000   1.0000   1.0000   1.0000
     1.0000   1.0000   1.0000   1.0000   1.0000   1.0000   1.0000   1.0000
     1.0000   1.0000   1.0000   1.0000   1.0000

          k = 0.0909-0.0517 0.0000 ( 14561 PWs)   bands (ev):

   -77.8989 -49.1342 -49.1112 -49.0678 -24.5629 -24.4728 -21.8587 -20.4650
   -14.0754 -11.4820  -9.9780  -9.8579  -9.4729  -9.4139  -9.3408  -9.2042
    -8.9029  -7.9365  -7.8127  -7.4082  -5.5607

     occupation numbers 
     1.0000   1.0000   1.0000   1.0000   1.0000   1.0000   1.0000   1.0000
     1.0000   1.0000   1.0000   1.0000   1.0000   1.0000   1.0000   1.0000
     1.0000   1.0000   1.0000   1.0000   1.0000

          k = 0.1818 0.1034 0.0000 ( 14557 PWs)   bands (ev):

   -77.8905 -49.1902 -49.1337 -49.0561 -24.1367 -24.0519 -21.5433 -20.2959
   -13.7820 -11.4968 -11.2626 -11.1482  -9.8381  -9.8116  -9.7713  -9.1426
    -8.6466  -8.3417  -8.1771  -7.5012  -5.9322

     occupation numbers 
     1.0000   1.0000   1.0000   1.0000   1.0000   1.0000   1.0000   1.0000
     1.0000   1.0000   1.0000   1.0000   1.0000   1.0000   1.0000   1.0000
     1.0000   1.0000   1.0000   1.0000   1.0000

          k = 0.1818 0.2068 0.0000 ( 14545 PWs)   bands (ev):

   -77.8839 -49.2419 -49.1443 -49.0467 -23.7404 -23.6601 -21.2788 -20.1613
   -13.6334 -12.3123 -12.0393 -11.1623 -10.5611 -10.3098  -9.9707  -8.9853
    -8.8511  -8.4606  -8.2418  -7.5842  -6.2140

     occupation numbers 
     1.0000   1.0000   1.0000   1.0000   1.0000   1.0000   1.0000   1.0000
     1.0000   1.0000   1.0000   1.0000   1.0000   1.0000   1.0000   1.0000
     1.0000   1.0000   1.0000   1.0000   1.0000

          k = 0.1818 0.3102 0.0000 ( 14487 PWs)   bands (ev):

   -77.8752 -49.2989 -49.1685 -49.0344 -23.1301 -23.0559 -20.9297 -19.9946
   -13.8734 -13.3543 -12.4589 -11.4280 -11.2643 -10.9043 -10.3564  -9.6144
    -8.7457  -8.4329  -8.0733  -7.8065  -6.4588

     occupation numbers 
     1.0000   1.0000   1.0000   1.0000   1.0000   1.0000   1.0000   1.0000
     1.0000   1.0000   1.0000   1.0000   1.0000   1.0000   1.0000   1.0000
     1.0000   1.0000   1.0000   1.0000   1.0000

          k = 0.1818 0.4136 0.0000 ( 14478 PWs)   bands (ev):

   -77.8673 -49.3468 -49.1949 -49.0231 -22.4137 -22.3448 -20.6359 -19.8844
   -14.6663 -14.3706 -12.4068 -12.0666 -11.8719 -10.8901 -10.7497 -10.0317
    -8.7066  -8.5771  -8.1555  -7.7795  -6.4425

     occupation numbers 
     1.0000   1.0000   1.0000   1.0000   1.0000   1.0000   1.0000   1.0000
     1.0000   1.0000   1.0000   1.0000   1.0000   1.0000   1.0000   1.0000
     1.0000   1.0000   1.0000   1.0000   1.0000

          k = 0.1818 0.5170 0.0000 ( 14479 PWs)   bands (ev):

   -77.8625 -49.3739 -49.2117 -49.0164 -21.8420 -21.7718 -20.5304 -19.8911
   -15.2997 -15.0399 -12.5629 -12.3641 -11.7762 -11.2581 -11.0480  -9.8409
    -9.0633  -8.6936  -8.1238  -7.6121  -6.2755

     occupation numbers 
     1.0000   1.0000   1.0000   1.0000   1.0000   1.0000   1.0000   1.0000
     1.0000   1.0000   1.0000   1.0000   1.0000   1.0000   1.0000   1.0000
     1.0000   1.0000   1.0000   1.0000   1.0000

          k = 0.1818 0.6204 0.0000 ( 14479 PWs)   bands (ev):

   -77.8625 -49.3739 -49.2117 -49.0164 -21.8420 -21.7718 -20.5304 -19.8911
   -15.2998 -15.0399 -12.5629 -12.3640 -11.7761 -11.2583 -11.0483  -9.8401
    -9.0637  -8.6936  -8.1242  -7.6121  -6.2752

     occupation numbers 
     1.0000   1.0000   1.0000   1.0000   1.0000   1.0000   1.0000   1.0000
     1.0000   1.0000   1.0000   1.0000   1.0000   1.0000   1.0000   1.0000
     1.0000   1.0000   1.0000   1.0000   1.0000

          k = 0.1818-0.4136 0.0000 ( 14478 PWs)   bands (ev):

   -77.8673 -49.3467 -49.1949 -49.0232 -22.4136 -22.3447 -20.6361 -19.8843
   -14.6666 -14.3706 -12.4068 -12.0662 -11.8717 -10.8905 -10.7501 -10.0309
    -8.7064  -8.5773  -8.1565  -7.7794  -6.4418

     occupation numbers 
     1.0000   1.0000   1.0000   1.0000   1.0000   1.0000   1.0000   1.0000
     1.0000   1.0000   1.0000   1.0000   1.0000   1.0000   1.0000   1.0000
     1.0000   1.0000   1.0000   1.0000   1.0000

          k = 0.1818-0.3102 0.0000 ( 14487 PWs)   bands (ev):

   -77.8752 -49.2989 -49.1684 -49.0344 -23.1301 -23.0559 -20.9299 -19.9946
   -13.8737 -13.3546 -12.4590 -11.4276 -11.2640 -10.9040 -10.3568  -9.6147
    -8.7457  -8.4328  -8.0729  -7.8076  -6.4580

     occupation numbers 
     1.0000   1.0000   1.0000   1.0000   1.0000   1.0000   1.0000   1.0000
     1.0000   1.0000   1.0000   1.0000   1.0000   1.0000   1.0000   1.0000
     1.0000   1.0000   1.0000   1.0000   1.0000

          k = 0.1818-0.2068 0.0000 ( 14545 PWs)   bands (ev):

   -77.8839 -49.2420 -49.1442 -49.0467 -23.7403 -23.6600 -21.2790 -20.1612
   -13.6337 -12.3127 -12.0396 -11.1620 -10.5607 -10.3092  -9.9708  -8.9854
    -8.8516  -8.4604  -8.2413  -7.5850  -6.2132

     occupation numbers 
     1.0000   1.0000   1.0000   1.0000   1.0000   1.0000   1.0000   1.0000
     1.0000   1.0000   1.0000   1.0000   1.0000   1.0000   1.0000   1.0000
     1.0000   1.0000   1.0000   1.0000   1.0000

          k = 0.1818-0.1034 0.0000 ( 14557 PWs)   bands (ev):

   -77.8905 -49.1903 -49.1337 -49.0561 -24.1367 -24.0519 -21.5434 -20.2959
   -13.7821 -11.4967 -11.2634 -11.1481  -9.8379  -9.8108  -9.7715  -9.1426
    -8.6464  -8.3406  -8.1785  -7.5015  -5.9317

     occupation numbers 
     1.0000   1.0000   1.0000   1.0000   1.0000   1.0000   1.0000   1.0000
     1.0000   1.0000   1.0000   1.0000   1.0000   1.0000   1.0000   1.0000
     1.0000   1.0000   1.0000   1.0000   1.0000

          k = 0.1818-0.0000 0.0000 ( 14573 PWs)   bands (ev):

   -77.8930 -49.1634 -49.1373 -49.0596 -24.2731 -24.1866 -21.6404 -20.3463
   -13.8629 -11.4036 -10.8155 -10.7593  -9.9115  -9.7902  -9.4939  -9.2018
    -8.7791  -8.2194  -8.1131  -7.3840  -5.8095

     occupation numbers 
     1.0000   1.0000   1.0000   1.0000   1.0000   1.0000   1.0000   1.0000
     1.0000   1.0000   1.0000   1.0000   1.0000   1.0000   1.0000   1.0000
     1.0000   1.0000   1.0000   1.0000   1.0000

          k = 0.2727 0.1551 0.0000 ( 14551 PWs)   bands (ev):

   -77.8795 -49.2719 -49.1541 -49.0406 -23.4739 -23.3964 -21.1153 -20.0785
   -13.7234 -13.0099 -12.4959 -11.1488 -10.5135 -10.2370 -10.1868  -8.9647
    -8.7955  -8.5909  -8.2615  -7.7001  -6.3360

     occupation numbers 
     1.0000   1.0000   1.0000   1.0000   1.0000   1.0000   1.0000   1.0000
     1.0000   1.0000   1.0000   1.0000   1.0000   1.0000   1.0000   1.0000
     1.0000   1.0000   1.0000   1.0000   1.0000

          k = 0.2727 0.2585 0.0000 ( 14499 PWs)   bands (ev):

   -77.8733 -49.3126 -49.1713 -49.0319 -23.0054 -22.9323 -20.8678 -19.9662
   -14.1373 -13.7535 -12.5681 -11.2527 -10.9752 -10.8015 -10.5095  -9.4885
    -8.7259  -8.4587  -8.1886  -7.7570  -6.4549

     occupation numbers 
     1.0000   1.0000   1.0000   1.0000   1.0000   1.0000   1.0000   1.0000
     1.0000   1.0000   1.0000   1.0000   1.0000   1.0000   1.0000   1.0000
     1.0000   1.0000   1.0000   1.0000   1.0000

          k = 0.2727 0.3619 0.0000 ( 14446 PWs)   bands (ev):

   -77.8665 -49.3406 -49.2063 -49.0223 -22.3966 -22.3277 -20.6200 -19.8671
   -14.5982 -14.2984 -12.4182 -12.1415 -11.9718 -10.8854 -10.7316 -10.0468
    -8.7378  -8.5876  -8.1788  -7.7688  -6.4303

     occupation numbers 
     1.0000   1.0000   1.0000   1.0000   1.0000   1.0000   1.0000   1.0000
     1.0000   1.0000   1.0000   1.0000   1.0000   1.0000   1.0000   1.0000
     1.0000   1.0000   1.0000   1.0000   1.0000

          k = 0.2727 0.4653 0.0000 ( 14474 PWs)   bands (ev):

   -77.8613 -49.3491 -49.2460 -49.0150 -21.8106 -21.7405 -20.4835 -19.8380
   -14.8674 -14.5782 -13.2021 -13.0509 -11.8746 -11.1001 -10.8305 -10.0260
    -9.3928  -8.8124  -8.1263  -7.5971  -6.2268

     occupation numbers 
     1.0000   1.0000   1.0000   1.0000   1.0000   1.0000   1.0000   1.0000
     1.0000   1.0000   1.0000   1.0000   1.0000   1.0000   1.0000   1.0000
     1.0000   1.0000   1.0000   1.0000   1.0000

          k = 0.2727 0.5687 0.0000 ( 14432 PWs)   bands (ev):

   -77.8594 -49.3472 -49.2659 -49.0123 -21.5426 -21.4653 -20.4686 -19.8536
   -14.9339 -14.6418 -13.6000 -13.4825 -11.5679 -11.2770 -10.9331  -9.9480
    -9.5706  -9.1320  -8.0523  -7.5018  -6.0835

     occupation numbers 
     1.0000   1.0000   1.0000   1.0000   1.0000   1.0000   1.0000   1.0000
     1.0000   1.0000   1.0000   1.0000   1.0000   1.0000   1.0000   1.0000
     1.0000   1.0000   1.0000   1.0000   1.0000

          k = 0.2727 0.6721 0.0000 ( 14474 PWs)   bands (ev):

   -77.8613 -49.3491 -49.2460 -49.0150 -21.8105 -21.7404 -20.4837 -19.8380
   -14.8678 -14.5783 -13.2016 -13.0508 -11.8747 -11.1006 -10.8310 -10.0252
    -9.3924  -8.8129  -8.1269  -7.5970  -6.2264

     occupation numbers 
     1.0000   1.0000   1.0000   1.0000   1.0000   1.0000   1.0000   1.0000
     1.0000   1.0000   1.0000   1.0000   1.0000   1.0000   1.0000   1.0000
     1.0000   1.0000   1.0000   1.0000   1.0000

          k = 0.2727-0.3619 0.0000 ( 14446 PWs)   bands (ev):

   -77.8665 -49.3406 -49.2063 -49.0223 -22.3965 -22.3276 -20.6202 -19.8671
   -14.5987 -14.2985 -12.4181 -12.1410 -11.9717 -10.8857 -10.7319 -10.0464
    -8.7375  -8.5878  -8.1800  -7.7687  -6.4295

     occupation numbers 
     1.0000   1.0000   1.0000   1.0000   1.0000   1.0000   1.0000   1.0000
     1.0000   1.0000   1.0000   1.0000   1.0000   1.0000   1.0000   1.0000
     1.0000   1.0000   1.0000   1.0000   1.0000

          k = 0.2727-0.2585 0.0000 ( 14499 PWs)   bands (ev):

   -77.8733 -49.3126 -49.1712 -49.0319 -23.0054 -22.9323 -20.8680 -19.9661
   -14.1378 -13.7537 -12.5683 -11.2525 -10.9750 -10.8008 -10.5097  -9.4888
    -8.7259  -8.4591  -8.1889  -7.7572  -6.4539

     occupation numbers 
     1.0000   1.0000   1.0000   1.0000   1.0000   1.0000   1.0000   1.0000
     1.0000   1.0000   1.0000   1.0000   1.0000   1.0000   1.0000   1.0000
     1.0000   1.0000   1.0000   1.0000   1.0000

          k = 0.2727-0.1551 0.0000 ( 14551 PWs)   bands (ev):

   -77.8795 -49.2719 -49.1541 -49.0406 -23.4739 -23.3964 -21.1154 -20.0784
   -13.7238 -13.0101 -12.4960 -11.1484 -10.5137 -10.2358 -10.1870  -8.9644
    -8.7957  -8.5921  -8.2615  -7.7001  -6.3352

     occupation numbers 
     1.0000   1.0000   1.0000   1.0000   1.0000   1.0000   1.0000   1.0000
     1.0000   1.0000   1.0000   1.0000   1.0000   1.0000   1.0000   1.0000
     1.0000   1.0000   1.0000   1.0000   1.0000

          k = 0.2727-0.0517 0.0000 ( 14554 PWs)   bands (ev):

   -77.8831 -49.2363 -49.1552 -49.0459 -23.7240 -23.6438 -21.2646 -20.1490
   -13.6181 -12.3004 -12.0335 -11.1600 -10.5539 -10.3224  -9.9922  -8.9747
    -8.8675  -8.4785  -8.2651  -7.5614  -6.2183

     occupation numbers 
     1.0000   1.0000   1.0000   1.0000   1.0000   1.0000   1.0000   1.0000
     1.0000   1.0000   1.0000   1.0000   1.0000   1.0000   1.0000   1.0000
     1.0000   1.0000   1.0000   1.0000   1.0000

          k = 0.2727 0.0517 0.0000 ( 14554 PWs)   bands (ev):

   -77.8831 -49.2363 -49.1553 -49.0459 -23.7240 -23.6438 -21.2645 -20.1490
   -13.6180 -12.3002 -12.0334 -11.1601 -10.5541 -10.3227  -9.9922  -8.9748
    -8.8675  -8.4786  -8.2646  -7.5615  -6.2187

     occupation numbers 
     1.0000   1.0000   1.0000   1.0000   1.0000   1.0000   1.0000   1.0000
     1.0000   1.0000   1.0000   1.0000   1.0000   1.0000   1.0000   1.0000
     1.0000   1.0000   1.0000   1.0000   1.0000

          k = 0.3636 0.2068 0.0000 ( 14479 PWs)   bands (ev):

   -77.8693 -49.3469 -49.1720 -49.0264 -22.6811 -22.6107 -20.7341 -19.9203
   -14.7384 -14.4592 -12.5640 -11.3415 -10.9346 -10.5817 -10.5252  -9.3818
    -8.9201  -8.5483  -7.8828  -7.7892  -6.4703

     occupation numbers 
     1.0000   1.0000   1.0000   1.0000   1.0000   1.0000   1.0000   1.0000
     1.0000   1.0000   1.0000   1.0000   1.0000   1.0000   1.0000   1.0000
     1.0000   1.0000   1.0000   1.0000   1.0000

          k = 0.3636 0.3102 0.0000 ( 14484 PWs)   bands (ev):

   -77.8650 -49.3683 -49.1905 -49.0204 -22.2454 -22.1771 -20.5973 -19.8839
   -15.1607 -14.9055 -12.4183 -11.6563 -11.2226 -10.9776 -10.9231  -9.7009
    -8.9201  -8.3498  -8.0489  -7.7165  -6.4142

     occupation numbers 
     1.0000   1.0000   1.0000   1.0000   1.0000   1.0000   1.0000   1.0000
     1.0000   1.0000   1.0000   1.0000   1.0000   1.0000   1.0000   1.0000
     1.0000   1.0000   1.0000   1.0000   1.0000

          k = 0.3636 0.4136 0.0000 ( 14456 PWs)   bands (ev):

   -77.8610 -49.3654 -49.2304 -49.0148 -21.8021 -21.7316 -20.4984 -19.8570
   -15.2141 -14.9572 -12.6760 -12.4928 -11.8068 -11.2391 -11.0576  -9.8481
    -9.0944  -8.7437  -8.1066  -7.6068  -6.2591

     occupation numbers 
     1.0000   1.0000   1.0000   1.0000   1.0000   1.0000   1.0000   1.0000
     1.0000   1.0000   1.0000   1.0000   1.0000   1.0000   1.0000   1.0000
     1.0000   1.0000   1.0000   1.0000   1.0000

          k = 0.3636 0.5170 0.0000 ( 14455 PWs)   bands (ev):

   -77.8587 -49.3400 -49.2780 -49.0115 -21.5182 -21.4404 -20.4549 -19.8394
   -14.8760 -14.5789 -13.6860 -13.5742 -11.5636 -11.2824 -10.9215  -9.9747
    -9.5841  -9.1236  -8.0396  -7.5010  -6.0870

     occupation numbers 
     1.0000   1.0000   1.0000   1.0000   1.0000   1.0000   1.0000   1.0000
     1.0000   1.0000   1.0000   1.0000   1.0000   1.0000   1.0000   1.0000
     1.0000   1.0000   1.0000   1.0000   1.0000

          k = 0.3636 0.6204 0.0000 ( 14455 PWs)   bands (ev):

   -77.8587 -49.3400 -49.2779 -49.0115 -21.5181 -21.4403 -20.4551 -19.8394
   -14.8763 -14.5790 -13.6855 -13.5742 -11.5637 -11.2825 -10.9218  -9.9745
    -9.5836  -9.1239  -8.0398  -7.5009  -6.0869

     occupation numbers 
     1.0000   1.0000   1.0000   1.0000   1.0000   1.0000   1.0000   1.0000
     1.0000   1.0000   1.0000   1.0000   1.0000   1.0000   1.0000   1.0000
     1.0000   1.0000   1.0000   1.0000   1.0000

          k = 0.3636 0.7238 0.0000 ( 14456 PWs)   bands (ev):

   -77.8610 -49.3654 -49.2304 -49.0148 -21.8019 -21.7315 -20.4987 -19.8570
   -15.2146 -14.9571 -12.6756 -12.4926 -11.8070 -11.2393 -11.0579  -9.8476
    -9.0944  -8.7439  -8.1073  -7.6068  -6.2587

     occupation numbers 
     1.0000   1.0000   1.0000   1.0000   1.0000   1.0000   1.0000   1.0000
     1.0000   1.0000   1.0000   1.0000   1.0000   1.0000   1.0000   1.0000
     1.0000   1.0000   1.0000   1.0000   1.0000

          k = 0.3636-0.3102 0.0000 ( 14484 PWs)   bands (ev):

   -77.8650 -49.3683 -49.1905 -49.0204 -22.2452 -22.1770 -20.5976 -19.8839
   -15.1611 -14.9054 -12.4186 -11.6562 -11.2223 -10.9775 -10.9228  -9.7005
    -8.9207  -8.3501  -8.0494  -7.7166  -6.4133

     occupation numbers 
     1.0000   1.0000   1.0000   1.0000   1.0000   1.0000   1.0000   1.0000
     1.0000   1.0000   1.0000   1.0000   1.0000   1.0000   1.0000   1.0000
     1.0000   1.0000   1.0000   1.0000   1.0000

          k = 0.3636-0.2068 0.0000 ( 14479 PWs)   bands (ev):

   -77.8693 -49.3469 -49.1720 -49.0264 -22.6810 -22.6106 -20.7344 -19.9202
   -14.7388 -14.4592 -12.5642 -11.3415 -10.9343 -10.5807 -10.5253  -9.3817
    -8.9210  -8.5486  -7.8830  -7.7892  -6.4694

     occupation numbers 
     1.0000   1.0000   1.0000   1.0000   1.0000   1.0000   1.0000   1.0000
     1.0000   1.0000   1.0000   1.0000   1.0000   1.0000   1.0000   1.0000
     1.0000   1.0000   1.0000   1.0000   1.0000

          k = 0.3636-0.1034 0.0000 ( 14506 PWs)   bands (ev):

   -77.8725 -49.3129 -49.1758 -49.0311 -22.9857 -22.9128 -20.8539 -19.9549
   -14.1481 -13.7736 -12.5703 -11.2538 -10.9746 -10.7853 -10.5148  -9.5065
    -8.7165  -8.4526  -8.1698  -7.7476  -6.4752

     occupation numbers 
     1.0000   1.0000   1.0000   1.0000   1.0000   1.0000   1.0000   1.0000
     1.0000   1.0000   1.0000   1.0000   1.0000   1.0000   1.0000   1.0000
     1.0000   1.0000   1.0000   1.0000   1.0000

          k = 0.3636 0.0000 0.0000 ( 14493 PWs)   bands (ev):

   -77.8738 -49.2934 -49.1842 -49.0328 -23.0939 -23.0199 -20.9009 -19.9693
   -13.8419 -13.3277 -12.4472 -11.4730 -11.3151 -10.8975 -10.3789  -9.6447
    -8.7247  -8.4441  -8.1052  -7.7692  -6.4775

     occupation numbers 
     1.0000   1.0000   1.0000   1.0000   1.0000   1.0000   1.0000   1.0000
     1.0000   1.0000   1.0000   1.0000   1.0000   1.0000   1.0000   1.0000
     1.0000   1.0000   1.0000   1.0000   1.0000

          k = 0.3636 0.1034 0.0000 ( 14506 PWs)   bands (ev):

   -77.8725 -49.3129 -49.1758 -49.0311 -22.9858 -22.9128 -20.8537 -19.9549
   -14.1478 -13.7735 -12.5702 -11.2539 -10.9746 -10.7860 -10.5149  -9.5062
    -8.7163  -8.4521  -8.1699  -7.7478  -6.4757

     occupation numbers 
     1.0000   1.0000   1.0000   1.0000   1.0000   1.0000   1.0000   1.0000
     1.0000   1.0000   1.0000   1.0000   1.0000   1.0000   1.0000   1.0000
     1.0000   1.0000   1.0000   1.0000   1.0000

          k = 0.4545 0.2585 0.0000 ( 14447 PWs)   bands (ev):

   -77.8632 -49.3913 -49.1825 -49.0180 -22.0284 -21.9599 -20.5783 -19.9138
   -15.5932 -15.3449 -12.3882 -11.7390 -11.0899 -10.7720 -10.7114  -9.5354
    -9.0999  -8.2864  -7.8027  -7.6411  -6.4253

     occupation numbers 
     1.0000   1.0000   1.0000   1.0000   1.0000   1.0000   1.0000   1.0000
     1.0000   1.0000   1.0000   1.0000   1.0000   1.0000   1.0000   1.0000
     1.0000   1.0000   1.0000   1.0000   1.0000

          k = 0.4545 0.3619 0.0000 ( 14473 PWs)   bands (ev):

   -77.8617 -49.3899 -49.1978 -49.0159 -21.8597 -21.7895 -20.5473 -19.9070
   -15.6112 -15.3623 -12.3040 -11.8594 -11.2931 -11.1883 -11.0073  -9.6596
    -9.1039  -8.2089  -7.9741  -7.6846  -6.3551

     occupation numbers 
     1.0000   1.0000   1.0000   1.0000   1.0000   1.0000   1.0000   1.0000
     1.0000   1.0000   1.0000   1.0000   1.0000   1.0000   1.0000   1.0000
     1.0000   1.0000   1.0000   1.0000   1.0000

          k = 0.4545 0.4653 0.0000 ( 14430 PWs)   bands (ev):

   -77.8606 -49.3663 -49.2324 -49.0143 -21.7836 -21.7129 -20.4922 -19.8525
   -15.2290 -14.9737 -12.6704 -12.4903 -11.8090 -11.2499 -11.0637  -9.8676
    -9.0681  -8.7291  -8.0921  -7.6112  -6.2823

     occupation numbers 
     1.0000   1.0000   1.0000   1.0000   1.0000   1.0000   1.0000   1.0000
     1.0000   1.0000   1.0000   1.0000   1.0000   1.0000   1.0000   1.0000
     1.0000   1.0000   1.0000   1.0000   1.0000

          k = 0.4545 0.5687 0.0000 ( 14406 PWs)   bands (ev):

   -77.8602 -49.3456 -49.2573 -49.0137 -21.7689 -21.6985 -20.4632 -19.8195
   -14.8510 -14.5648 -13.2536 -13.1041 -11.8694 -11.1105 -10.8611 -10.0395
    -9.3811  -8.7916  -8.1025  -7.6016  -6.2543

     occupation numbers 
     1.0000   1.0000   1.0000   1.0000   1.0000   1.0000   1.0000   1.0000
     1.0000   1.0000   1.0000   1.0000   1.0000   1.0000   1.0000   1.0000
     1.0000   1.0000   1.0000   1.0000   1.0000

          k = 0.4545 0.6721 0.0000 ( 14430 PWs)   bands (ev):

   -77.8606 -49.3663 -49.2324 -49.0143 -21.7834 -21.7128 -20.4925 -19.8525
   -15.2293 -14.9736 -12.6700 -12.4901 -11.8093 -11.2499 -11.0636  -9.8678
    -9.0678  -8.7292  -8.0925  -7.6111  -6.2821

     occupation numbers 
     1.0000   1.0000   1.0000   1.0000   1.0000   1.0000   1.0000   1.0000
     1.0000   1.0000   1.0000   1.0000   1.0000   1.0000   1.0000   1.0000
     1.0000   1.0000   1.0000   1.0000   1.0000

          k = 0.4545 0.7755 0.0000 ( 14473 PWs)   bands (ev):

   -77.8617 -49.3899 -49.1978 -49.0159 -21.8594 -21.7893 -20.5478 -19.9071
   -15.6116 -15.3621 -12.3044 -11.8593 -11.2926 -11.1884 -11.0070  -9.6595
    -9.1042  -8.2091  -7.9745  -7.6847  -6.3545

     occupation numbers 
     1.0000   1.0000   1.0000   1.0000   1.0000   1.0000   1.0000   1.0000
     1.0000   1.0000   1.0000   1.0000   1.0000   1.0000   1.0000   1.0000
     1.0000   1.0000   1.0000   1.0000   1.0000

          k = 0.4545-0.2585 0.0000 ( 14447 PWs)   bands (ev):

   -77.8632 -49.3913 -49.1825 -49.0180 -22.0282 -21.9598 -20.5788 -19.9138
   -15.5936 -15.3448 -12.3887 -11.7390 -11.0897 -10.7711 -10.7114  -9.5350
    -9.1006  -8.2866  -7.8029  -7.6415  -6.4244

     occupation numbers 
     1.0000   1.0000   1.0000   1.0000   1.0000   1.0000   1.0000   1.0000
     1.0000   1.0000   1.0000   1.0000   1.0000   1.0000   1.0000   1.0000
     1.0000   1.0000   1.0000   1.0000   1.0000

          k = 0.4545-0.1551 0.0000 ( 14436 PWs)   bands (ev):

   -77.8646 -49.3697 -49.1920 -49.0199 -22.2288 -22.1607 -20.5901 -19.8788
   -15.1780 -14.9240 -12.4153 -11.6647 -11.2247 -10.9631 -10.9208  -9.7263
    -8.8886  -8.3427  -8.0284  -7.7140  -6.4429

     occupation numbers 
     1.0000   1.0000   1.0000   1.0000   1.0000   1.0000   1.0000   1.0000
     1.0000   1.0000   1.0000   1.0000   1.0000   1.0000   1.0000   1.0000
     1.0000   1.0000   1.0000   1.0000   1.0000

          k = 0.4545-0.0517 0.0000 ( 14468 PWs)   bands (ev):

   -77.8654 -49.3408 -49.2138 -49.0211 -22.3596 -22.2907 -20.5980 -19.8491
   -14.6145 -14.3222 -12.4154 -12.1546 -11.9727 -10.8867 -10.7583 -10.0721
    -8.6977  -8.5796  -8.1441  -7.7769  -6.4674

     occupation numbers 
     1.0000   1.0000   1.0000   1.0000   1.0000   1.0000   1.0000   1.0000
     1.0000   1.0000   1.0000   1.0000   1.0000   1.0000   1.0000   1.0000
     1.0000   1.0000   1.0000   1.0000   1.0000

          k = 0.4545 0.0517 0.0000 ( 14468 PWs)   bands (ev):

   -77.8654 -49.3408 -49.2138 -49.0210 -22.3596 -22.2908 -20.5979 -19.8491
   -14.6143 -14.3222 -12.4155 -12.1548 -11.9727 -10.8869 -10.7584 -10.0717
    -8.6979  -8.5795  -8.1439  -7.7770  -6.4676

     occupation numbers 
     1.0000   1.0000   1.0000   1.0000   1.0000   1.0000   1.0000   1.0000
     1.0000   1.0000   1.0000   1.0000   1.0000   1.0000   1.0000   1.0000
     1.0000   1.0000   1.0000   1.0000   1.0000

          k = 0.4545 0.1551 0.0000 ( 14436 PWs)   bands (ev):

   -77.8646 -49.3697 -49.1920 -49.0199 -22.2290 -22.1608 -20.5898 -19.8789
   -15.1777 -14.9241 -12.4150 -11.6648 -11.2249 -10.9633 -10.9213  -9.7259
    -8.8886  -8.3424  -8.0284  -7.7139  -6.4434

     occupation numbers 
     1.0000   1.0000   1.0000   1.0000   1.0000   1.0000   1.0000   1.0000
     1.0000   1.0000   1.0000   1.0000   1.0000   1.0000   1.0000   1.0000
     1.0000   1.0000   1.0000   1.0000   1.0000

          k =-0.4545-0.2585 0.0000 ( 14447 PWs)   bands (ev):

   -77.8632 -49.3913 -49.1825 -49.0180 -22.0284 -21.9599 -20.5783 -19.9138
   -15.5932 -15.3449 -12.3882 -11.7390 -11.0899 -10.7720 -10.7114  -9.5354
    -9.0999  -8.2864  -7.8027  -7.6411  -6.4253

     occupation numbers 
     1.0000   1.0000   1.0000   1.0000   1.0000   1.0000   1.0000   1.0000
     1.0000   1.0000   1.0000   1.0000   1.0000   1.0000   1.0000   1.0000
     1.0000   1.0000   1.0000   1.0000   1.0000

          k =-0.4545-0.1551 0.0000 ( 14436 PWs)   bands (ev):

   -77.8646 -49.3697 -49.1920 -49.0199 -22.2290 -22.1608 -20.5898 -19.8789
   -15.1777 -14.9241 -12.4150 -11.6648 -11.2249 -10.9633 -10.9213  -9.7259
    -8.8886  -8.3424  -8.0284  -7.7139  -6.4434

     occupation numbers 
     1.0000   1.0000   1.0000   1.0000   1.0000   1.0000   1.0000   1.0000
     1.0000   1.0000   1.0000   1.0000   1.0000   1.0000   1.0000   1.0000
     1.0000   1.0000   1.0000   1.0000   1.0000

          k =-0.4545-0.0517 0.0000 ( 14468 PWs)   bands (ev):

   -77.8654 -49.3408 -49.2138 -49.0210 -22.3596 -22.2908 -20.5979 -19.8491
   -14.6143 -14.3222 -12.4155 -12.1548 -11.9727 -10.8869 -10.7584 -10.0717
    -8.6979  -8.5795  -8.1439  -7.7770  -6.4676

     occupation numbers 
     1.0000   1.0000   1.0000   1.0000   1.0000   1.0000   1.0000   1.0000
     1.0000   1.0000   1.0000   1.0000   1.0000   1.0000   1.0000   1.0000
     1.0000   1.0000   1.0000   1.0000   1.0000

          k =-0.4545 0.0517 0.0000 ( 14468 PWs)   bands (ev):

   -77.8654 -49.3408 -49.2138 -49.0211 -22.3596 -22.2907 -20.5980 -19.8491
   -14.6145 -14.3222 -12.4154 -12.1546 -11.9727 -10.8867 -10.7583 -10.0721
    -8.6977  -8.5796  -8.1441  -7.7769  -6.4674

     occupation numbers 
     1.0000   1.0000   1.0000   1.0000   1.0000   1.0000   1.0000   1.0000
     1.0000   1.0000   1.0000   1.0000   1.0000   1.0000   1.0000   1.0000
     1.0000   1.0000   1.0000   1.0000   1.0000

          k =-0.4545 0.1551 0.0000 ( 14436 PWs)   bands (ev):

   -77.8646 -49.3697 -49.1920 -49.0199 -22.2288 -22.1607 -20.5901 -19.8788
   -15.1780 -14.9240 -12.4153 -11.6647 -11.2247 -10.9631 -10.9208  -9.7263
    -8.8886  -8.3427  -8.0284  -7.7140  -6.4429

     occupation numbers 
     1.0000   1.0000   1.0000   1.0000   1.0000   1.0000   1.0000   1.0000
     1.0000   1.0000   1.0000   1.0000   1.0000   1.0000   1.0000   1.0000
     1.0000   1.0000   1.0000   1.0000   1.0000

          k =-0.4545 0.2585 0.0000 ( 14447 PWs)   bands (ev):

   -77.8632 -49.3913 -49.1825 -49.0180 -22.0282 -21.9598 -20.5788 -19.9138
   -15.5936 -15.3448 -12.3887 -11.7390 -11.0897 -10.7711 -10.7114  -9.5350
    -9.1006  -8.2866  -7.8029  -7.6415  -6.4244

     occupation numbers 
     1.0000   1.0000   1.0000   1.0000   1.0000   1.0000   1.0000   1.0000
     1.0000   1.0000   1.0000   1.0000   1.0000   1.0000   1.0000   1.0000
     1.0000   1.0000   1.0000   1.0000   1.0000

          k =-0.4545-0.7755 0.0000 ( 14473 PWs)   bands (ev):

   -77.8617 -49.3899 -49.1978 -49.0159 -21.8594 -21.7893 -20.5478 -19.9071
   -15.6116 -15.3621 -12.3044 -11.8593 -11.2926 -11.1884 -11.0070  -9.6595
    -9.1042  -8.2091  -7.9745  -7.6847  -6.3545

     occupation numbers 
     1.0000   1.0000   1.0000   1.0000   1.0000   1.0000   1.0000   1.0000
     1.0000   1.0000   1.0000   1.0000   1.0000   1.0000   1.0000   1.0000
     1.0000   1.0000   1.0000   1.0000   1.0000

          k =-0.4545-0.6721 0.0000 ( 14430 PWs)   bands (ev):

   -77.8606 -49.3663 -49.2324 -49.0143 -21.7834 -21.7128 -20.4925 -19.8525
   -15.2293 -14.9736 -12.6700 -12.4901 -11.8093 -11.2499 -11.0636  -9.8678
    -9.0678  -8.7292  -8.0925  -7.6111  -6.2821

     occupation numbers 
     1.0000   1.0000   1.0000   1.0000   1.0000   1.0000   1.0000   1.0000
     1.0000   1.0000   1.0000   1.0000   1.0000   1.0000   1.0000   1.0000
     1.0000   1.0000   1.0000   1.0000   1.0000

          k =-0.4545-0.5687 0.0000 ( 14406 PWs)   bands (ev):

   -77.8602 -49.3456 -49.2573 -49.0137 -21.7689 -21.6985 -20.4632 -19.8195
   -14.8510 -14.5648 -13.2536 -13.1041 -11.8694 -11.1105 -10.8611 -10.0395
    -9.3811  -8.7916  -8.1025  -7.6016  -6.2543

     occupation numbers 
     1.0000   1.0000   1.0000   1.0000   1.0000   1.0000   1.0000   1.0000
     1.0000   1.0000   1.0000   1.0000   1.0000   1.0000   1.0000   1.0000
     1.0000   1.0000   1.0000   1.0000   1.0000

          k =-0.4545-0.4653 0.0000 ( 14430 PWs)   bands (ev):

   -77.8606 -49.3663 -49.2324 -49.0143 -21.7836 -21.7129 -20.4922 -19.8525
   -15.2290 -14.9737 -12.6704 -12.4903 -11.8090 -11.2499 -11.0637  -9.8676
    -9.0681  -8.7291  -8.0921  -7.6112  -6.2823

     occupation numbers 
     1.0000   1.0000   1.0000   1.0000   1.0000   1.0000   1.0000   1.0000
     1.0000   1.0000   1.0000   1.0000   1.0000   1.0000   1.0000   1.0000
     1.0000   1.0000   1.0000   1.0000   1.0000

          k =-0.4545-0.3619 0.0000 ( 14473 PWs)   bands (ev):

   -77.8617 -49.3899 -49.1978 -49.0159 -21.8597 -21.7895 -20.5473 -19.9070
   -15.6112 -15.3623 -12.3040 -11.8594 -11.2931 -11.1883 -11.0073  -9.6596
    -9.1039  -8.2089  -7.9741  -7.6846  -6.3551

     occupation numbers 
     1.0000   1.0000   1.0000   1.0000   1.0000   1.0000   1.0000   1.0000
     1.0000   1.0000   1.0000   1.0000   1.0000   1.0000   1.0000   1.0000
     1.0000   1.0000   1.0000   1.0000   1.0000

          k =-0.3636-0.2068 0.0000 ( 14479 PWs)   bands (ev):

   -77.8693 -49.3469 -49.1720 -49.0264 -22.6811 -22.6107 -20.7341 -19.9203
   -14.7384 -14.4592 -12.5640 -11.3415 -10.9346 -10.5817 -10.5252  -9.3818
    -8.9201  -8.5483  -7.8828  -7.7892  -6.4703

     occupation numbers 
     1.0000   1.0000   1.0000   1.0000   1.0000   1.0000   1.0000   1.0000
     1.0000   1.0000   1.0000   1.0000   1.0000   1.0000   1.0000   1.0000
     1.0000   1.0000   1.0000   1.0000   1.0000

          k =-0.3636-0.1034 0.0000 ( 14506 PWs)   bands (ev):

   -77.8725 -49.3129 -49.1758 -49.0311 -22.9858 -22.9128 -20.8537 -19.9549
   -14.1478 -13.7735 -12.5702 -11.2539 -10.9746 -10.7860 -10.5149  -9.5062
    -8.7163  -8.4521  -8.1699  -7.7478  -6.4757

     occupation numbers 
     1.0000   1.0000   1.0000   1.0000   1.0000   1.0000   1.0000   1.0000
     1.0000   1.0000   1.0000   1.0000   1.0000   1.0000   1.0000   1.0000
     1.0000   1.0000   1.0000   1.0000   1.0000

          k =-0.3636 0.0000 0.0000 ( 14493 PWs)   bands (ev):

   -77.8738 -49.2934 -49.1842 -49.0328 -23.0939 -23.0199 -20.9009 -19.9693
   -13.8419 -13.3277 -12.4472 -11.4730 -11.3151 -10.8975 -10.3789  -9.6447
    -8.7247  -8.4441  -8.1052  -7.7692  -6.4775

     occupation numbers 
     1.0000   1.0000   1.0000   1.0000   1.0000   1.0000   1.0000   1.0000
     1.0000   1.0000   1.0000   1.0000   1.0000   1.0000   1.0000   1.0000
     1.0000   1.0000   1.0000   1.0000   1.0000

          k =-0.3636 0.1034 0.0000 ( 14506 PWs)   bands (ev):

   -77.8725 -49.3129 -49.1758 -49.0311 -22.9857 -22.9128 -20.8539 -19.9549
   -14.1481 -13.7736 -12.5703 -11.2538 -10.9746 -10.7853 -10.5148  -9.5065
    -8.7165  -8.4526  -8.1698  -7.7476  -6.4752

     occupation numbers 
     1.0000   1.0000   1.0000   1.0000   1.0000   1.0000   1.0000   1.0000
     1.0000   1.0000   1.0000   1.0000   1.0000   1.0000   1.0000   1.0000
     1.0000   1.0000   1.0000   1.0000   1.0000

          k =-0.3636 0.2068 0.0000 ( 14479 PWs)   bands (ev):

   -77.8693 -49.3469 -49.1720 -49.0264 -22.6810 -22.6106 -20.7344 -19.9202
   -14.7388 -14.4592 -12.5642 -11.3415 -10.9343 -10.5807 -10.5253  -9.3817
    -8.9210  -8.5486  -7.8830  -7.7892  -6.4694

     occupation numbers 
     1.0000   1.0000   1.0000   1.0000   1.0000   1.0000   1.0000   1.0000
     1.0000   1.0000   1.0000   1.0000   1.0000   1.0000   1.0000   1.0000
     1.0000   1.0000   1.0000   1.0000   1.0000

          k =-0.3636 0.3102 0.0000 ( 14484 PWs)   bands (ev):

   -77.8650 -49.3683 -49.1905 -49.0204 -22.2452 -22.1770 -20.5976 -19.8839
   -15.1611 -14.9054 -12.4186 -11.6562 -11.2223 -10.9775 -10.9228  -9.7005
    -8.9207  -8.3501  -8.0494  -7.7166  -6.4133

     occupation numbers 
     1.0000   1.0000   1.0000   1.0000   1.0000   1.0000   1.0000   1.0000
     1.0000   1.0000   1.0000   1.0000   1.0000   1.0000   1.0000   1.0000
     1.0000   1.0000   1.0000   1.0000   1.0000

          k =-0.3636-0.7238 0.0000 ( 14456 PWs)   bands (ev):

   -77.8610 -49.3654 -49.2304 -49.0148 -21.8019 -21.7315 -20.4987 -19.8570
   -15.2146 -14.9571 -12.6756 -12.4926 -11.8070 -11.2393 -11.0579  -9.8476
    -9.0944  -8.7439  -8.1073  -7.6068  -6.2587

     occupation numbers 
     1.0000   1.0000   1.0000   1.0000   1.0000   1.0000   1.0000   1.0000
     1.0000   1.0000   1.0000   1.0000   1.0000   1.0000   1.0000   1.0000
     1.0000   1.0000   1.0000   1.0000   1.0000

          k =-0.3636-0.6204 0.0000 ( 14455 PWs)   bands (ev):

   -77.8587 -49.3400 -49.2779 -49.0115 -21.5181 -21.4403 -20.4551 -19.8394
   -14.8763 -14.5790 -13.6855 -13.5742 -11.5637 -11.2825 -10.9218  -9.9745
    -9.5836  -9.1239  -8.0398  -7.5009  -6.0869

     occupation numbers 
     1.0000   1.0000   1.0000   1.0000   1.0000   1.0000   1.0000   1.0000
     1.0000   1.0000   1.0000   1.0000   1.0000   1.0000   1.0000   1.0000
     1.0000   1.0000   1.0000   1.0000   1.0000

          k =-0.3636-0.5170 0.0000 ( 14455 PWs)   bands (ev):

   -77.8587 -49.3400 -49.2780 -49.0115 -21.5182 -21.4404 -20.4549 -19.8394
   -14.8760 -14.5789 -13.6860 -13.5742 -11.5636 -11.2824 -10.9215  -9.9747
    -9.5841  -9.1236  -8.0396  -7.5010  -6.0870

     occupation numbers 
     1.0000   1.0000   1.0000   1.0000   1.0000   1.0000   1.0000   1.0000
     1.0000   1.0000   1.0000   1.0000   1.0000   1.0000   1.0000   1.0000
     1.0000   1.0000   1.0000   1.0000   1.0000

          k =-0.3636-0.4136 0.0000 ( 14456 PWs)   bands (ev):

   -77.8610 -49.3654 -49.2304 -49.0148 -21.8021 -21.7316 -20.4984 -19.8570
   -15.2141 -14.9572 -12.6760 -12.4928 -11.8068 -11.2391 -11.0576  -9.8481
    -9.0944  -8.7437  -8.1066  -7.6068  -6.2591

     occupation numbers 
     1.0000   1.0000   1.0000   1.0000   1.0000   1.0000   1.0000   1.0000
     1.0000   1.0000   1.0000   1.0000   1.0000   1.0000   1.0000   1.0000
     1.0000   1.0000   1.0000   1.0000   1.0000

          k =-0.3636-0.3102 0.0000 ( 14484 PWs)   bands (ev):

   -77.8650 -49.3683 -49.1905 -49.0204 -22.2454 -22.1771 -20.5973 -19.8839
   -15.1607 -14.9055 -12.4183 -11.6563 -11.2226 -10.9776 -10.9231  -9.7009
    -8.9201  -8.3498  -8.0489  -7.7165  -6.4142

     occupation numbers 
     1.0000   1.0000   1.0000   1.0000   1.0000   1.0000   1.0000   1.0000
     1.0000   1.0000   1.0000   1.0000   1.0000   1.0000   1.0000   1.0000
     1.0000   1.0000   1.0000   1.0000   1.0000

          k =-0.2727-0.1551 0.0000 ( 14551 PWs)   bands (ev):

   -77.8795 -49.2719 -49.1541 -49.0406 -23.4739 -23.3964 -21.1153 -20.0785
   -13.7234 -13.0099 -12.4959 -11.1488 -10.5135 -10.2370 -10.1868  -8.9647
    -8.7955  -8.5909  -8.2615  -7.7001  -6.3360

     occupation numbers 
     1.0000   1.0000   1.0000   1.0000   1.0000   1.0000   1.0000   1.0000
     1.0000   1.0000   1.0000   1.0000   1.0000   1.0000   1.0000   1.0000
     1.0000   1.0000   1.0000   1.0000   1.0000

          k =-0.2727-0.0517 0.0000 ( 14554 PWs)   bands (ev):

   -77.8831 -49.2363 -49.1553 -49.0459 -23.7240 -23.6438 -21.2645 -20.1490
   -13.6180 -12.3002 -12.0334 -11.1601 -10.5541 -10.3227  -9.9922  -8.9748
    -8.8675  -8.4786  -8.2646  -7.5615  -6.2187

     occupation numbers 
     1.0000   1.0000   1.0000   1.0000   1.0000   1.0000   1.0000   1.0000
     1.0000   1.0000   1.0000   1.0000   1.0000   1.0000   1.0000   1.0000
     1.0000   1.0000   1.0000   1.0000   1.0000

          k =-0.2727 0.0517 0.0000 ( 14554 PWs)   bands (ev):

   -77.8831 -49.2363 -49.1552 -49.0459 -23.7240 -23.6438 -21.2646 -20.1490
   -13.6181 -12.3004 -12.0335 -11.1600 -10.5539 -10.3224  -9.9922  -8.9747
    -8.8675  -8.4785  -8.2651  -7.5614  -6.2183

     occupation numbers 
     1.0000   1.0000   1.0000   1.0000   1.0000   1.0000   1.0000   1.0000
     1.0000   1.0000   1.0000   1.0000   1.0000   1.0000   1.0000   1.0000
     1.0000   1.0000   1.0000   1.0000   1.0000

          k =-0.2727 0.1551 0.0000 ( 14551 PWs)   bands (ev):

   -77.8795 -49.2719 -49.1541 -49.0406 -23.4739 -23.3964 -21.1154 -20.0784
   -13.7238 -13.0101 -12.4960 -11.1484 -10.5137 -10.2358 -10.1870  -8.9644
    -8.7957  -8.5921  -8.2615  -7.7001  -6.3352

     occupation numbers 
     1.0000   1.0000   1.0000   1.0000   1.0000   1.0000   1.0000   1.0000
     1.0000   1.0000   1.0000   1.0000   1.0000   1.0000   1.0000   1.0000
     1.0000   1.0000   1.0000   1.0000   1.0000

          k =-0.2727 0.2585 0.0000 ( 14499 PWs)   bands (ev):

   -77.8733 -49.3126 -49.1712 -49.0319 -23.0054 -22.9323 -20.8680 -19.9661
   -14.1378 -13.7537 -12.5683 -11.2525 -10.9750 -10.8008 -10.5097  -9.4888
    -8.7259  -8.4591  -8.1889  -7.7572  -6.4539

     occupation numbers 
     1.0000   1.0000   1.0000   1.0000   1.0000   1.0000   1.0000   1.0000
     1.0000   1.0000   1.0000   1.0000   1.0000   1.0000   1.0000   1.0000
     1.0000   1.0000   1.0000   1.0000   1.0000

          k =-0.2727 0.3619 0.0000 ( 14446 PWs)   bands (ev):

   -77.8665 -49.3406 -49.2063 -49.0223 -22.3965 -22.3276 -20.6202 -19.8671
   -14.5987 -14.2985 -12.4181 -12.1410 -11.9717 -10.8857 -10.7319 -10.0464
    -8.7375  -8.5878  -8.1800  -7.7687  -6.4295

     occupation numbers 
     1.0000   1.0000   1.0000   1.0000   1.0000   1.0000   1.0000   1.0000
     1.0000   1.0000   1.0000   1.0000   1.0000   1.0000   1.0000   1.0000
     1.0000   1.0000   1.0000   1.0000   1.0000

          k =-0.2727-0.6721 0.0000 ( 14474 PWs)   bands (ev):

   -77.8613 -49.3491 -49.2460 -49.0150 -21.8105 -21.7404 -20.4837 -19.8380
   -14.8678 -14.5783 -13.2016 -13.0508 -11.8747 -11.1006 -10.8310 -10.0252
    -9.3924  -8.8129  -8.1269  -7.5970  -6.2264

     occupation numbers 
     1.0000   1.0000   1.0000   1.0000   1.0000   1.0000   1.0000   1.0000
     1.0000   1.0000   1.0000   1.0000   1.0000   1.0000   1.0000   1.0000
     1.0000   1.0000   1.0000   1.0000   1.0000

          k =-0.2727-0.5687 0.0000 ( 14432 PWs)   bands (ev):

   -77.8594 -49.3472 -49.2659 -49.0123 -21.5426 -21.4653 -20.4686 -19.8536
   -14.9339 -14.6418 -13.6000 -13.4825 -11.5679 -11.2770 -10.9331  -9.9480
    -9.5706  -9.1320  -8.0523  -7.5018  -6.0835

     occupation numbers 
     1.0000   1.0000   1.0000   1.0000   1.0000   1.0000   1.0000   1.0000
     1.0000   1.0000   1.0000   1.0000   1.0000   1.0000   1.0000   1.0000
     1.0000   1.0000   1.0000   1.0000   1.0000

          k =-0.2727-0.4653 0.0000 ( 14474 PWs)   bands (ev):

   -77.8613 -49.3491 -49.2460 -49.0150 -21.8106 -21.7405 -20.4835 -19.8380
   -14.8674 -14.5782 -13.2021 -13.0509 -11.8746 -11.1001 -10.8305 -10.0260
    -9.3928  -8.8124  -8.1263  -7.5971  -6.2268

     occupation numbers 
     1.0000   1.0000   1.0000   1.0000   1.0000   1.0000   1.0000   1.0000
     1.0000   1.0000   1.0000   1.0000   1.0000   1.0000   1.0000   1.0000
     1.0000   1.0000   1.0000   1.0000   1.0000

          k =-0.2727-0.3619 0.0000 ( 14446 PWs)   bands (ev):

   -77.8665 -49.3406 -49.2063 -49.0223 -22.3966 -22.3277 -20.6200 -19.8671
   -14.5982 -14.2984 -12.4182 -12.1415 -11.9718 -10.8854 -10.7316 -10.0468
    -8.7378  -8.5876  -8.1788  -7.7688  -6.4303

     occupation numbers 
     1.0000   1.0000   1.0000   1.0000   1.0000   1.0000   1.0000   1.0000
     1.0000   1.0000   1.0000   1.0000   1.0000   1.0000   1.0000   1.0000
     1.0000   1.0000   1.0000   1.0000   1.0000

          k =-0.2727-0.2585 0.0000 ( 14499 PWs)   bands (ev):

   -77.8733 -49.3126 -49.1713 -49.0319 -23.0054 -22.9323 -20.8678 -19.9662
   -14.1373 -13.7535 -12.5681 -11.2527 -10.9752 -10.8015 -10.5095  -9.4885
    -8.7259  -8.4587  -8.1886  -7.7570  -6.4549

     occupation numbers 
     1.0000   1.0000   1.0000   1.0000   1.0000   1.0000   1.0000   1.0000
     1.0000   1.0000   1.0000   1.0000   1.0000   1.0000   1.0000   1.0000
     1.0000   1.0000   1.0000   1.0000   1.0000

          k =-0.1818-0.1034 0.0000 ( 14557 PWs)   bands (ev):

   -77.8905 -49.1902 -49.1337 -49.0561 -24.1367 -24.0519 -21.5433 -20.2959
   -13.7820 -11.4968 -11.2626 -11.1482  -9.8381  -9.8116  -9.7713  -9.1426
    -8.6466  -8.3417  -8.1771  -7.5012  -5.9322

     occupation numbers 
     1.0000   1.0000   1.0000   1.0000   1.0000   1.0000   1.0000   1.0000
     1.0000   1.0000   1.0000   1.0000   1.0000   1.0000   1.0000   1.0000
     1.0000   1.0000   1.0000   1.0000   1.0000

          k =-0.1818 0.0000 0.0000 ( 14573 PWs)   bands (ev):

   -77.8930 -49.1634 -49.1373 -49.0596 -24.2731 -24.1866 -21.6404 -20.3463
   -13.8629 -11.4036 -10.8155 -10.7593  -9.9115  -9.7902  -9.4939  -9.2018
    -8.7791  -8.2194  -8.1131  -7.3840  -5.8095

     occupation numbers 
     1.0000   1.0000   1.0000   1.0000   1.0000   1.0000   1.0000   1.0000
     1.0000   1.0000   1.0000   1.0000   1.0000   1.0000   1.0000   1.0000
     1.0000   1.0000   1.0000   1.0000   1.0000

          k =-0.1818 0.1034 0.0000 ( 14557 PWs)   bands (ev):

   -77.8905 -49.1903 -49.1337 -49.0561 -24.1367 -24.0519 -21.5434 -20.2959
   -13.7821 -11.4967 -11.2634 -11.1481  -9.8379  -9.8108  -9.7715  -9.1426
    -8.6464  -8.3406  -8.1785  -7.5015  -5.9317

     occupation numbers 
     1.0000   1.0000   1.0000   1.0000   1.0000   1.0000   1.0000   1.0000
     1.0000   1.0000   1.0000   1.0000   1.0000   1.0000   1.0000   1.0000
     1.0000   1.0000   1.0000   1.0000   1.0000

          k =-0.1818 0.2068 0.0000 ( 14545 PWs)   bands (ev):

   -77.8839 -49.2420 -49.1442 -49.0467 -23.7403 -23.6600 -21.2790 -20.1612
   -13.6337 -12.3127 -12.0396 -11.1620 -10.5607 -10.3092  -9.9708  -8.9854
    -8.8516  -8.4604  -8.2413  -7.5850  -6.2132

     occupation numbers 
     1.0000   1.0000   1.0000   1.0000   1.0000   1.0000   1.0000   1.0000
     1.0000   1.0000   1.0000   1.0000   1.0000   1.0000   1.0000   1.0000
     1.0000   1.0000   1.0000   1.0000   1.0000

          k =-0.1818 0.3102 0.0000 ( 14487 PWs)   bands (ev):

   -77.8752 -49.2989 -49.1684 -49.0344 -23.1301 -23.0559 -20.9299 -19.9946
   -13.8737 -13.3546 -12.4590 -11.4276 -11.2640 -10.9040 -10.3568  -9.6147
    -8.7457  -8.4328  -8.0729  -7.8076  -6.4580

     occupation numbers 
     1.0000   1.0000   1.0000   1.0000   1.0000   1.0000   1.0000   1.0000
     1.0000   1.0000   1.0000   1.0000   1.0000   1.0000   1.0000   1.0000
     1.0000   1.0000   1.0000   1.0000   1.0000

          k =-0.1818 0.4136 0.0000 ( 14478 PWs)   bands (ev):

   -77.8673 -49.3467 -49.1949 -49.0232 -22.4136 -22.3447 -20.6361 -19.8843
   -14.6666 -14.3706 -12.4068 -12.0662 -11.8717 -10.8905 -10.7501 -10.0309
    -8.7064  -8.5773  -8.1565  -7.7794  -6.4418

     occupation numbers 
     1.0000   1.0000   1.0000   1.0000   1.0000   1.0000   1.0000   1.0000
     1.0000   1.0000   1.0000   1.0000   1.0000   1.0000   1.0000   1.0000
     1.0000   1.0000   1.0000   1.0000   1.0000

          k =-0.1818-0.6204 0.0000 ( 14479 PWs)   bands (ev):

   -77.8625 -49.3739 -49.2117 -49.0164 -21.8420 -21.7718 -20.5304 -19.8911
   -15.2998 -15.0399 -12.5629 -12.3640 -11.7761 -11.2583 -11.0483  -9.8401
    -9.0637  -8.6936  -8.1242  -7.6121  -6.2752

     occupation numbers 
     1.0000   1.0000   1.0000   1.0000   1.0000   1.0000   1.0000   1.0000
     1.0000   1.0000   1.0000   1.0000   1.0000   1.0000   1.0000   1.0000
     1.0000   1.0000   1.0000   1.0000   1.0000

          k =-0.1818-0.5170 0.0000 ( 14479 PWs)   bands (ev):

   -77.8625 -49.3739 -49.2117 -49.0164 -21.8420 -21.7718 -20.5304 -19.8911
   -15.2997 -15.0399 -12.5629 -12.3641 -11.7762 -11.2581 -11.0480  -9.8409
    -9.0633  -8.6936  -8.1238  -7.6121  -6.2755

     occupation numbers 
     1.0000   1.0000   1.0000   1.0000   1.0000   1.0000   1.0000   1.0000
     1.0000   1.0000   1.0000   1.0000   1.0000   1.0000   1.0000   1.0000
     1.0000   1.0000   1.0000   1.0000   1.0000

          k =-0.1818-0.4136 0.0000 ( 14478 PWs)   bands (ev):

   -77.8673 -49.3468 -49.1949 -49.0231 -22.4137 -22.3448 -20.6359 -19.8844
   -14.6663 -14.3706 -12.4068 -12.0666 -11.8719 -10.8901 -10.7497 -10.0317
    -8.7066  -8.5771  -8.1555  -7.7795  -6.4425

     occupation numbers 
     1.0000   1.0000   1.0000   1.0000   1.0000   1.0000   1.0000   1.0000
     1.0000   1.0000   1.0000   1.0000   1.0000   1.0000   1.0000   1.0000
     1.0000   1.0000   1.0000   1.0000   1.0000

          k =-0.1818-0.3102 0.0000 ( 14487 PWs)   bands (ev):

   -77.8752 -49.2989 -49.1685 -49.0344 -23.1301 -23.0559 -20.9297 -19.9946
   -13.8734 -13.3543 -12.4589 -11.4280 -11.2643 -10.9043 -10.3564  -9.6144
    -8.7457  -8.4329  -8.0733  -7.8065  -6.4588

     occupation numbers 
     1.0000   1.0000   1.0000   1.0000   1.0000   1.0000   1.0000   1.0000
     1.0000   1.0000   1.0000   1.0000   1.0000   1.0000   1.0000   1.0000
     1.0000   1.0000   1.0000   1.0000   1.0000

          k =-0.1818-0.2068 0.0000 ( 14545 PWs)   bands (ev):

   -77.8839 -49.2419 -49.1443 -49.0467 -23.7404 -23.6601 -21.2788 -20.1613
   -13.6334 -12.3123 -12.0393 -11.1623 -10.5611 -10.3098  -9.9707  -8.9853
    -8.8511  -8.4606  -8.2418  -7.5842  -6.2140

     occupation numbers 
     1.0000   1.0000   1.0000   1.0000   1.0000   1.0000   1.0000   1.0000
     1.0000   1.0000   1.0000   1.0000   1.0000   1.0000   1.0000   1.0000
     1.0000   1.0000   1.0000   1.0000   1.0000

          k =-0.0909-0.0517 0.0000 ( 14561 PWs)   bands (ev):

   -77.8989 -49.1342 -49.1113 -49.0678 -24.5629 -24.4728 -21.8587 -20.4650
   -14.0754 -11.4821  -9.9772  -9.8575  -9.4740  -9.4141  -9.3408  -9.2039
    -8.9032  -7.9381  -7.8108  -7.4084  -5.5609

     occupation numbers 
     1.0000   1.0000   1.0000   1.0000   1.0000   1.0000   1.0000   1.0000
     1.0000   1.0000   1.0000   1.0000   1.0000   1.0000   1.0000   1.0000
     1.0000   1.0000   1.0000   1.0000   1.0000

          k =-0.0909 0.0517 0.0000 ( 14561 PWs)   bands (ev):

   -77.8989 -49.1342 -49.1112 -49.0678 -24.5629 -24.4728 -21.8587 -20.4650
   -14.0754 -11.4820  -9.9780  -9.8579  -9.4729  -9.4139  -9.3408  -9.2042
    -8.9029  -7.9365  -7.8127  -7.4082  -5.5607

     occupation numbers 
     1.0000   1.0000   1.0000   1.0000   1.0000   1.0000   1.0000   1.0000
     1.0000   1.0000   1.0000   1.0000   1.0000   1.0000   1.0000   1.0000
     1.0000   1.0000   1.0000   1.0000   1.0000

          k =-0.0909 0.1551 0.0000 ( 14541 PWs)   bands (ev):

   -77.8936 -49.1806 -49.1160 -49.0602 -24.2836 -24.1971 -21.6504 -20.3552
   -13.8745 -11.4173 -10.9046 -10.8470  -9.8797  -9.6878  -9.4731  -9.2116
    -8.7050  -8.2057  -8.0887  -7.4048  -5.8140

     occupation numbers 
     1.0000   1.0000   1.0000   1.0000   1.0000   1.0000   1.0000   1.0000
     1.0000   1.0000   1.0000   1.0000   1.0000   1.0000   1.0000   1.0000
     1.0000   1.0000   1.0000   1.0000   1.0000

          k =-0.0909 0.2585 0.0000 ( 14530 PWs)   bands (ev):

   -77.8845 -49.2500 -49.1321 -49.0474 -23.7509 -23.6705 -21.2891 -20.1714
   -13.6558 -12.4003 -12.1157 -11.1786 -10.5029 -10.1923  -9.9382  -8.9943
    -8.8397  -8.4095  -8.2159  -7.5947  -6.2218

     occupation numbers 
     1.0000   1.0000   1.0000   1.0000   1.0000   1.0000   1.0000   1.0000
     1.0000   1.0000   1.0000   1.0000   1.0000   1.0000   1.0000   1.0000
     1.0000   1.0000   1.0000   1.0000   1.0000

          k =-0.0909 0.3619 0.0000 ( 14507 PWs)   bands (ev):

   -77.8746 -49.3230 -49.1514 -49.0334 -23.0326 -22.9595 -20.8936 -19.9930
   -14.2374 -13.8666 -12.5949 -11.2390 -10.9241 -10.6543 -10.4356  -9.4676
    -8.7345  -8.4038  -8.1131  -7.7788  -6.4721

     occupation numbers 
     1.0000   1.0000   1.0000   1.0000   1.0000   1.0000   1.0000   1.0000
     1.0000   1.0000   1.0000   1.0000   1.0000   1.0000   1.0000   1.0000
     1.0000   1.0000   1.0000   1.0000   1.0000

          k =-0.0909 0.4653 0.0000 ( 14482 PWs)   bands (ev):

   -77.8671 -49.3780 -49.1665 -49.0226 -22.2935 -22.2254 -20.6403 -19.9298
   -15.2647 -15.0053 -12.4232 -11.6433 -11.1142 -10.8611 -10.8234  -9.6943
    -8.8599  -8.3641  -7.9773  -7.7218  -6.4424

     occupation numbers 
     1.0000   1.0000   1.0000   1.0000   1.0000   1.0000   1.0000   1.0000
     1.0000   1.0000   1.0000   1.0000   1.0000   1.0000   1.0000   1.0000
     1.0000   1.0000   1.0000   1.0000   1.0000

          k =-0.0909-0.5687 0.0000 ( 14530 PWs)   bands (ev):

   -77.8642 -49.3983 -49.1721 -49.0187 -21.9262 -21.8564 -20.5992 -19.9618
   -15.6988 -15.4438 -12.3043 -11.8570 -11.2133 -11.0072 -10.9101  -9.6597
    -9.0476  -8.2325  -7.9202  -7.6866  -6.3746

     occupation numbers 
     1.0000   1.0000   1.0000   1.0000   1.0000   1.0000   1.0000   1.0000
     1.0000   1.0000   1.0000   1.0000   1.0000   1.0000   1.0000   1.0000
     1.0000   1.0000   1.0000   1.0000   1.0000

          k =-0.0909-0.4653 0.0000 ( 14482 PWs)   bands (ev):

   -77.8671 -49.3780 -49.1665 -49.0226 -22.2935 -22.2254 -20.6403 -19.9298
   -15.2646 -15.0053 -12.4232 -11.6433 -11.1143 -10.8609 -10.8235  -9.6950
    -8.8593  -8.3641  -7.9770  -7.7218  -6.4429

     occupation numbers 
     1.0000   1.0000   1.0000   1.0000   1.0000   1.0000   1.0000   1.0000
     1.0000   1.0000   1.0000   1.0000   1.0000   1.0000   1.0000   1.0000
     1.0000   1.0000   1.0000   1.0000   1.0000

          k =-0.0909-0.3619 0.0000 ( 14507 PWs)   bands (ev):

   -77.8746 -49.3230 -49.1514 -49.0334 -23.0326 -22.9595 -20.8936 -19.9931
   -14.2372 -13.8665 -12.5949 -11.2390 -10.9241 -10.6545 -10.4355  -9.4677
    -8.7345  -8.4040  -8.1127  -7.7784  -6.4726

     occupation numbers 
     1.0000   1.0000   1.0000   1.0000   1.0000   1.0000   1.0000   1.0000
     1.0000   1.0000   1.0000   1.0000   1.0000   1.0000   1.0000   1.0000
     1.0000   1.0000   1.0000   1.0000   1.0000

          k =-0.0909-0.2585 0.0000 ( 14530 PWs)   bands (ev):

   -77.8845 -49.2500 -49.1321 -49.0474 -23.7509 -23.6706 -21.2891 -20.1714
   -13.6557 -12.4000 -12.1155 -11.1788 -10.5029 -10.1927  -9.9381  -8.9942
    -8.8391  -8.4096  -8.2170  -7.5937  -6.2223

     occupation numbers 
     1.0000   1.0000   1.0000   1.0000   1.0000   1.0000   1.0000   1.0000
     1.0000   1.0000   1.0000   1.0000   1.0000   1.0000   1.0000   1.0000
     1.0000   1.0000   1.0000   1.0000   1.0000

          k =-0.0909-0.1551 0.0000 ( 14541 PWs)   bands (ev):

   -77.8936 -49.1805 -49.1160 -49.0602 -24.2836 -24.1971 -21.6504 -20.3552
   -13.8745 -11.4174 -10.9036 -10.8471  -9.8800  -9.6884  -9.4731  -9.2116
    -8.7053  -8.2045  -8.0900  -7.4043  -5.8144

     occupation numbers 
     1.0000   1.0000   1.0000   1.0000   1.0000   1.0000   1.0000   1.0000
     1.0000   1.0000   1.0000   1.0000   1.0000   1.0000   1.0000   1.0000
     1.0000   1.0000   1.0000   1.0000   1.0000

     highest occupied level (ev):    -5.4544

!    total energy              =    -263.34638727 Ry
     estimated scf accuracy    <          2.6E-12 Ry

     The total energy is the sum of the following terms:
     one-electron contribution =   -6692.82524444 Ry
     hartree contribution      =    3342.87077132 Ry
     xc contribution           =     -44.79127220 Ry
     ewald contribution        =    3131.39935806 Ry

     convergence has been achieved in  18 iterations

     Forces acting on atoms (cartesian axes, Ry/au):

     atom    1 type  1   force =    -0.00006316   -0.00095102   -0.00370961
     atom    2 type  2   force =     0.00004814    0.00105400   -0.00821436
     atom    3 type  2   force =     0.00003055   -0.00008814    0.01927358
     atom    4 type  2   force =    -0.00000832    0.00077478   -0.00459256
     atom    5 type  2   force =     0.00004345   -0.00081208    0.00332399
     atom    6 type  3   force =     0.00004441    0.00164993   -0.00391141
     atom    7 type  3   force =    -0.00009507   -0.00162746   -0.00216963
     The non-local contrib.  to forces
     atom    1 type  1   force =    -0.00005107   -0.00233324   -0.00594773
     atom    2 type  2   force =     0.00002202   -0.00925213   -0.09023085
     atom    3 type  2   force =    -0.00023215   -0.00884923    0.12430903
     atom    4 type  2   force =    -0.00041429    0.01419997   -0.88948427
     atom    5 type  2   force =    -0.00022191   -0.01390923    0.85161319
     atom    6 type  3   force =    -0.00005142   -0.01995392   -0.11146547
     atom    7 type  3   force =    -0.00057761    0.02009504    0.08033336
     The ionic contribution  to forces
     atom    1 type  1   force =    -0.00236093   -0.26669958   -0.13424701
     atom    2 type  2   force =     0.00060568    0.14212718  -43.33396988
     atom    3 type  2   force =     0.00131187    0.12231488   43.45316553
     atom    4 type  2   force =     0.00089347   -0.05367243   89.83965876
     atom    5 type  2   force =     0.00017076    0.05305124  -89.69648002
     atom    6 type  3   force =     0.00022421   -0.04696794  -62.33333522
     atom    7 type  3   force =    -0.00084506    0.04984664   62.20520786
     The local contribution  to forces
     atom    1 type  1   force =     0.00220968    0.26814266    0.13656156
     atom    2 type  2   force =    -0.00071877   -0.13176023   43.41605259
     atom    3 type  2   force =    -0.00118839   -0.11349296  -43.55813349
     atom    4 type  2   force =    -0.00062671    0.04030805  -88.95470230
     atom    5 type  2   force =    -0.00004462   -0.03989328   88.84825513
     atom    6 type  3   force =    -0.00026760    0.06863260   62.44095379
     atom    7 type  3   force =     0.00118839   -0.07150833  -62.28764608
     The core correction contribution to forces
     atom    1 type  1   force =     0.00000000    0.00000000    0.00000000
     atom    2 type  2   force =     0.00000000    0.00000000    0.00000000
     atom    3 type  2   force =     0.00000000    0.00000000    0.00000000
     atom    4 type  2   force =     0.00000000    0.00000000    0.00000000
     atom    5 type  2   force =     0.00000000    0.00000000    0.00000000
     atom    6 type  3   force =     0.00000000    0.00000000    0.00000000
     atom    7 type  3   force =     0.00000000    0.00000000    0.00000000
     The Hubbard contrib.    to forces
     atom    1 type  1   force =     0.00000000    0.00000000    0.00000000
     atom    2 type  2   force =     0.00000000    0.00000000    0.00000000
     atom    3 type  2   force =     0.00000000    0.00000000    0.00000000
     atom    4 type  2   force =     0.00000000    0.00000000    0.00000000
     atom    5 type  2   force =     0.00000000    0.00000000    0.00000000
     atom    6 type  3   force =     0.00000000    0.00000000    0.00000000
     atom    7 type  3   force =     0.00000000    0.00000000    0.00000000
     The SCF correction term to forces
     atom    1 type  1   force =    -0.00000004   -0.00000003   -0.00001303
     atom    2 type  2   force =     0.00000000   -0.00000001   -0.00000282
     atom    3 type  2   force =    -0.00000000   -0.00000002   -0.00000410
     atom    4 type  2   force =    -0.00000000    0.00000000   -0.00000135
     atom    5 type  2   force =     0.00000000    0.00000000   -0.00000092
     atom    6 type  3   force =     0.00000000   -0.00000000   -0.00000112
     atom    7 type  3   force =     0.00000000    0.00000000   -0.00000137

     Total force =     0.022661     Total SCF correction =     0.000014
     Energy error            =      1.1E-03 Ry
     Gradient error          =      1.9E-02 Ry/Bohr

     number of scf cycles    =   9
     number of bfgs steps    =   8

     energy             old  =    -263.3452886476 Ry
     energy             new  =    -263.3463872687 Ry

     CASE: energy            _new < energy            _old

     new trust radius        =       0.0241042173 bohr
     new conv_thr            =            1.1E-11 Ry


ATOMIC_POSITIONS (angstrom)
Cr               2.2010865423        0.3512409371       11.0250603656
N                0.8002918898        1.1716302714        9.8758808952
N                0.8002009308        1.1764448973       12.1888637119
N                2.2006327165        0.3424191409       14.5031874562
N               -0.5999246530        2.0023232989        7.5850815149
Si               0.8007902964        1.1724650855        8.1293423136
Si               0.8001798329        1.1722418124       13.9487304058



     Writing config-only to output data dir ./tmp/crsi2n4.save/ :
     XML data file
     NEW-OLD atomic charge density approx. for the potential

     negative rho (up, down):  2.411E-07 0.000E+00

     total cpu time spent up to now is     4159.5 secs

     Self-consistent Calculation
[tb_dev] Currently allocated     0.00E+00 Mbytes, locked:    0 /   0
[tb_pin] Currently allocated     0.00E+00 Mbytes, locked:    0 /   0

     iteration #  1     ecut=    80.00 Ry     beta= 0.40
     Davidson diagonalization with overlap

---- Real-time Memory Report at c_bands before calling an iterative solver
          1424 MiB given to the printing process from OS
             0 MiB allocation reported by mallinfo(arena+hblkhd)
         15867 MiB available memory on the node where the printing process lives
     GPU memory used/free/total (MiB): 1213 / 10700 / 11914
------------------
     ethr =  1.00E-06,  avg # of iterations =  5.9

     negative rho (up, down):  1.259E-07 0.000E+00

     total cpu time spent up to now is     4181.5 secs

     total energy              =    -263.34663405 Ry
     estimated scf accuracy    <       0.00021266 Ry
[tb_dev] Currently allocated     2.67E-05 Mbytes, locked:    0 /   1
[tb_pin] Currently allocated     0.00E+00 Mbytes, locked:    0 /   0

     iteration #  2     ecut=    80.00 Ry     beta= 0.40
     Davidson diagonalization with overlap

---- Real-time Memory Report at c_bands before calling an iterative solver
          1424 MiB given to the printing process from OS
             0 MiB allocation reported by mallinfo(arena+hblkhd)
         15837 MiB available memory on the node where the printing process lives
     GPU memory used/free/total (MiB): 1213 / 10700 / 11914
------------------
     ethr =  5.06E-07,  avg # of iterations =  6.6

     negative rho (up, down):  1.952E-07 0.000E+00

     total cpu time spent up to now is     4201.0 secs

     total energy              =    -263.34663566 Ry
     estimated scf accuracy    <       0.00035236 Ry
[tb_dev] Currently allocated     2.67E-05 Mbytes, locked:    0 /   1
[tb_pin] Currently allocated     0.00E+00 Mbytes, locked:    0 /   0

     iteration #  3     ecut=    80.00 Ry     beta= 0.40
     Davidson diagonalization with overlap

---- Real-time Memory Report at c_bands before calling an iterative solver
          1424 MiB given to the printing process from OS
             0 MiB allocation reported by mallinfo(arena+hblkhd)
         15836 MiB available memory on the node where the printing process lives
     GPU memory used/free/total (MiB): 1213 / 10700 / 11914
------------------
     ethr =  5.06E-07,  avg # of iterations =  5.7

     negative rho (up, down):  9.118E-08 0.000E+00

     total cpu time spent up to now is     4217.0 secs

     total energy              =    -263.34669394 Ry
     estimated scf accuracy    <       0.00004818 Ry
[tb_dev] Currently allocated     2.67E-05 Mbytes, locked:    0 /   1
[tb_pin] Currently allocated     0.00E+00 Mbytes, locked:    0 /   0

     iteration #  4     ecut=    80.00 Ry     beta= 0.40
     Davidson diagonalization with overlap

---- Real-time Memory Report at c_bands before calling an iterative solver
          1425 MiB given to the printing process from OS
             0 MiB allocation reported by mallinfo(arena+hblkhd)
         15837 MiB available memory on the node where the printing process lives
     GPU memory used/free/total (MiB): 1213 / 10700 / 11914
------------------
     ethr =  1.15E-07,  avg # of iterations =  4.7

     negative rho (up, down):  5.507E-08 0.000E+00

     total cpu time spent up to now is     4231.9 secs

     total energy              =    -263.34669917 Ry
     estimated scf accuracy    <       0.00000886 Ry
[tb_dev] Currently allocated     2.67E-05 Mbytes, locked:    0 /   1
[tb_pin] Currently allocated     0.00E+00 Mbytes, locked:    0 /   0

     iteration #  5     ecut=    80.00 Ry     beta= 0.40
     Davidson diagonalization with overlap

---- Real-time Memory Report at c_bands before calling an iterative solver
          1425 MiB given to the printing process from OS
             0 MiB allocation reported by mallinfo(arena+hblkhd)
         15840 MiB available memory on the node where the printing process lives
     GPU memory used/free/total (MiB): 1213 / 10700 / 11914
------------------
     ethr =  2.11E-08,  avg # of iterations =  5.5

     total cpu time spent up to now is     4248.2 secs

     total energy              =    -263.34670142 Ry
     estimated scf accuracy    <       0.00000143 Ry
[tb_dev] Currently allocated     2.67E-05 Mbytes, locked:    0 /   1
[tb_pin] Currently allocated     0.00E+00 Mbytes, locked:    0 /   0

     iteration #  6     ecut=    80.00 Ry     beta= 0.40
     Davidson diagonalization with overlap

---- Real-time Memory Report at c_bands before calling an iterative solver
          1425 MiB given to the printing process from OS
             0 MiB allocation reported by mallinfo(arena+hblkhd)
         15835 MiB available memory on the node where the printing process lives
     GPU memory used/free/total (MiB): 1213 / 10700 / 11914
------------------
     ethr =  3.40E-09,  avg # of iterations =  6.0

     total cpu time spent up to now is     4265.2 secs

     total energy              =    -263.34670173 Ry
     estimated scf accuracy    <       0.00000057 Ry
[tb_dev] Currently allocated     2.67E-05 Mbytes, locked:    0 /   1
[tb_pin] Currently allocated     0.00E+00 Mbytes, locked:    0 /   0

     iteration #  7     ecut=    80.00 Ry     beta= 0.40
     Davidson diagonalization with overlap

---- Real-time Memory Report at c_bands before calling an iterative solver
          1425 MiB given to the printing process from OS
             0 MiB allocation reported by mallinfo(arena+hblkhd)
         15852 MiB available memory on the node where the printing process lives
     GPU memory used/free/total (MiB): 1213 / 10700 / 11914
------------------
     ethr =  1.35E-09,  avg # of iterations =  3.2

     total cpu time spent up to now is     4277.6 secs

     total energy              =    -263.34670176 Ry
     estimated scf accuracy    <       0.00000015 Ry
[tb_dev] Currently allocated     2.67E-05 Mbytes, locked:    0 /   1
[tb_pin] Currently allocated     0.00E+00 Mbytes, locked:    0 /   0

     iteration #  8     ecut=    80.00 Ry     beta= 0.40
     Davidson diagonalization with overlap

---- Real-time Memory Report at c_bands before calling an iterative solver
          1425 MiB given to the printing process from OS
             0 MiB allocation reported by mallinfo(arena+hblkhd)
         15837 MiB available memory on the node where the printing process lives
     GPU memory used/free/total (MiB): 1213 / 10700 / 11914
------------------
     ethr =  3.58E-10,  avg # of iterations =  8.0

     total cpu time spent up to now is     4298.2 secs

     total energy              =    -263.34670180 Ry
     estimated scf accuracy    <       0.00000034 Ry
[tb_dev] Currently allocated     2.67E-05 Mbytes, locked:    0 /   1
[tb_pin] Currently allocated     0.00E+00 Mbytes, locked:    0 /   0

     iteration #  9     ecut=    80.00 Ry     beta= 0.40
     Davidson diagonalization with overlap

---- Real-time Memory Report at c_bands before calling an iterative solver
          1425 MiB given to the printing process from OS
             0 MiB allocation reported by mallinfo(arena+hblkhd)
         15848 MiB available memory on the node where the printing process lives
     GPU memory used/free/total (MiB): 1213 / 10700 / 11914
------------------
     ethr =  3.58E-10,  avg # of iterations =  4.4

     total cpu time spent up to now is     4313.2 secs

     total energy              =    -263.34670181 Ry
     estimated scf accuracy    <       0.00000005 Ry
[tb_dev] Currently allocated     2.67E-05 Mbytes, locked:    0 /   1
[tb_pin] Currently allocated     0.00E+00 Mbytes, locked:    0 /   0

     iteration # 10     ecut=    80.00 Ry     beta= 0.40
     Davidson diagonalization with overlap

---- Real-time Memory Report at c_bands before calling an iterative solver
          1428 MiB given to the printing process from OS
             0 MiB allocation reported by mallinfo(arena+hblkhd)
         15845 MiB available memory on the node where the printing process lives
     GPU memory used/free/total (MiB): 1213 / 10700 / 11914
------------------
     ethr =  1.11E-10,  avg # of iterations =  7.5

     total cpu time spent up to now is     4333.2 secs

     total energy              =    -263.34670183 Ry
     estimated scf accuracy    <       0.00000004 Ry
[tb_dev] Currently allocated     2.67E-05 Mbytes, locked:    0 /   1
[tb_pin] Currently allocated     0.00E+00 Mbytes, locked:    0 /   0

     iteration # 11     ecut=    80.00 Ry     beta= 0.40
     Davidson diagonalization with overlap

---- Real-time Memory Report at c_bands before calling an iterative solver
          1428 MiB given to the printing process from OS
             0 MiB allocation reported by mallinfo(arena+hblkhd)
         15840 MiB available memory on the node where the printing process lives
     GPU memory used/free/total (MiB): 1213 / 10700 / 11914
------------------
     ethr =  1.04E-10,  avg # of iterations =  2.5

     total cpu time spent up to now is     4344.5 secs

     total energy              =    -263.34670183 Ry
     estimated scf accuracy    <       0.00000001 Ry
[tb_dev] Currently allocated     2.67E-05 Mbytes, locked:    0 /   1
[tb_pin] Currently allocated     0.00E+00 Mbytes, locked:    0 /   0

     iteration # 12     ecut=    80.00 Ry     beta= 0.40
     Davidson diagonalization with overlap

---- Real-time Memory Report at c_bands before calling an iterative solver
          1428 MiB given to the printing process from OS
             0 MiB allocation reported by mallinfo(arena+hblkhd)
         15830 MiB available memory on the node where the printing process lives
     GPU memory used/free/total (MiB): 1213 / 10700 / 11914
------------------
     ethr =  2.76E-11,  avg # of iterations =  6.1

     total cpu time spent up to now is     4361.7 secs

     total energy              =    -263.34670183 Ry
     estimated scf accuracy    <          4.6E-09 Ry
[tb_dev] Currently allocated     2.67E-05 Mbytes, locked:    0 /   1
[tb_pin] Currently allocated     0.00E+00 Mbytes, locked:    0 /   0

     iteration # 13     ecut=    80.00 Ry     beta= 0.40
     Davidson diagonalization with overlap

---- Real-time Memory Report at c_bands before calling an iterative solver
          1429 MiB given to the printing process from OS
             0 MiB allocation reported by mallinfo(arena+hblkhd)
         15834 MiB available memory on the node where the printing process lives
     GPU memory used/free/total (MiB): 1213 / 10700 / 11914
------------------
     ethr =  1.09E-11,  avg # of iterations =  2.9

     total cpu time spent up to now is     4373.7 secs

     total energy              =    -263.34670183 Ry
     estimated scf accuracy    <          1.1E-09 Ry
[tb_dev] Currently allocated     2.67E-05 Mbytes, locked:    0 /   1
[tb_pin] Currently allocated     0.00E+00 Mbytes, locked:    0 /   0

     iteration # 14     ecut=    80.00 Ry     beta= 0.40
     Davidson diagonalization with overlap

---- Real-time Memory Report at c_bands before calling an iterative solver
          1429 MiB given to the printing process from OS
             0 MiB allocation reported by mallinfo(arena+hblkhd)
         15838 MiB available memory on the node where the printing process lives
     GPU memory used/free/total (MiB): 1213 / 10700 / 11914
------------------
     ethr =  2.73E-12,  avg # of iterations =  7.6

     total cpu time spent up to now is     4392.8 secs

     total energy              =    -263.34670183 Ry
     estimated scf accuracy    <          2.4E-09 Ry
[tb_dev] Currently allocated     2.67E-05 Mbytes, locked:    0 /   1
[tb_pin] Currently allocated     0.00E+00 Mbytes, locked:    0 /   0

     iteration # 15     ecut=    80.00 Ry     beta= 0.40
     Davidson diagonalization with overlap

---- Real-time Memory Report at c_bands before calling an iterative solver
          1429 MiB given to the printing process from OS
             0 MiB allocation reported by mallinfo(arena+hblkhd)
         15837 MiB available memory on the node where the printing process lives
     GPU memory used/free/total (MiB): 1213 / 10700 / 11914
------------------
     ethr =  2.73E-12,  avg # of iterations =  2.3

     total cpu time spent up to now is     4403.5 secs

     total energy              =    -263.34670183 Ry
     estimated scf accuracy    <          1.2E-09 Ry
[tb_dev] Currently allocated     2.67E-05 Mbytes, locked:    0 /   1
[tb_pin] Currently allocated     0.00E+00 Mbytes, locked:    0 /   0

     iteration # 16     ecut=    80.00 Ry     beta= 0.40
     Davidson diagonalization with overlap

---- Real-time Memory Report at c_bands before calling an iterative solver
          1430 MiB given to the printing process from OS
             0 MiB allocation reported by mallinfo(arena+hblkhd)
         15833 MiB available memory on the node where the printing process lives
     GPU memory used/free/total (MiB): 1213 / 10700 / 11914
------------------
     ethr =  2.73E-12,  avg # of iterations =  4.4

     total cpu time spent up to now is     4417.7 secs

     total energy              =    -263.34670183 Ry
     estimated scf accuracy    <          9.4E-11 Ry
[tb_dev] Currently allocated     2.67E-05 Mbytes, locked:    0 /   1
[tb_pin] Currently allocated     0.00E+00 Mbytes, locked:    0 /   0

     iteration # 17     ecut=    80.00 Ry     beta= 0.40
     Davidson diagonalization with overlap

---- Real-time Memory Report at c_bands before calling an iterative solver
          1430 MiB given to the printing process from OS
             0 MiB allocation reported by mallinfo(arena+hblkhd)
         15844 MiB available memory on the node where the printing process lives
     GPU memory used/free/total (MiB): 1213 / 10700 / 11914
------------------
     ethr =  2.23E-13,  avg # of iterations =  7.8

     total cpu time spent up to now is     4438.3 secs

     total energy              =    -263.34670183 Ry
     estimated scf accuracy    <          1.1E-10 Ry
[tb_dev] Currently allocated     2.67E-05 Mbytes, locked:    0 /   1
[tb_pin] Currently allocated     0.00E+00 Mbytes, locked:    0 /   0

     iteration # 18     ecut=    80.00 Ry     beta= 0.40
     Davidson diagonalization with overlap

---- Real-time Memory Report at c_bands before calling an iterative solver
          1430 MiB given to the printing process from OS
             0 MiB allocation reported by mallinfo(arena+hblkhd)
         15845 MiB available memory on the node where the printing process lives
     GPU memory used/free/total (MiB): 1213 / 10700 / 11914
------------------
     ethr =  2.23E-13,  avg # of iterations =  1.7

     total cpu time spent up to now is     4448.1 secs

     total energy              =    -263.34670183 Ry
     estimated scf accuracy    <          5.1E-11 Ry
[tb_dev] Currently allocated     2.67E-05 Mbytes, locked:    0 /   1
[tb_pin] Currently allocated     0.00E+00 Mbytes, locked:    0 /   0

     iteration # 19     ecut=    80.00 Ry     beta= 0.40
     Davidson diagonalization with overlap

---- Real-time Memory Report at c_bands before calling an iterative solver
          1430 MiB given to the printing process from OS
             0 MiB allocation reported by mallinfo(arena+hblkhd)
         15842 MiB available memory on the node where the printing process lives
     GPU memory used/free/total (MiB): 1213 / 10700 / 11914
------------------
     ethr =  1.22E-13,  avg # of iterations =  5.2

     total cpu time spent up to now is     4463.5 secs

     total energy              =    -263.34670183 Ry
     estimated scf accuracy    <          1.4E-11 Ry
[tb_dev] Currently allocated     2.67E-05 Mbytes, locked:    0 /   1
[tb_pin] Currently allocated     0.00E+00 Mbytes, locked:    0 /   0

     iteration # 20     ecut=    80.00 Ry     beta= 0.40
     Davidson diagonalization with overlap

---- Real-time Memory Report at c_bands before calling an iterative solver
          1430 MiB given to the printing process from OS
             0 MiB allocation reported by mallinfo(arena+hblkhd)
         15857 MiB available memory on the node where the printing process lives
     GPU memory used/free/total (MiB): 1213 / 10700 / 11914
------------------
     ethr =  1.00E-13,  avg # of iterations =  1.0

     total cpu time spent up to now is     4472.1 secs

     total energy              =    -263.34670183 Ry
     estimated scf accuracy    <          1.5E-11 Ry
[tb_dev] Currently allocated     2.67E-05 Mbytes, locked:    0 /   1
[tb_pin] Currently allocated     0.00E+00 Mbytes, locked:    0 /   0

     iteration # 21     ecut=    80.00 Ry     beta= 0.40
     Davidson diagonalization with overlap

---- Real-time Memory Report at c_bands before calling an iterative solver
          1431 MiB given to the printing process from OS
             0 MiB allocation reported by mallinfo(arena+hblkhd)
         15863 MiB available memory on the node where the printing process lives
     GPU memory used/free/total (MiB): 1213 / 10700 / 11914
------------------
     ethr =  1.00E-13,  avg # of iterations =  1.0

     total cpu time spent up to now is     4480.7 secs

     End of self-consistent calculation

          k = 0.0000 0.0000 0.0000 ( 14509 PWs)   bands (ev):

   -77.8748 -49.0889 -49.0611 -49.0463 -24.6899 -24.6124 -21.9010 -20.5023
   -14.1285 -11.5152  -9.5617  -9.3700  -9.3197  -9.1941  -9.1402  -8.9470
    -8.8128  -7.6434  -7.5886  -7.5558  -5.4567

     occupation numbers 
     1.0000   1.0000   1.0000   1.0000   1.0000   1.0000   1.0000   1.0000
     1.0000   1.0000   1.0000   1.0000   1.0000   1.0000   1.0000   1.0000
     1.0000   1.0000   1.0000   1.0000   1.0000

          k = 0.0000 0.1034 0.0000 ( 14525 PWs)   bands (ev):

   -77.8719 -49.1116 -49.0660 -49.0422 -24.5472 -24.4719 -21.7905 -20.4427
   -14.0133 -11.4635 -10.0706  -9.9840  -9.3514  -9.3135  -9.2786  -9.1944
    -8.7263  -7.9044  -7.6966  -7.4207  -5.5655

     occupation numbers 
     1.0000   1.0000   1.0000   1.0000   1.0000   1.0000   1.0000   1.0000
     1.0000   1.0000   1.0000   1.0000   1.0000   1.0000   1.0000   1.0000
     1.0000   1.0000   1.0000   1.0000   1.0000

          k = 0.0000 0.2068 0.0000 ( 14553 PWs)   bands (ev):

   -77.8641 -49.1723 -49.0792 -49.0311 -24.1309 -24.0618 -21.4862 -20.2818
   -13.7331 -11.5693 -11.3756 -11.2060  -9.8102  -9.6307  -9.6201  -9.1187
    -8.4661  -8.3050  -8.0333  -7.5285  -5.9375

     occupation numbers 
     1.0000   1.0000   1.0000   1.0000   1.0000   1.0000   1.0000   1.0000
     1.0000   1.0000   1.0000   1.0000   1.0000   1.0000   1.0000   1.0000
     1.0000   1.0000   1.0000   1.0000   1.0000

          k = 0.0000 0.3102 0.0000 ( 14539 PWs)   bands (ev):

   -77.8539 -49.2510 -49.0964 -49.0167 -23.4835 -23.4238 -21.0744 -20.0779
   -13.7545 -13.1270 -12.5300 -11.1505 -10.4986 -10.0227 -10.0049  -8.9588
    -8.7539  -8.4292  -8.0786  -7.7260  -6.3345

     occupation numbers 
     1.0000   1.0000   1.0000   1.0000   1.0000   1.0000   1.0000   1.0000
     1.0000   1.0000   1.0000   1.0000   1.0000   1.0000   1.0000   1.0000
     1.0000   1.0000   1.0000   1.0000   1.0000

          k = 0.0000 0.4136 0.0000 ( 14485 PWs)   bands (ev):

   -77.8444 -49.3227 -49.1123 -49.0034 -22.7081 -22.6607 -20.7117 -19.9371
   -14.8225 -14.5565 -12.5153 -11.3381 -10.9263 -10.3507 -10.3195  -9.3839
    -8.7372  -8.5337  -7.8117  -7.7058  -6.4678

     occupation numbers 
     1.0000   1.0000   1.0000   1.0000   1.0000   1.0000   1.0000   1.0000
     1.0000   1.0000   1.0000   1.0000   1.0000   1.0000   1.0000   1.0000
     1.0000   1.0000   1.0000   1.0000   1.0000

          k = 0.0000 0.5170 0.0000 ( 14484 PWs)   bands (ev):

   -77.8388 -49.3650 -49.1216 -48.9954 -22.0678 -22.0330 -20.5692 -19.9445
   -15.6594 -15.4204 -12.3407 -11.7248 -11.0616 -10.5319 -10.4939  -9.5678
    -8.9080  -8.2850  -7.8258  -7.4644  -6.4318

     occupation numbers 
     1.0000   1.0000   1.0000   1.0000   1.0000   1.0000   1.0000   1.0000
     1.0000   1.0000   1.0000   1.0000   1.0000   1.0000   1.0000   1.0000
     1.0000   1.0000   1.0000   1.0000   1.0000

          k = 0.0000-0.5170 0.0000 ( 14484 PWs)   bands (ev):

   -77.8388 -49.3650 -49.1216 -48.9954 -22.0678 -22.0330 -20.5692 -19.9445
   -15.6594 -15.4204 -12.3407 -11.7248 -11.0616 -10.5319 -10.4939  -9.5678
    -8.9080  -8.2850  -7.8258  -7.4644  -6.4318

     occupation numbers 
     1.0000   1.0000   1.0000   1.0000   1.0000   1.0000   1.0000   1.0000
     1.0000   1.0000   1.0000   1.0000   1.0000   1.0000   1.0000   1.0000
     1.0000   1.0000   1.0000   1.0000   1.0000

          k = 0.0000-0.4136 0.0000 ( 14485 PWs)   bands (ev):

   -77.8444 -49.3227 -49.1123 -49.0034 -22.7081 -22.6607 -20.7117 -19.9371
   -14.8225 -14.5565 -12.5153 -11.3381 -10.9263 -10.3507 -10.3195  -9.3839
    -8.7372  -8.5337  -7.8117  -7.7058  -6.4678

     occupation numbers 
     1.0000   1.0000   1.0000   1.0000   1.0000   1.0000   1.0000   1.0000
     1.0000   1.0000   1.0000   1.0000   1.0000   1.0000   1.0000   1.0000
     1.0000   1.0000   1.0000   1.0000   1.0000

          k = 0.0000-0.3102 0.0000 ( 14539 PWs)   bands (ev):

   -77.8539 -49.2510 -49.0964 -49.0167 -23.4835 -23.4238 -21.0744 -20.0779
   -13.7545 -13.1270 -12.5300 -11.1505 -10.4986 -10.0227 -10.0049  -8.9588
    -8.7539  -8.4292  -8.0786  -7.7260  -6.3345

     occupation numbers 
     1.0000   1.0000   1.0000   1.0000   1.0000   1.0000   1.0000   1.0000
     1.0000   1.0000   1.0000   1.0000   1.0000   1.0000   1.0000   1.0000
     1.0000   1.0000   1.0000   1.0000   1.0000

          k = 0.0000-0.2068 0.0000 ( 14553 PWs)   bands (ev):

   -77.8641 -49.1723 -49.0792 -49.0311 -24.1309 -24.0618 -21.4862 -20.2818
   -13.7331 -11.5693 -11.3756 -11.2060  -9.8102  -9.6307  -9.6201  -9.1187
    -8.4661  -8.3050  -8.0333  -7.5285  -5.9375

     occupation numbers 
     1.0000   1.0000   1.0000   1.0000   1.0000   1.0000   1.0000   1.0000
     1.0000   1.0000   1.0000   1.0000   1.0000   1.0000   1.0000   1.0000
     1.0000   1.0000   1.0000   1.0000   1.0000

          k = 0.0000-0.1034 0.0000 ( 14525 PWs)   bands (ev):

   -77.8719 -49.1116 -49.0660 -49.0422 -24.5472 -24.4719 -21.7905 -20.4427
   -14.0133 -11.4635 -10.0706  -9.9840  -9.3514  -9.3135  -9.2786  -9.1944
    -8.7263  -7.9044  -7.6966  -7.4207  -5.5655

     occupation numbers 
     1.0000   1.0000   1.0000   1.0000   1.0000   1.0000   1.0000   1.0000
     1.0000   1.0000   1.0000   1.0000   1.0000   1.0000   1.0000   1.0000
     1.0000   1.0000   1.0000   1.0000   1.0000

          k = 0.0909 0.0517 0.0000 ( 14561 PWs)   bands (ev):

   -77.8717 -49.1010 -49.0781 -49.0419 -24.5436 -24.4683 -21.7870 -20.4395
   -14.0093 -11.4596  -9.9664  -9.8596  -9.4551  -9.4189  -9.3127  -9.1163
    -8.8160  -7.8872  -7.7454  -7.3934  -5.5610

     occupation numbers 
     1.0000   1.0000   1.0000   1.0000   1.0000   1.0000   1.0000   1.0000
     1.0000   1.0000   1.0000   1.0000   1.0000   1.0000   1.0000   1.0000
     1.0000   1.0000   1.0000   1.0000   1.0000

          k = 0.0909 0.1551 0.0000 ( 14541 PWs)   bands (ev):

   -77.8663 -49.1470 -49.0829 -49.0344 -24.2639 -24.1928 -21.5793 -20.3287
   -13.8076 -11.3948 -10.8824 -10.8586  -9.8418  -9.6873  -9.4286  -9.1716
    -8.6149  -8.1384  -8.0400  -7.3928  -5.8105

     occupation numbers 
     1.0000   1.0000   1.0000   1.0000   1.0000   1.0000   1.0000   1.0000
     1.0000   1.0000   1.0000   1.0000   1.0000   1.0000   1.0000   1.0000
     1.0000   1.0000   1.0000   1.0000   1.0000

          k = 0.0909 0.2585 0.0000 ( 14530 PWs)   bands (ev):

   -77.8573 -49.2159 -49.0989 -49.0216 -23.7304 -23.6670 -21.2191 -20.1434
   -13.5937 -12.3906 -12.1010 -11.1553 -10.4620 -10.1912  -9.9067  -8.9517
    -8.7878  -8.3253  -8.1580  -7.5844  -6.2093

     occupation numbers 
     1.0000   1.0000   1.0000   1.0000   1.0000   1.0000   1.0000   1.0000
     1.0000   1.0000   1.0000   1.0000   1.0000   1.0000   1.0000   1.0000
     1.0000   1.0000   1.0000   1.0000   1.0000

          k = 0.0909 0.3619 0.0000 ( 14507 PWs)   bands (ev):

   -77.8475 -49.2885 -49.1180 -49.0077 -23.0102 -22.9575 -20.8253 -19.9637
   -14.2078 -13.8576 -12.5390 -11.2006 -10.8959 -10.6483 -10.4173  -9.4248
    -8.6984  -8.3506  -8.0371  -7.7591  -6.4488

     occupation numbers 
     1.0000   1.0000   1.0000   1.0000   1.0000   1.0000   1.0000   1.0000
     1.0000   1.0000   1.0000   1.0000   1.0000   1.0000   1.0000   1.0000
     1.0000   1.0000   1.0000   1.0000   1.0000

          k = 0.0909 0.4653 0.0000 ( 14482 PWs)   bands (ev):

   -77.8400 -49.3430 -49.1330 -48.9971 -22.2669 -22.2272 -20.5742 -19.9006
   -15.2389 -14.9950 -12.3596 -11.5988 -11.0894 -10.8533 -10.8065  -9.6695
    -8.8165  -8.3191  -7.9299  -7.6779  -6.4129

     occupation numbers 
     1.0000   1.0000   1.0000   1.0000   1.0000   1.0000   1.0000   1.0000
     1.0000   1.0000   1.0000   1.0000   1.0000   1.0000   1.0000   1.0000
     1.0000   1.0000   1.0000   1.0000   1.0000

          k = 0.0909 0.5687 0.0000 ( 14530 PWs)   bands (ev):

   -77.8372 -49.3633 -49.1386 -48.9931 -21.8955 -21.8629 -20.5340 -19.9335
   -15.6711 -15.4320 -12.2459 -11.8069 -11.1769 -11.0186 -10.8841  -9.6459
    -8.9974  -8.1889  -7.8822  -7.6378  -6.3436

     occupation numbers 
     1.0000   1.0000   1.0000   1.0000   1.0000   1.0000   1.0000   1.0000
     1.0000   1.0000   1.0000   1.0000   1.0000   1.0000   1.0000   1.0000
     1.0000   1.0000   1.0000   1.0000   1.0000

          k = 0.0909-0.4653 0.0000 ( 14482 PWs)   bands (ev):

   -77.8400 -49.3430 -49.1330 -48.9971 -22.2669 -22.2272 -20.5743 -19.9006
   -15.2389 -14.9950 -12.3596 -11.5988 -11.0893 -10.8537 -10.8064  -9.6689
    -8.8169  -8.3191  -7.9301  -7.6780  -6.4125

     occupation numbers 
     1.0000   1.0000   1.0000   1.0000   1.0000   1.0000   1.0000   1.0000
     1.0000   1.0000   1.0000   1.0000   1.0000   1.0000   1.0000   1.0000
     1.0000   1.0000   1.0000   1.0000   1.0000

          k = 0.0909-0.3619 0.0000 ( 14507 PWs)   bands (ev):

   -77.8475 -49.2885 -49.1180 -49.0077 -23.0102 -22.9575 -20.8253 -19.9637
   -14.2079 -13.8577 -12.5390 -11.2006 -10.8958 -10.6482 -10.4174  -9.4247
    -8.6984  -8.3506  -8.0374  -7.7594  -6.4483

     occupation numbers 
     1.0000   1.0000   1.0000   1.0000   1.0000   1.0000   1.0000   1.0000
     1.0000   1.0000   1.0000   1.0000   1.0000   1.0000   1.0000   1.0000
     1.0000   1.0000   1.0000   1.0000   1.0000

          k = 0.0909-0.2585 0.0000 ( 14530 PWs)   bands (ev):

   -77.8573 -49.2159 -49.0988 -49.0216 -23.7304 -23.6670 -21.2192 -20.1434
   -13.5938 -12.3908 -12.1012 -11.1551 -10.4618 -10.1909  -9.9068  -8.9518
    -8.7882  -8.3252  -8.1572  -7.5852  -6.2090

     occupation numbers 
     1.0000   1.0000   1.0000   1.0000   1.0000   1.0000   1.0000   1.0000
     1.0000   1.0000   1.0000   1.0000   1.0000   1.0000   1.0000   1.0000
     1.0000   1.0000   1.0000   1.0000   1.0000

          k = 0.0909-0.1551 0.0000 ( 14541 PWs)   bands (ev):

   -77.8663 -49.1470 -49.0828 -49.0344 -24.2639 -24.1928 -21.5794 -20.3287
   -13.8077 -11.3946 -10.8832 -10.8587  -9.8415  -9.6867  -9.4286  -9.1716
    -8.6147  -8.1392  -8.0390  -7.3933  -5.8102

     occupation numbers 
     1.0000   1.0000   1.0000   1.0000   1.0000   1.0000   1.0000   1.0000
     1.0000   1.0000   1.0000   1.0000   1.0000   1.0000   1.0000   1.0000
     1.0000   1.0000   1.0000   1.0000   1.0000

          k = 0.0909-0.0517 0.0000 ( 14561 PWs)   bands (ev):

   -77.8717 -49.1010 -49.0781 -49.0419 -24.5436 -24.4683 -21.7870 -20.4395
   -14.0093 -11.4596  -9.9670  -9.8603  -9.4543  -9.4183  -9.3127  -9.1165
    -8.8157  -7.8860  -7.7468  -7.3933  -5.5609

     occupation numbers 
     1.0000   1.0000   1.0000   1.0000   1.0000   1.0000   1.0000   1.0000
     1.0000   1.0000   1.0000   1.0000   1.0000   1.0000   1.0000   1.0000
     1.0000   1.0000   1.0000   1.0000   1.0000

          k = 0.1818 0.1034 0.0000 ( 14557 PWs)   bands (ev):

   -77.8633 -49.1566 -49.1005 -49.0303 -24.1168 -24.0477 -21.4727 -20.2688
   -13.7153 -11.4815 -11.2497 -11.1456  -9.8018  -9.7896  -9.7449  -9.1005
    -8.5568  -8.2904  -8.1097  -7.4963  -5.9242

     occupation numbers 
     1.0000   1.0000   1.0000   1.0000   1.0000   1.0000   1.0000   1.0000
     1.0000   1.0000   1.0000   1.0000   1.0000   1.0000   1.0000   1.0000
     1.0000   1.0000   1.0000   1.0000   1.0000

          k = 0.1818 0.2068 0.0000 ( 14545 PWs)   bands (ev):

   -77.8567 -49.2079 -49.1110 -49.0210 -23.7198 -23.6565 -21.2091 -20.1330
   -13.5711 -12.3040 -12.0269 -11.1391 -10.5278 -10.3082  -9.9281  -8.9412
    -8.7999  -8.3747  -8.1876  -7.5745  -6.1994

     occupation numbers 
     1.0000   1.0000   1.0000   1.0000   1.0000   1.0000   1.0000   1.0000
     1.0000   1.0000   1.0000   1.0000   1.0000   1.0000   1.0000   1.0000
     1.0000   1.0000   1.0000   1.0000   1.0000

          k = 0.1818 0.3102 0.0000 ( 14487 PWs)   bands (ev):

   -77.8481 -49.2645 -49.1350 -49.0088 -23.1080 -23.0535 -20.8613 -19.9651
   -13.8361 -13.3455 -12.4147 -11.4083 -11.2553 -10.8866 -10.3075  -9.5575
    -8.7110  -8.3674  -8.0141  -7.7964  -6.4327

     occupation numbers 
     1.0000   1.0000   1.0000   1.0000   1.0000   1.0000   1.0000   1.0000
     1.0000   1.0000   1.0000   1.0000   1.0000   1.0000   1.0000   1.0000
     1.0000   1.0000   1.0000   1.0000   1.0000

          k = 0.1818 0.4136 0.0000 ( 14478 PWs)   bands (ev):

   -77.8402 -49.3120 -49.1612 -48.9976 -22.3883 -22.3450 -20.5693 -19.8545
   -14.6402 -14.3609 -12.3593 -12.0432 -11.8632 -10.8557 -10.7023  -9.9887
    -8.6645  -8.5386  -8.1282  -7.7347  -6.4050

     occupation numbers 
     1.0000   1.0000   1.0000   1.0000   1.0000   1.0000   1.0000   1.0000
     1.0000   1.0000   1.0000   1.0000   1.0000   1.0000   1.0000   1.0000
     1.0000   1.0000   1.0000   1.0000   1.0000

          k = 0.1818 0.5170 0.0000 ( 14479 PWs)   bands (ev):

   -77.8355 -49.3389 -49.1779 -48.9909 -21.8113 -21.7778 -20.4649 -19.8621
   -15.2727 -15.0289 -12.5396 -12.3512 -11.7358 -11.2115 -10.9979  -9.8144
    -9.0333  -8.6476  -8.1007  -7.5652  -6.2343

     occupation numbers 
     1.0000   1.0000   1.0000   1.0000   1.0000   1.0000   1.0000   1.0000
     1.0000   1.0000   1.0000   1.0000   1.0000   1.0000   1.0000   1.0000
     1.0000   1.0000   1.0000   1.0000   1.0000

          k = 0.1818 0.6204 0.0000 ( 14479 PWs)   bands (ev):

   -77.8355 -49.3389 -49.1779 -48.9909 -21.8113 -21.7777 -20.4650 -19.8621
   -15.2727 -15.0289 -12.5395 -12.3511 -11.7357 -11.2117 -10.9981  -9.8138
    -9.0337  -8.6476  -8.1010  -7.5652  -6.2341

     occupation numbers 
     1.0000   1.0000   1.0000   1.0000   1.0000   1.0000   1.0000   1.0000
     1.0000   1.0000   1.0000   1.0000   1.0000   1.0000   1.0000   1.0000
     1.0000   1.0000   1.0000   1.0000   1.0000

          k = 0.1818-0.4136 0.0000 ( 14478 PWs)   bands (ev):

   -77.8402 -49.3120 -49.1612 -48.9976 -22.3883 -22.3450 -20.5694 -19.8545
   -14.6404 -14.3610 -12.3592 -12.0429 -11.8631 -10.8560 -10.7026  -9.9881
    -8.6644  -8.5386  -8.1292  -7.7347  -6.4045

     occupation numbers 
     1.0000   1.0000   1.0000   1.0000   1.0000   1.0000   1.0000   1.0000
     1.0000   1.0000   1.0000   1.0000   1.0000   1.0000   1.0000   1.0000
     1.0000   1.0000   1.0000   1.0000   1.0000

          k = 0.1818-0.3102 0.0000 ( 14487 PWs)   bands (ev):

   -77.8481 -49.2645 -49.1350 -49.0088 -23.1080 -23.0534 -20.8614 -19.9651
   -13.8365 -13.3458 -12.4148 -11.4078 -11.2549 -10.8864 -10.3078  -9.5577
    -8.7110  -8.3672  -8.0138  -7.7974  -6.4320

     occupation numbers 
     1.0000   1.0000   1.0000   1.0000   1.0000   1.0000   1.0000   1.0000
     1.0000   1.0000   1.0000   1.0000   1.0000   1.0000   1.0000   1.0000
     1.0000   1.0000   1.0000   1.0000   1.0000

          k = 0.1818-0.2068 0.0000 ( 14545 PWs)   bands (ev):

   -77.8567 -49.2079 -49.1109 -49.0210 -23.7198 -23.6565 -21.2091 -20.1330
   -13.5713 -12.3044 -12.0273 -11.1389 -10.5273 -10.3075  -9.9282  -8.9411
    -8.8003  -8.3746  -8.1872  -7.5752  -6.1988

     occupation numbers 
     1.0000   1.0000   1.0000   1.0000   1.0000   1.0000   1.0000   1.0000
     1.0000   1.0000   1.0000   1.0000   1.0000   1.0000   1.0000   1.0000
     1.0000   1.0000   1.0000   1.0000   1.0000

          k = 0.1818-0.1034 0.0000 ( 14557 PWs)   bands (ev):

   -77.8633 -49.1566 -49.1005 -49.0303 -24.1167 -24.0477 -21.4727 -20.2688
   -13.7154 -11.4815 -11.2504 -11.1456  -9.8007  -9.7896  -9.7451  -9.1005
    -8.5567  -8.2894  -8.1108  -7.4965  -5.9238

     occupation numbers 
     1.0000   1.0000   1.0000   1.0000   1.0000   1.0000   1.0000   1.0000
     1.0000   1.0000   1.0000   1.0000   1.0000   1.0000   1.0000   1.0000
     1.0000   1.0000   1.0000   1.0000   1.0000

          k = 0.1818-0.0000 0.0000 ( 14573 PWs)   bands (ev):

   -77.8657 -49.1299 -49.1041 -49.0337 -24.2534 -24.1824 -21.5694 -20.3195
   -13.7962 -11.3799 -10.7986 -10.7754  -9.8838  -9.7858  -9.4359  -9.1603
    -8.6870  -8.1577  -8.0583  -7.3746  -5.8036

     occupation numbers 
     1.0000   1.0000   1.0000   1.0000   1.0000   1.0000   1.0000   1.0000
     1.0000   1.0000   1.0000   1.0000   1.0000   1.0000   1.0000   1.0000
     1.0000   1.0000   1.0000   1.0000   1.0000

          k = 0.2727 0.1551 0.0000 ( 14551 PWs)   bands (ev):

   -77.8523 -49.2375 -49.1208 -49.0150 -23.4527 -23.3931 -21.0462 -20.0493
   -13.6761 -13.0032 -12.4658 -11.1200 -10.4485 -10.2176 -10.1999  -8.9358
    -8.7503  -8.5275  -8.1706  -7.6905  -6.3162

     occupation numbers 
     1.0000   1.0000   1.0000   1.0000   1.0000   1.0000   1.0000   1.0000
     1.0000   1.0000   1.0000   1.0000   1.0000   1.0000   1.0000   1.0000
     1.0000   1.0000   1.0000   1.0000   1.0000

          k = 0.2727 0.2585 0.0000 ( 14499 PWs)   bands (ev):

   -77.8461 -49.2780 -49.1378 -49.0063 -22.9828 -22.9301 -20.7999 -19.9363
   -14.1088 -13.7462 -12.5143 -11.2176 -10.9588 -10.7886 -10.4772  -9.4439
    -8.6923  -8.4081  -8.1124  -7.7384  -6.4281

     occupation numbers 
     1.0000   1.0000   1.0000   1.0000   1.0000   1.0000   1.0000   1.0000
     1.0000   1.0000   1.0000   1.0000   1.0000   1.0000   1.0000   1.0000
     1.0000   1.0000   1.0000   1.0000   1.0000

          k = 0.2727 0.3619 0.0000 ( 14446 PWs)   bands (ev):

   -77.8394 -49.3058 -49.1726 -48.9968 -22.3711 -22.3277 -20.5535 -19.8369
   -14.5732 -14.2898 -12.3771 -12.1168 -11.9576 -10.8486 -10.6840 -10.0047
    -8.6913  -8.5532  -8.1513  -7.7256  -6.3921

     occupation numbers 
     1.0000   1.0000   1.0000   1.0000   1.0000   1.0000   1.0000   1.0000
     1.0000   1.0000   1.0000   1.0000   1.0000   1.0000   1.0000   1.0000
     1.0000   1.0000   1.0000   1.0000   1.0000

          k = 0.2727 0.4653 0.0000 ( 14474 PWs)   bands (ev):

   -77.8343 -49.3143 -49.2120 -48.9895 -21.7801 -21.7456 -20.4181 -19.8084
   -14.8408 -14.5681 -13.1861 -13.0510 -11.8158 -11.0457 -10.7782  -9.9977
    -9.3472  -8.7940  -8.1113  -7.5424  -6.1831

     occupation numbers 
     1.0000   1.0000   1.0000   1.0000   1.0000   1.0000   1.0000   1.0000
     1.0000   1.0000   1.0000   1.0000   1.0000   1.0000   1.0000   1.0000
     1.0000   1.0000   1.0000   1.0000   1.0000

          k = 0.2727 0.5687 0.0000 ( 14432 PWs)   bands (ev):

   -77.8324 -49.3123 -49.2318 -48.9868 -21.5093 -21.4743 -20.4025 -19.8246
   -14.9059 -14.6310 -13.5832 -13.4836 -11.5136 -11.2201 -10.8770  -9.8947
    -9.5595  -9.1100  -8.0402  -7.4453  -6.0396

     occupation numbers 
     1.0000   1.0000   1.0000   1.0000   1.0000   1.0000   1.0000   1.0000
     1.0000   1.0000   1.0000   1.0000   1.0000   1.0000   1.0000   1.0000
     1.0000   1.0000   1.0000   1.0000   1.0000

          k = 0.2727 0.6721 0.0000 ( 14474 PWs)   bands (ev):

   -77.8343 -49.3143 -49.2120 -48.9895 -21.7799 -21.7455 -20.4183 -19.8085
   -14.8411 -14.5682 -13.1856 -13.0507 -11.8158 -11.0461 -10.7786  -9.9970
    -9.3468  -8.7944  -8.1119  -7.5424  -6.1828

     occupation numbers 
     1.0000   1.0000   1.0000   1.0000   1.0000   1.0000   1.0000   1.0000
     1.0000   1.0000   1.0000   1.0000   1.0000   1.0000   1.0000   1.0000
     1.0000   1.0000   1.0000   1.0000   1.0000

          k = 0.2727-0.3619 0.0000 ( 14446 PWs)   bands (ev):

   -77.8394 -49.3058 -49.1726 -48.9968 -22.3710 -22.3276 -20.5538 -19.8370
   -14.5736 -14.2900 -12.3769 -12.1164 -11.9574 -10.8488 -10.6842 -10.0043
    -8.6909  -8.5534  -8.1524  -7.7255  -6.3915

     occupation numbers 
     1.0000   1.0000   1.0000   1.0000   1.0000   1.0000   1.0000   1.0000
     1.0000   1.0000   1.0000   1.0000   1.0000   1.0000   1.0000   1.0000
     1.0000   1.0000   1.0000   1.0000   1.0000

          k = 0.2727-0.2585 0.0000 ( 14499 PWs)   bands (ev):

   -77.8461 -49.2780 -49.1378 -49.0063 -22.9827 -22.9300 -20.8001 -19.9363
   -14.1093 -13.7464 -12.5143 -11.2173 -10.9586 -10.7879 -10.4772  -9.4440
    -8.6924  -8.4085  -8.1126  -7.7386  -6.4274

     occupation numbers 
     1.0000   1.0000   1.0000   1.0000   1.0000   1.0000   1.0000   1.0000
     1.0000   1.0000   1.0000   1.0000   1.0000   1.0000   1.0000   1.0000
     1.0000   1.0000   1.0000   1.0000   1.0000

          k = 0.2727-0.1551 0.0000 ( 14551 PWs)   bands (ev):

   -77.8523 -49.2375 -49.1208 -49.0150 -23.4527 -23.3931 -21.0463 -20.0493
   -13.6764 -13.0034 -12.4660 -11.1197 -10.4486 -10.2168 -10.1997  -8.9354
    -8.7505  -8.5283  -8.1706  -7.6906  -6.3157

     occupation numbers 
     1.0000   1.0000   1.0000   1.0000   1.0000   1.0000   1.0000   1.0000
     1.0000   1.0000   1.0000   1.0000   1.0000   1.0000   1.0000   1.0000
     1.0000   1.0000   1.0000   1.0000   1.0000

          k = 0.2727-0.0517 0.0000 ( 14554 PWs)   bands (ev):

   -77.8560 -49.2022 -49.1220 -49.0202 -23.7033 -23.6401 -21.1949 -20.1204
   -13.5562 -12.2941 -12.0232 -11.1357 -10.5212 -10.3177  -9.9486  -8.9318
    -8.8195  -8.3913  -8.2053  -7.5551  -6.2017

     occupation numbers 
     1.0000   1.0000   1.0000   1.0000   1.0000   1.0000   1.0000   1.0000
     1.0000   1.0000   1.0000   1.0000   1.0000   1.0000   1.0000   1.0000
     1.0000   1.0000   1.0000   1.0000   1.0000

          k = 0.2727 0.0517 0.0000 ( 14554 PWs)   bands (ev):

   -77.8560 -49.2022 -49.1220 -49.0201 -23.7033 -23.6401 -21.1949 -20.1204
   -13.5561 -12.2940 -12.0230 -11.1358 -10.5213 -10.3180  -9.9486  -8.9319
    -8.8195  -8.3914  -8.2049  -7.5551  -6.2019

     occupation numbers 
     1.0000   1.0000   1.0000   1.0000   1.0000   1.0000   1.0000   1.0000
     1.0000   1.0000   1.0000   1.0000   1.0000   1.0000   1.0000   1.0000
     1.0000   1.0000   1.0000   1.0000   1.0000

          k = 0.3636 0.2068 0.0000 ( 14479 PWs)   bands (ev):

   -77.8422 -49.3120 -49.1386 -49.0009 -22.6569 -22.6094 -20.6673 -19.8900
   -14.7158 -14.4519 -12.5005 -11.2933 -10.8955 -10.5650 -10.5348  -9.3690
    -8.8543  -8.5052  -7.8008  -7.7751  -6.4440

     occupation numbers 
     1.0000   1.0000   1.0000   1.0000   1.0000   1.0000   1.0000   1.0000
     1.0000   1.0000   1.0000   1.0000   1.0000   1.0000   1.0000   1.0000
     1.0000   1.0000   1.0000   1.0000   1.0000

          k = 0.3636 0.3102 0.0000 ( 14484 PWs)   bands (ev):

   -77.8379 -49.3332 -49.1570 -48.9949 -22.2183 -22.1782 -20.5319 -19.8540
   -15.1376 -14.8968 -12.3562 -11.6161 -11.2131 -10.9593 -10.8910  -9.6731
    -8.8805  -8.3051  -7.9957  -7.6821  -6.3814

     occupation numbers 
     1.0000   1.0000   1.0000   1.0000   1.0000   1.0000   1.0000   1.0000
     1.0000   1.0000   1.0000   1.0000   1.0000   1.0000   1.0000   1.0000
     1.0000   1.0000   1.0000   1.0000   1.0000

          k = 0.3636 0.4136 0.0000 ( 14456 PWs)   bands (ev):

   -77.8340 -49.3303 -49.1966 -48.9893 -21.7708 -21.7369 -20.4335 -19.8276
   -15.1896 -14.9478 -12.6533 -12.4817 -11.7614 -11.1917 -11.0072  -9.8214
    -9.0634  -8.6985  -8.0844  -7.5611  -6.2173

     occupation numbers 
     1.0000   1.0000   1.0000   1.0000   1.0000   1.0000   1.0000   1.0000
     1.0000   1.0000   1.0000   1.0000   1.0000   1.0000   1.0000   1.0000
     1.0000   1.0000   1.0000   1.0000   1.0000

          k = 0.3636 0.5170 0.0000 ( 14455 PWs)   bands (ev):

   -77.8317 -49.3049 -49.2440 -48.9861 -21.4846 -21.4490 -20.3892 -19.8102
   -14.8501 -14.5701 -13.6664 -13.5736 -11.5090 -11.2266 -10.8666  -9.9207
    -9.5711  -9.1026  -8.0285  -7.4443  -6.0430

     occupation numbers 
     1.0000   1.0000   1.0000   1.0000   1.0000   1.0000   1.0000   1.0000
     1.0000   1.0000   1.0000   1.0000   1.0000   1.0000   1.0000   1.0000
     1.0000   1.0000   1.0000   1.0000   1.0000

          k = 0.3636 0.6204 0.0000 ( 14455 PWs)   bands (ev):

   -77.8317 -49.3049 -49.2440 -48.9861 -21.4845 -21.4489 -20.3893 -19.8103
   -14.8503 -14.5702 -13.6660 -13.5734 -11.5091 -11.2266 -10.8668  -9.9206
    -9.5706  -9.1030  -8.0287  -7.4442  -6.0429

     occupation numbers 
     1.0000   1.0000   1.0000   1.0000   1.0000   1.0000   1.0000   1.0000
     1.0000   1.0000   1.0000   1.0000   1.0000   1.0000   1.0000   1.0000
     1.0000   1.0000   1.0000   1.0000   1.0000

          k = 0.3636 0.7238 0.0000 ( 14456 PWs)   bands (ev):

   -77.8340 -49.3303 -49.1966 -48.9894 -21.7706 -21.7368 -20.4339 -19.8277
   -15.1900 -14.9478 -12.6529 -12.4814 -11.7616 -11.1919 -11.0074  -9.8208
    -9.0635  -8.6987  -8.0851  -7.5610  -6.2170

     occupation numbers 
     1.0000   1.0000   1.0000   1.0000   1.0000   1.0000   1.0000   1.0000
     1.0000   1.0000   1.0000   1.0000   1.0000   1.0000   1.0000   1.0000
     1.0000   1.0000   1.0000   1.0000   1.0000

          k = 0.3636-0.3102 0.0000 ( 14484 PWs)   bands (ev):

   -77.8379 -49.3332 -49.1570 -48.9949 -22.2181 -22.1781 -20.5322 -19.8541
   -15.1379 -14.8968 -12.3564 -11.6159 -11.2127 -10.9591 -10.8907  -9.6727
    -8.8810  -8.3055  -7.9960  -7.6822  -6.3808

     occupation numbers 
     1.0000   1.0000   1.0000   1.0000   1.0000   1.0000   1.0000   1.0000
     1.0000   1.0000   1.0000   1.0000   1.0000   1.0000   1.0000   1.0000
     1.0000   1.0000   1.0000   1.0000   1.0000

          k = 0.3636-0.2068 0.0000 ( 14479 PWs)   bands (ev):

   -77.8422 -49.3120 -49.1386 -49.0009 -22.6568 -22.6093 -20.6676 -19.8900
   -14.7162 -14.4519 -12.5006 -11.2933 -10.8952 -10.5643 -10.5345  -9.3689
    -8.8550  -8.5055  -7.8010  -7.7751  -6.4433

     occupation numbers 
     1.0000   1.0000   1.0000   1.0000   1.0000   1.0000   1.0000   1.0000
     1.0000   1.0000   1.0000   1.0000   1.0000   1.0000   1.0000   1.0000
     1.0000   1.0000   1.0000   1.0000   1.0000

          k = 0.3636-0.1034 0.0000 ( 14506 PWs)   bands (ev):

   -77.8454 -49.2782 -49.1424 -49.0055 -22.9630 -22.9104 -20.7861 -19.9247
   -14.1211 -13.7673 -12.5158 -11.2174 -10.9558 -10.7721 -10.4846  -9.4634
    -8.6833  -8.3989  -8.0925  -7.7322  -6.4472

     occupation numbers 
     1.0000   1.0000   1.0000   1.0000   1.0000   1.0000   1.0000   1.0000
     1.0000   1.0000   1.0000   1.0000   1.0000   1.0000   1.0000   1.0000
     1.0000   1.0000   1.0000   1.0000   1.0000

          k = 0.3636 0.0000 0.0000 ( 14493 PWs)   bands (ev):

   -77.8466 -49.2588 -49.1508 -49.0072 -23.0715 -23.0172 -20.8328 -19.9391
   -13.8072 -13.3219 -12.4041 -11.4514 -11.3033 -10.8772 -10.3305  -9.5908
    -8.6900  -8.3773  -8.0424  -7.7633  -6.4487

     occupation numbers 
     1.0000   1.0000   1.0000   1.0000   1.0000   1.0000   1.0000   1.0000
     1.0000   1.0000   1.0000   1.0000   1.0000   1.0000   1.0000   1.0000
     1.0000   1.0000   1.0000   1.0000   1.0000

          k = 0.3636 0.1034 0.0000 ( 14506 PWs)   bands (ev):

   -77.8454 -49.2782 -49.1424 -49.0055 -22.9630 -22.9105 -20.7859 -19.9247
   -14.1208 -13.7672 -12.5157 -11.2176 -10.9559 -10.7727 -10.4848  -9.4632
    -8.6832  -8.3984  -8.0926  -7.7323  -6.4475

     occupation numbers 
     1.0000   1.0000   1.0000   1.0000   1.0000   1.0000   1.0000   1.0000
     1.0000   1.0000   1.0000   1.0000   1.0000   1.0000   1.0000   1.0000
     1.0000   1.0000   1.0000   1.0000   1.0000

          k = 0.4545 0.2585 0.0000 ( 14447 PWs)   bands (ev):

   -77.8362 -49.3561 -49.1491 -48.9925 -21.9986 -21.9634 -20.5140 -19.8846
   -15.5692 -15.3350 -12.3254 -11.6870 -11.0541 -10.7561 -10.7195  -9.5307
    -9.0338  -8.2404  -7.7903  -7.5658  -6.4003

     occupation numbers 
     1.0000   1.0000   1.0000   1.0000   1.0000   1.0000   1.0000   1.0000
     1.0000   1.0000   1.0000   1.0000   1.0000   1.0000   1.0000   1.0000
     1.0000   1.0000   1.0000   1.0000   1.0000

          k = 0.4545 0.3619 0.0000 ( 14473 PWs)   bands (ev):

   -77.8347 -49.3546 -49.1642 -48.9905 -21.8281 -21.7949 -20.4831 -19.8781
   -15.5866 -15.3520 -12.2479 -11.8122 -11.2698 -11.1843 -10.9750  -9.6390
    -9.0607  -8.1620  -7.9333  -7.6458  -6.3214

     occupation numbers 
     1.0000   1.0000   1.0000   1.0000   1.0000   1.0000   1.0000   1.0000
     1.0000   1.0000   1.0000   1.0000   1.0000   1.0000   1.0000   1.0000
     1.0000   1.0000   1.0000   1.0000   1.0000

          k = 0.4545 0.4653 0.0000 ( 14430 PWs)   bands (ev):

   -77.8336 -49.3311 -49.1986 -48.9889 -21.7520 -21.7182 -20.4276 -19.8231
   -15.2052 -14.9648 -12.6471 -12.4780 -11.7637 -11.2033 -11.0143  -9.8384
    -9.0382  -8.6851  -8.0701  -7.5650  -6.2397

     occupation numbers 
     1.0000   1.0000   1.0000   1.0000   1.0000   1.0000   1.0000   1.0000
     1.0000   1.0000   1.0000   1.0000   1.0000   1.0000   1.0000   1.0000
     1.0000   1.0000   1.0000   1.0000   1.0000

          k = 0.4545 0.5687 0.0000 ( 14406 PWs)   bands (ev):

   -77.8332 -49.3104 -49.2234 -48.9883 -21.7377 -21.7032 -20.3983 -19.7897
   -14.8272 -14.5572 -13.2346 -13.1008 -11.8108 -11.0589 -10.8094 -10.0097
    -9.3330  -8.7757  -8.0887  -7.5462  -6.2098

     occupation numbers 
     1.0000   1.0000   1.0000   1.0000   1.0000   1.0000   1.0000   1.0000
     1.0000   1.0000   1.0000   1.0000   1.0000   1.0000   1.0000   1.0000
     1.0000   1.0000   1.0000   1.0000   1.0000

          k = 0.4545 0.6721 0.0000 ( 14430 PWs)   bands (ev):

   -77.8336 -49.3311 -49.1986 -48.9889 -21.7519 -21.7180 -20.4279 -19.8231
   -15.2054 -14.9648 -12.6468 -12.4777 -11.7639 -11.2033 -11.0143  -9.8385
    -9.0379  -8.6853  -8.0705  -7.5650  -6.2396

     occupation numbers 
     1.0000   1.0000   1.0000   1.0000   1.0000   1.0000   1.0000   1.0000
     1.0000   1.0000   1.0000   1.0000   1.0000   1.0000   1.0000   1.0000
     1.0000   1.0000   1.0000   1.0000   1.0000

          k = 0.4545 0.7755 0.0000 ( 14473 PWs)   bands (ev):

   -77.8347 -49.3546 -49.1642 -48.9905 -21.8279 -21.7947 -20.4836 -19.8782
   -15.5869 -15.3519 -12.2482 -11.8121 -11.2695 -11.1842 -10.9746  -9.6387
    -9.0610  -8.1623  -7.9336  -7.6458  -6.3210

     occupation numbers 
     1.0000   1.0000   1.0000   1.0000   1.0000   1.0000   1.0000   1.0000
     1.0000   1.0000   1.0000   1.0000   1.0000   1.0000   1.0000   1.0000
     1.0000   1.0000   1.0000   1.0000   1.0000

          k = 0.4545-0.2585 0.0000 ( 14447 PWs)   bands (ev):

   -77.8362 -49.3561 -49.1490 -48.9925 -21.9984 -21.9633 -20.5145 -19.8847
   -15.5695 -15.3349 -12.3258 -11.6870 -11.0539 -10.7555 -10.7192  -9.5304
    -9.0344  -8.2407  -7.7905  -7.5660  -6.3997

     occupation numbers 
     1.0000   1.0000   1.0000   1.0000   1.0000   1.0000   1.0000   1.0000
     1.0000   1.0000   1.0000   1.0000   1.0000   1.0000   1.0000   1.0000
     1.0000   1.0000   1.0000   1.0000   1.0000

          k = 0.4545-0.1551 0.0000 ( 14436 PWs)   bands (ev):

   -77.8375 -49.3345 -49.1585 -48.9944 -22.2015 -22.1618 -20.5249 -19.8489
   -15.1553 -14.9157 -12.3527 -11.6240 -11.2134 -10.9458 -10.8903  -9.6954
    -8.8522  -8.2963  -7.9774  -7.6786  -6.4092

     occupation numbers 
     1.0000   1.0000   1.0000   1.0000   1.0000   1.0000   1.0000   1.0000
     1.0000   1.0000   1.0000   1.0000   1.0000   1.0000   1.0000   1.0000
     1.0000   1.0000   1.0000   1.0000   1.0000

          k = 0.4545-0.0517 0.0000 ( 14468 PWs)   bands (ev):

   -77.8383 -49.3058 -49.1802 -48.9956 -22.3337 -22.2906 -20.5320 -19.8186
   -14.5917 -14.3153 -12.3730 -12.1278 -11.9568 -10.8520 -10.7119 -10.0286
    -8.6497  -8.5473  -8.1163  -7.7344  -6.4277

     occupation numbers 
     1.0000   1.0000   1.0000   1.0000   1.0000   1.0000   1.0000   1.0000
     1.0000   1.0000   1.0000   1.0000   1.0000   1.0000   1.0000   1.0000
     1.0000   1.0000   1.0000   1.0000   1.0000

          k = 0.4545 0.0517 0.0000 ( 14468 PWs)   bands (ev):

   -77.8383 -49.3058 -49.1802 -48.9956 -22.3337 -22.2906 -20.5319 -19.8186
   -14.5916 -14.3152 -12.3731 -12.1279 -11.9568 -10.8521 -10.7121 -10.0283
    -8.6499  -8.5472  -8.1161  -7.7345  -6.4278

     occupation numbers 
     1.0000   1.0000   1.0000   1.0000   1.0000   1.0000   1.0000   1.0000
     1.0000   1.0000   1.0000   1.0000   1.0000   1.0000   1.0000   1.0000
     1.0000   1.0000   1.0000   1.0000   1.0000

          k = 0.4545 0.1551 0.0000 ( 14436 PWs)   bands (ev):

   -77.8375 -49.3345 -49.1585 -48.9944 -22.2017 -22.1619 -20.5246 -19.8488
   -15.1551 -14.9157 -12.3525 -11.6241 -11.2135 -10.9461 -10.8908  -9.6952
    -8.8521  -8.2960  -7.9774  -7.6786  -6.4096

     occupation numbers 
     1.0000   1.0000   1.0000   1.0000   1.0000   1.0000   1.0000   1.0000
     1.0000   1.0000   1.0000   1.0000   1.0000   1.0000   1.0000   1.0000
     1.0000   1.0000   1.0000   1.0000   1.0000

          k =-0.4545-0.2585 0.0000 ( 14447 PWs)   bands (ev):

   -77.8362 -49.3561 -49.1491 -48.9925 -21.9986 -21.9634 -20.5140 -19.8846
   -15.5692 -15.3350 -12.3254 -11.6870 -11.0541 -10.7561 -10.7195  -9.5307
    -9.0338  -8.2404  -7.7903  -7.5658  -6.4003

     occupation numbers 
     1.0000   1.0000   1.0000   1.0000   1.0000   1.0000   1.0000   1.0000
     1.0000   1.0000   1.0000   1.0000   1.0000   1.0000   1.0000   1.0000
     1.0000   1.0000   1.0000   1.0000   1.0000

          k =-0.4545-0.1551 0.0000 ( 14436 PWs)   bands (ev):

   -77.8375 -49.3345 -49.1585 -48.9944 -22.2017 -22.1619 -20.5246 -19.8488
   -15.1551 -14.9157 -12.3525 -11.6241 -11.2135 -10.9461 -10.8908  -9.6952
    -8.8521  -8.2960  -7.9774  -7.6786  -6.4096

     occupation numbers 
     1.0000   1.0000   1.0000   1.0000   1.0000   1.0000   1.0000   1.0000
     1.0000   1.0000   1.0000   1.0000   1.0000   1.0000   1.0000   1.0000
     1.0000   1.0000   1.0000   1.0000   1.0000

          k =-0.4545-0.0517 0.0000 ( 14468 PWs)   bands (ev):

   -77.8383 -49.3058 -49.1802 -48.9956 -22.3337 -22.2906 -20.5319 -19.8186
   -14.5916 -14.3152 -12.3731 -12.1279 -11.9568 -10.8521 -10.7121 -10.0283
    -8.6499  -8.5472  -8.1161  -7.7345  -6.4278

     occupation numbers 
     1.0000   1.0000   1.0000   1.0000   1.0000   1.0000   1.0000   1.0000
     1.0000   1.0000   1.0000   1.0000   1.0000   1.0000   1.0000   1.0000
     1.0000   1.0000   1.0000   1.0000   1.0000

          k =-0.4545 0.0517 0.0000 ( 14468 PWs)   bands (ev):

   -77.8383 -49.3058 -49.1802 -48.9956 -22.3337 -22.2906 -20.5320 -19.8186
   -14.5917 -14.3153 -12.3730 -12.1278 -11.9568 -10.8520 -10.7119 -10.0286
    -8.6497  -8.5473  -8.1163  -7.7344  -6.4277

     occupation numbers 
     1.0000   1.0000   1.0000   1.0000   1.0000   1.0000   1.0000   1.0000
     1.0000   1.0000   1.0000   1.0000   1.0000   1.0000   1.0000   1.0000
     1.0000   1.0000   1.0000   1.0000   1.0000

          k =-0.4545 0.1551 0.0000 ( 14436 PWs)   bands (ev):

   -77.8375 -49.3345 -49.1585 -48.9944 -22.2015 -22.1618 -20.5249 -19.8489
   -15.1553 -14.9157 -12.3527 -11.6240 -11.2134 -10.9458 -10.8903  -9.6954
    -8.8522  -8.2963  -7.9774  -7.6786  -6.4092

     occupation numbers 
     1.0000   1.0000   1.0000   1.0000   1.0000   1.0000   1.0000   1.0000
     1.0000   1.0000   1.0000   1.0000   1.0000   1.0000   1.0000   1.0000
     1.0000   1.0000   1.0000   1.0000   1.0000

          k =-0.4545 0.2585 0.0000 ( 14447 PWs)   bands (ev):

   -77.8362 -49.3561 -49.1490 -48.9925 -21.9984 -21.9633 -20.5145 -19.8847
   -15.5695 -15.3349 -12.3258 -11.6870 -11.0539 -10.7555 -10.7192  -9.5304
    -9.0344  -8.2407  -7.7905  -7.5660  -6.3997

     occupation numbers 
     1.0000   1.0000   1.0000   1.0000   1.0000   1.0000   1.0000   1.0000
     1.0000   1.0000   1.0000   1.0000   1.0000   1.0000   1.0000   1.0000
     1.0000   1.0000   1.0000   1.0000   1.0000

          k =-0.4545-0.7755 0.0000 ( 14473 PWs)   bands (ev):

   -77.8347 -49.3546 -49.1642 -48.9905 -21.8279 -21.7947 -20.4836 -19.8782
   -15.5869 -15.3519 -12.2482 -11.8121 -11.2695 -11.1842 -10.9746  -9.6387
    -9.0610  -8.1623  -7.9336  -7.6458  -6.3210

     occupation numbers 
     1.0000   1.0000   1.0000   1.0000   1.0000   1.0000   1.0000   1.0000
     1.0000   1.0000   1.0000   1.0000   1.0000   1.0000   1.0000   1.0000
     1.0000   1.0000   1.0000   1.0000   1.0000

          k =-0.4545-0.6721 0.0000 ( 14430 PWs)   bands (ev):

   -77.8336 -49.3311 -49.1986 -48.9889 -21.7519 -21.7180 -20.4279 -19.8231
   -15.2054 -14.9648 -12.6468 -12.4777 -11.7639 -11.2033 -11.0143  -9.8385
    -9.0379  -8.6853  -8.0705  -7.5650  -6.2396

     occupation numbers 
     1.0000   1.0000   1.0000   1.0000   1.0000   1.0000   1.0000   1.0000
     1.0000   1.0000   1.0000   1.0000   1.0000   1.0000   1.0000   1.0000
     1.0000   1.0000   1.0000   1.0000   1.0000

          k =-0.4545-0.5687 0.0000 ( 14406 PWs)   bands (ev):

   -77.8332 -49.3104 -49.2234 -48.9883 -21.7377 -21.7032 -20.3983 -19.7897
   -14.8272 -14.5572 -13.2346 -13.1008 -11.8108 -11.0589 -10.8094 -10.0097
    -9.3330  -8.7757  -8.0887  -7.5462  -6.2098

     occupation numbers 
     1.0000   1.0000   1.0000   1.0000   1.0000   1.0000   1.0000   1.0000
     1.0000   1.0000   1.0000   1.0000   1.0000   1.0000   1.0000   1.0000
     1.0000   1.0000   1.0000   1.0000   1.0000

          k =-0.4545-0.4653 0.0000 ( 14430 PWs)   bands (ev):

   -77.8336 -49.3311 -49.1986 -48.9889 -21.7520 -21.7182 -20.4276 -19.8231
   -15.2052 -14.9648 -12.6471 -12.4780 -11.7637 -11.2033 -11.0143  -9.8384
    -9.0382  -8.6851  -8.0701  -7.5650  -6.2397

     occupation numbers 
     1.0000   1.0000   1.0000   1.0000   1.0000   1.0000   1.0000   1.0000
     1.0000   1.0000   1.0000   1.0000   1.0000   1.0000   1.0000   1.0000
     1.0000   1.0000   1.0000   1.0000   1.0000

          k =-0.4545-0.3619 0.0000 ( 14473 PWs)   bands (ev):

   -77.8347 -49.3546 -49.1642 -48.9905 -21.8281 -21.7949 -20.4831 -19.8781
   -15.5866 -15.3520 -12.2479 -11.8122 -11.2698 -11.1843 -10.9750  -9.6390
    -9.0607  -8.1620  -7.9333  -7.6458  -6.3214

     occupation numbers 
     1.0000   1.0000   1.0000   1.0000   1.0000   1.0000   1.0000   1.0000
     1.0000   1.0000   1.0000   1.0000   1.0000   1.0000   1.0000   1.0000
     1.0000   1.0000   1.0000   1.0000   1.0000

          k =-0.3636-0.2068 0.0000 ( 14479 PWs)   bands (ev):

   -77.8422 -49.3120 -49.1386 -49.0009 -22.6569 -22.6094 -20.6673 -19.8900
   -14.7158 -14.4519 -12.5005 -11.2933 -10.8955 -10.5650 -10.5348  -9.3690
    -8.8543  -8.5052  -7.8008  -7.7751  -6.4440

     occupation numbers 
     1.0000   1.0000   1.0000   1.0000   1.0000   1.0000   1.0000   1.0000
     1.0000   1.0000   1.0000   1.0000   1.0000   1.0000   1.0000   1.0000
     1.0000   1.0000   1.0000   1.0000   1.0000

          k =-0.3636-0.1034 0.0000 ( 14506 PWs)   bands (ev):

   -77.8454 -49.2782 -49.1424 -49.0055 -22.9630 -22.9105 -20.7859 -19.9247
   -14.1208 -13.7672 -12.5157 -11.2176 -10.9559 -10.7727 -10.4848  -9.4632
    -8.6832  -8.3984  -8.0926  -7.7323  -6.4475

     occupation numbers 
     1.0000   1.0000   1.0000   1.0000   1.0000   1.0000   1.0000   1.0000
     1.0000   1.0000   1.0000   1.0000   1.0000   1.0000   1.0000   1.0000
     1.0000   1.0000   1.0000   1.0000   1.0000

          k =-0.3636 0.0000 0.0000 ( 14493 PWs)   bands (ev):

   -77.8466 -49.2588 -49.1508 -49.0072 -23.0715 -23.0172 -20.8328 -19.9391
   -13.8072 -13.3219 -12.4041 -11.4514 -11.3033 -10.8772 -10.3305  -9.5908
    -8.6900  -8.3773  -8.0424  -7.7633  -6.4487

     occupation numbers 
     1.0000   1.0000   1.0000   1.0000   1.0000   1.0000   1.0000   1.0000
     1.0000   1.0000   1.0000   1.0000   1.0000   1.0000   1.0000   1.0000
     1.0000   1.0000   1.0000   1.0000   1.0000

          k =-0.3636 0.1034 0.0000 ( 14506 PWs)   bands (ev):

   -77.8454 -49.2782 -49.1424 -49.0055 -22.9630 -22.9104 -20.7861 -19.9247
   -14.1211 -13.7673 -12.5158 -11.2174 -10.9558 -10.7721 -10.4846  -9.4634
    -8.6833  -8.3989  -8.0925  -7.7322  -6.4472

     occupation numbers 
     1.0000   1.0000   1.0000   1.0000   1.0000   1.0000   1.0000   1.0000
     1.0000   1.0000   1.0000   1.0000   1.0000   1.0000   1.0000   1.0000
     1.0000   1.0000   1.0000   1.0000   1.0000

          k =-0.3636 0.2068 0.0000 ( 14479 PWs)   bands (ev):

   -77.8422 -49.3120 -49.1386 -49.0009 -22.6568 -22.6093 -20.6676 -19.8900
   -14.7162 -14.4519 -12.5006 -11.2933 -10.8952 -10.5643 -10.5345  -9.3689
    -8.8550  -8.5055  -7.8010  -7.7751  -6.4433

     occupation numbers 
     1.0000   1.0000   1.0000   1.0000   1.0000   1.0000   1.0000   1.0000
     1.0000   1.0000   1.0000   1.0000   1.0000   1.0000   1.0000   1.0000
     1.0000   1.0000   1.0000   1.0000   1.0000

          k =-0.3636 0.3102 0.0000 ( 14484 PWs)   bands (ev):

   -77.8379 -49.3332 -49.1570 -48.9949 -22.2181 -22.1781 -20.5322 -19.8541
   -15.1379 -14.8968 -12.3564 -11.6159 -11.2127 -10.9591 -10.8907  -9.6727
    -8.8810  -8.3055  -7.9960  -7.6822  -6.3808

     occupation numbers 
     1.0000   1.0000   1.0000   1.0000   1.0000   1.0000   1.0000   1.0000
     1.0000   1.0000   1.0000   1.0000   1.0000   1.0000   1.0000   1.0000
     1.0000   1.0000   1.0000   1.0000   1.0000

          k =-0.3636-0.7238 0.0000 ( 14456 PWs)   bands (ev):

   -77.8340 -49.3303 -49.1966 -48.9894 -21.7706 -21.7368 -20.4339 -19.8277
   -15.1900 -14.9478 -12.6529 -12.4814 -11.7616 -11.1919 -11.0074  -9.8208
    -9.0635  -8.6987  -8.0851  -7.5610  -6.2170

     occupation numbers 
     1.0000   1.0000   1.0000   1.0000   1.0000   1.0000   1.0000   1.0000
     1.0000   1.0000   1.0000   1.0000   1.0000   1.0000   1.0000   1.0000
     1.0000   1.0000   1.0000   1.0000   1.0000

          k =-0.3636-0.6204 0.0000 ( 14455 PWs)   bands (ev):

   -77.8317 -49.3049 -49.2440 -48.9861 -21.4845 -21.4489 -20.3893 -19.8103
   -14.8503 -14.5702 -13.6660 -13.5734 -11.5091 -11.2266 -10.8668  -9.9206
    -9.5706  -9.1030  -8.0287  -7.4442  -6.0429

     occupation numbers 
     1.0000   1.0000   1.0000   1.0000   1.0000   1.0000   1.0000   1.0000
     1.0000   1.0000   1.0000   1.0000   1.0000   1.0000   1.0000   1.0000
     1.0000   1.0000   1.0000   1.0000   1.0000

          k =-0.3636-0.5170 0.0000 ( 14455 PWs)   bands (ev):

   -77.8317 -49.3049 -49.2440 -48.9861 -21.4846 -21.4490 -20.3892 -19.8102
   -14.8501 -14.5701 -13.6664 -13.5736 -11.5090 -11.2266 -10.8666  -9.9207
    -9.5711  -9.1026  -8.0285  -7.4443  -6.0430

     occupation numbers 
     1.0000   1.0000   1.0000   1.0000   1.0000   1.0000   1.0000   1.0000
     1.0000   1.0000   1.0000   1.0000   1.0000   1.0000   1.0000   1.0000
     1.0000   1.0000   1.0000   1.0000   1.0000

          k =-0.3636-0.4136 0.0000 ( 14456 PWs)   bands (ev):

   -77.8340 -49.3303 -49.1966 -48.9893 -21.7708 -21.7369 -20.4335 -19.8276
   -15.1896 -14.9478 -12.6533 -12.4817 -11.7614 -11.1917 -11.0072  -9.8214
    -9.0634  -8.6985  -8.0844  -7.5611  -6.2173

     occupation numbers 
     1.0000   1.0000   1.0000   1.0000   1.0000   1.0000   1.0000   1.0000
     1.0000   1.0000   1.0000   1.0000   1.0000   1.0000   1.0000   1.0000
     1.0000   1.0000   1.0000   1.0000   1.0000

          k =-0.3636-0.3102 0.0000 ( 14484 PWs)   bands (ev):

   -77.8379 -49.3332 -49.1570 -48.9949 -22.2183 -22.1782 -20.5319 -19.8540
   -15.1376 -14.8968 -12.3562 -11.6161 -11.2131 -10.9593 -10.8910  -9.6731
    -8.8805  -8.3051  -7.9957  -7.6821  -6.3814

     occupation numbers 
     1.0000   1.0000   1.0000   1.0000   1.0000   1.0000   1.0000   1.0000
     1.0000   1.0000   1.0000   1.0000   1.0000   1.0000   1.0000   1.0000
     1.0000   1.0000   1.0000   1.0000   1.0000

          k =-0.2727-0.1551 0.0000 ( 14551 PWs)   bands (ev):

   -77.8523 -49.2375 -49.1208 -49.0150 -23.4527 -23.3931 -21.0462 -20.0493
   -13.6761 -13.0032 -12.4658 -11.1200 -10.4485 -10.2176 -10.1999  -8.9358
    -8.7503  -8.5275  -8.1706  -7.6905  -6.3162

     occupation numbers 
     1.0000   1.0000   1.0000   1.0000   1.0000   1.0000   1.0000   1.0000
     1.0000   1.0000   1.0000   1.0000   1.0000   1.0000   1.0000   1.0000
     1.0000   1.0000   1.0000   1.0000   1.0000

          k =-0.2727-0.0517 0.0000 ( 14554 PWs)   bands (ev):

   -77.8560 -49.2022 -49.1220 -49.0201 -23.7033 -23.6401 -21.1949 -20.1204
   -13.5561 -12.2940 -12.0230 -11.1358 -10.5213 -10.3180  -9.9486  -8.9319
    -8.8195  -8.3914  -8.2049  -7.5551  -6.2019

     occupation numbers 
     1.0000   1.0000   1.0000   1.0000   1.0000   1.0000   1.0000   1.0000
     1.0000   1.0000   1.0000   1.0000   1.0000   1.0000   1.0000   1.0000
     1.0000   1.0000   1.0000   1.0000   1.0000

          k =-0.2727 0.0517 0.0000 ( 14554 PWs)   bands (ev):

   -77.8560 -49.2022 -49.1220 -49.0202 -23.7033 -23.6401 -21.1949 -20.1204
   -13.5562 -12.2941 -12.0232 -11.1357 -10.5212 -10.3177  -9.9486  -8.9318
    -8.8195  -8.3913  -8.2053  -7.5551  -6.2017

     occupation numbers 
     1.0000   1.0000   1.0000   1.0000   1.0000   1.0000   1.0000   1.0000
     1.0000   1.0000   1.0000   1.0000   1.0000   1.0000   1.0000   1.0000
     1.0000   1.0000   1.0000   1.0000   1.0000

          k =-0.2727 0.1551 0.0000 ( 14551 PWs)   bands (ev):

   -77.8523 -49.2375 -49.1208 -49.0150 -23.4527 -23.3931 -21.0463 -20.0493
   -13.6764 -13.0034 -12.4660 -11.1197 -10.4486 -10.2168 -10.1997  -8.9354
    -8.7505  -8.5283  -8.1706  -7.6906  -6.3157

     occupation numbers 
     1.0000   1.0000   1.0000   1.0000   1.0000   1.0000   1.0000   1.0000
     1.0000   1.0000   1.0000   1.0000   1.0000   1.0000   1.0000   1.0000
     1.0000   1.0000   1.0000   1.0000   1.0000

          k =-0.2727 0.2585 0.0000 ( 14499 PWs)   bands (ev):

   -77.8461 -49.2780 -49.1378 -49.0063 -22.9827 -22.9300 -20.8001 -19.9363
   -14.1093 -13.7464 -12.5143 -11.2173 -10.9586 -10.7879 -10.4772  -9.4440
    -8.6924  -8.4085  -8.1126  -7.7386  -6.4274

     occupation numbers 
     1.0000   1.0000   1.0000   1.0000   1.0000   1.0000   1.0000   1.0000
     1.0000   1.0000   1.0000   1.0000   1.0000   1.0000   1.0000   1.0000
     1.0000   1.0000   1.0000   1.0000   1.0000

          k =-0.2727 0.3619 0.0000 ( 14446 PWs)   bands (ev):

   -77.8394 -49.3058 -49.1726 -48.9968 -22.3710 -22.3276 -20.5538 -19.8370
   -14.5736 -14.2900 -12.3769 -12.1164 -11.9574 -10.8488 -10.6842 -10.0043
    -8.6909  -8.5534  -8.1524  -7.7255  -6.3915

     occupation numbers 
     1.0000   1.0000   1.0000   1.0000   1.0000   1.0000   1.0000   1.0000
     1.0000   1.0000   1.0000   1.0000   1.0000   1.0000   1.0000   1.0000
     1.0000   1.0000   1.0000   1.0000   1.0000

          k =-0.2727-0.6721 0.0000 ( 14474 PWs)   bands (ev):

   -77.8343 -49.3143 -49.2120 -48.9895 -21.7799 -21.7455 -20.4183 -19.8085
   -14.8411 -14.5682 -13.1856 -13.0507 -11.8158 -11.0461 -10.7786  -9.9970
    -9.3468  -8.7944  -8.1119  -7.5424  -6.1828

     occupation numbers 
     1.0000   1.0000   1.0000   1.0000   1.0000   1.0000   1.0000   1.0000
     1.0000   1.0000   1.0000   1.0000   1.0000   1.0000   1.0000   1.0000
     1.0000   1.0000   1.0000   1.0000   1.0000

          k =-0.2727-0.5687 0.0000 ( 14432 PWs)   bands (ev):

   -77.8324 -49.3123 -49.2318 -48.9868 -21.5093 -21.4743 -20.4025 -19.8246
   -14.9059 -14.6310 -13.5832 -13.4836 -11.5136 -11.2201 -10.8770  -9.8947
    -9.5595  -9.1100  -8.0402  -7.4453  -6.0396

     occupation numbers 
     1.0000   1.0000   1.0000   1.0000   1.0000   1.0000   1.0000   1.0000
     1.0000   1.0000   1.0000   1.0000   1.0000   1.0000   1.0000   1.0000
     1.0000   1.0000   1.0000   1.0000   1.0000

          k =-0.2727-0.4653 0.0000 ( 14474 PWs)   bands (ev):

   -77.8343 -49.3143 -49.2120 -48.9895 -21.7801 -21.7456 -20.4181 -19.8084
   -14.8408 -14.5681 -13.1861 -13.0510 -11.8158 -11.0457 -10.7782  -9.9977
    -9.3472  -8.7940  -8.1113  -7.5424  -6.1831

     occupation numbers 
     1.0000   1.0000   1.0000   1.0000   1.0000   1.0000   1.0000   1.0000
     1.0000   1.0000   1.0000   1.0000   1.0000   1.0000   1.0000   1.0000
     1.0000   1.0000   1.0000   1.0000   1.0000

          k =-0.2727-0.3619 0.0000 ( 14446 PWs)   bands (ev):

   -77.8394 -49.3058 -49.1726 -48.9968 -22.3711 -22.3277 -20.5535 -19.8369
   -14.5732 -14.2898 -12.3771 -12.1168 -11.9576 -10.8486 -10.6840 -10.0047
    -8.6913  -8.5532  -8.1513  -7.7256  -6.3921

     occupation numbers 
     1.0000   1.0000   1.0000   1.0000   1.0000   1.0000   1.0000   1.0000
     1.0000   1.0000   1.0000   1.0000   1.0000   1.0000   1.0000   1.0000
     1.0000   1.0000   1.0000   1.0000   1.0000

          k =-0.2727-0.2585 0.0000 ( 14499 PWs)   bands (ev):

   -77.8461 -49.2780 -49.1378 -49.0063 -22.9828 -22.9301 -20.7999 -19.9363
   -14.1088 -13.7462 -12.5143 -11.2176 -10.9588 -10.7886 -10.4772  -9.4439
    -8.6923  -8.4081  -8.1124  -7.7384  -6.4281

     occupation numbers 
     1.0000   1.0000   1.0000   1.0000   1.0000   1.0000   1.0000   1.0000
     1.0000   1.0000   1.0000   1.0000   1.0000   1.0000   1.0000   1.0000
     1.0000   1.0000   1.0000   1.0000   1.0000

          k =-0.1818-0.1034 0.0000 ( 14557 PWs)   bands (ev):

   -77.8633 -49.1566 -49.1005 -49.0303 -24.1168 -24.0477 -21.4727 -20.2688
   -13.7153 -11.4815 -11.2497 -11.1456  -9.8018  -9.7896  -9.7449  -9.1005
    -8.5568  -8.2904  -8.1097  -7.4963  -5.9242

     occupation numbers 
     1.0000   1.0000   1.0000   1.0000   1.0000   1.0000   1.0000   1.0000
     1.0000   1.0000   1.0000   1.0000   1.0000   1.0000   1.0000   1.0000
     1.0000   1.0000   1.0000   1.0000   1.0000

          k =-0.1818 0.0000 0.0000 ( 14573 PWs)   bands (ev):

   -77.8657 -49.1299 -49.1041 -49.0337 -24.2534 -24.1824 -21.5694 -20.3195
   -13.7962 -11.3799 -10.7986 -10.7754  -9.8838  -9.7858  -9.4359  -9.1603
    -8.6870  -8.1577  -8.0583  -7.3746  -5.8036

     occupation numbers 
     1.0000   1.0000   1.0000   1.0000   1.0000   1.0000   1.0000   1.0000
     1.0000   1.0000   1.0000   1.0000   1.0000   1.0000   1.0000   1.0000
     1.0000   1.0000   1.0000   1.0000   1.0000

          k =-0.1818 0.1034 0.0000 ( 14557 PWs)   bands (ev):

   -77.8633 -49.1566 -49.1005 -49.0303 -24.1167 -24.0477 -21.4727 -20.2688
   -13.7154 -11.4815 -11.2504 -11.1456  -9.8007  -9.7896  -9.7451  -9.1005
    -8.5567  -8.2894  -8.1108  -7.4965  -5.9238

     occupation numbers 
     1.0000   1.0000   1.0000   1.0000   1.0000   1.0000   1.0000   1.0000
     1.0000   1.0000   1.0000   1.0000   1.0000   1.0000   1.0000   1.0000
     1.0000   1.0000   1.0000   1.0000   1.0000

          k =-0.1818 0.2068 0.0000 ( 14545 PWs)   bands (ev):

   -77.8567 -49.2079 -49.1109 -49.0210 -23.7198 -23.6565 -21.2091 -20.1330
   -13.5713 -12.3044 -12.0273 -11.1389 -10.5273 -10.3075  -9.9282  -8.9411
    -8.8003  -8.3746  -8.1872  -7.5752  -6.1988

     occupation numbers 
     1.0000   1.0000   1.0000   1.0000   1.0000   1.0000   1.0000   1.0000
     1.0000   1.0000   1.0000   1.0000   1.0000   1.0000   1.0000   1.0000
     1.0000   1.0000   1.0000   1.0000   1.0000

          k =-0.1818 0.3102 0.0000 ( 14487 PWs)   bands (ev):

   -77.8481 -49.2645 -49.1350 -49.0088 -23.1080 -23.0534 -20.8614 -19.9651
   -13.8365 -13.3458 -12.4148 -11.4078 -11.2549 -10.8864 -10.3078  -9.5577
    -8.7110  -8.3672  -8.0138  -7.7974  -6.4320

     occupation numbers 
     1.0000   1.0000   1.0000   1.0000   1.0000   1.0000   1.0000   1.0000
     1.0000   1.0000   1.0000   1.0000   1.0000   1.0000   1.0000   1.0000
     1.0000   1.0000   1.0000   1.0000   1.0000

          k =-0.1818 0.4136 0.0000 ( 14478 PWs)   bands (ev):

   -77.8402 -49.3120 -49.1612 -48.9976 -22.3883 -22.3450 -20.5694 -19.8545
   -14.6404 -14.3610 -12.3592 -12.0429 -11.8631 -10.8560 -10.7026  -9.9881
    -8.6644  -8.5386  -8.1292  -7.7347  -6.4045

     occupation numbers 
     1.0000   1.0000   1.0000   1.0000   1.0000   1.0000   1.0000   1.0000
     1.0000   1.0000   1.0000   1.0000   1.0000   1.0000   1.0000   1.0000
     1.0000   1.0000   1.0000   1.0000   1.0000

          k =-0.1818-0.6204 0.0000 ( 14479 PWs)   bands (ev):

   -77.8355 -49.3389 -49.1779 -48.9909 -21.8113 -21.7777 -20.4650 -19.8621
   -15.2727 -15.0289 -12.5395 -12.3511 -11.7357 -11.2117 -10.9981  -9.8138
    -9.0337  -8.6476  -8.1010  -7.5652  -6.2341

     occupation numbers 
     1.0000   1.0000   1.0000   1.0000   1.0000   1.0000   1.0000   1.0000
     1.0000   1.0000   1.0000   1.0000   1.0000   1.0000   1.0000   1.0000
     1.0000   1.0000   1.0000   1.0000   1.0000

          k =-0.1818-0.5170 0.0000 ( 14479 PWs)   bands (ev):

   -77.8355 -49.3389 -49.1779 -48.9909 -21.8113 -21.7778 -20.4649 -19.8621
   -15.2727 -15.0289 -12.5396 -12.3512 -11.7358 -11.2115 -10.9979  -9.8144
    -9.0333  -8.6476  -8.1007  -7.5652  -6.2343

     occupation numbers 
     1.0000   1.0000   1.0000   1.0000   1.0000   1.0000   1.0000   1.0000
     1.0000   1.0000   1.0000   1.0000   1.0000   1.0000   1.0000   1.0000
     1.0000   1.0000   1.0000   1.0000   1.0000

          k =-0.1818-0.4136 0.0000 ( 14478 PWs)   bands (ev):

   -77.8402 -49.3120 -49.1612 -48.9976 -22.3883 -22.3450 -20.5693 -19.8545
   -14.6402 -14.3609 -12.3593 -12.0432 -11.8632 -10.8557 -10.7023  -9.9887
    -8.6645  -8.5386  -8.1282  -7.7347  -6.4050

     occupation numbers 
     1.0000   1.0000   1.0000   1.0000   1.0000   1.0000   1.0000   1.0000
     1.0000   1.0000   1.0000   1.0000   1.0000   1.0000   1.0000   1.0000
     1.0000   1.0000   1.0000   1.0000   1.0000

          k =-0.1818-0.3102 0.0000 ( 14487 PWs)   bands (ev):

   -77.8481 -49.2645 -49.1350 -49.0088 -23.1080 -23.0535 -20.8613 -19.9651
   -13.8361 -13.3455 -12.4147 -11.4083 -11.2553 -10.8866 -10.3075  -9.5575
    -8.7110  -8.3674  -8.0141  -7.7964  -6.4327

     occupation numbers 
     1.0000   1.0000   1.0000   1.0000   1.0000   1.0000   1.0000   1.0000
     1.0000   1.0000   1.0000   1.0000   1.0000   1.0000   1.0000   1.0000
     1.0000   1.0000   1.0000   1.0000   1.0000

          k =-0.1818-0.2068 0.0000 ( 14545 PWs)   bands (ev):

   -77.8567 -49.2079 -49.1110 -49.0210 -23.7198 -23.6565 -21.2091 -20.1330
   -13.5711 -12.3040 -12.0269 -11.1391 -10.5278 -10.3082  -9.9281  -8.9412
    -8.7999  -8.3747  -8.1876  -7.5745  -6.1994

     occupation numbers 
     1.0000   1.0000   1.0000   1.0000   1.0000   1.0000   1.0000   1.0000
     1.0000   1.0000   1.0000   1.0000   1.0000   1.0000   1.0000   1.0000
     1.0000   1.0000   1.0000   1.0000   1.0000

          k =-0.0909-0.0517 0.0000 ( 14561 PWs)   bands (ev):

   -77.8717 -49.1010 -49.0781 -49.0419 -24.5436 -24.4683 -21.7870 -20.4395
   -14.0093 -11.4596  -9.9664  -9.8596  -9.4551  -9.4189  -9.3127  -9.1163
    -8.8160  -7.8872  -7.7454  -7.3934  -5.5610

     occupation numbers 
     1.0000   1.0000   1.0000   1.0000   1.0000   1.0000   1.0000   1.0000
     1.0000   1.0000   1.0000   1.0000   1.0000   1.0000   1.0000   1.0000
     1.0000   1.0000   1.0000   1.0000   1.0000

          k =-0.0909 0.0517 0.0000 ( 14561 PWs)   bands (ev):

   -77.8717 -49.1010 -49.0781 -49.0419 -24.5436 -24.4683 -21.7870 -20.4395
   -14.0093 -11.4596  -9.9670  -9.8603  -9.4543  -9.4183  -9.3127  -9.1165
    -8.8157  -7.8860  -7.7468  -7.3933  -5.5609

     occupation numbers 
     1.0000   1.0000   1.0000   1.0000   1.0000   1.0000   1.0000   1.0000
     1.0000   1.0000   1.0000   1.0000   1.0000   1.0000   1.0000   1.0000
     1.0000   1.0000   1.0000   1.0000   1.0000

          k =-0.0909 0.1551 0.0000 ( 14541 PWs)   bands (ev):

   -77.8663 -49.1470 -49.0828 -49.0344 -24.2639 -24.1928 -21.5794 -20.3287
   -13.8077 -11.3946 -10.8832 -10.8587  -9.8415  -9.6867  -9.4286  -9.1716
    -8.6147  -8.1392  -8.0390  -7.3933  -5.8102

     occupation numbers 
     1.0000   1.0000   1.0000   1.0000   1.0000   1.0000   1.0000   1.0000
     1.0000   1.0000   1.0000   1.0000   1.0000   1.0000   1.0000   1.0000
     1.0000   1.0000   1.0000   1.0000   1.0000

          k =-0.0909 0.2585 0.0000 ( 14530 PWs)   bands (ev):

   -77.8573 -49.2159 -49.0988 -49.0216 -23.7304 -23.6670 -21.2192 -20.1434
   -13.5938 -12.3908 -12.1012 -11.1551 -10.4618 -10.1909  -9.9068  -8.9518
    -8.7882  -8.3252  -8.1572  -7.5852  -6.2090

     occupation numbers 
     1.0000   1.0000   1.0000   1.0000   1.0000   1.0000   1.0000   1.0000
     1.0000   1.0000   1.0000   1.0000   1.0000   1.0000   1.0000   1.0000
     1.0000   1.0000   1.0000   1.0000   1.0000

          k =-0.0909 0.3619 0.0000 ( 14507 PWs)   bands (ev):

   -77.8475 -49.2885 -49.1180 -49.0077 -23.0102 -22.9575 -20.8253 -19.9637
   -14.2079 -13.8577 -12.5390 -11.2006 -10.8958 -10.6482 -10.4174  -9.4247
    -8.6984  -8.3506  -8.0374  -7.7594  -6.4483

     occupation numbers 
     1.0000   1.0000   1.0000   1.0000   1.0000   1.0000   1.0000   1.0000
     1.0000   1.0000   1.0000   1.0000   1.0000   1.0000   1.0000   1.0000
     1.0000   1.0000   1.0000   1.0000   1.0000

          k =-0.0909 0.4653 0.0000 ( 14482 PWs)   bands (ev):

   -77.8400 -49.3430 -49.1330 -48.9971 -22.2669 -22.2272 -20.5743 -19.9006
   -15.2389 -14.9950 -12.3596 -11.5988 -11.0893 -10.8537 -10.8064  -9.6689
    -8.8169  -8.3191  -7.9301  -7.6780  -6.4125

     occupation numbers 
     1.0000   1.0000   1.0000   1.0000   1.0000   1.0000   1.0000   1.0000
     1.0000   1.0000   1.0000   1.0000   1.0000   1.0000   1.0000   1.0000
     1.0000   1.0000   1.0000   1.0000   1.0000

          k =-0.0909-0.5687 0.0000 ( 14530 PWs)   bands (ev):

   -77.8372 -49.3633 -49.1386 -48.9931 -21.8955 -21.8629 -20.5340 -19.9335
   -15.6711 -15.4320 -12.2459 -11.8069 -11.1769 -11.0186 -10.8841  -9.6459
    -8.9974  -8.1889  -7.8822  -7.6378  -6.3436

     occupation numbers 
     1.0000   1.0000   1.0000   1.0000   1.0000   1.0000   1.0000   1.0000
     1.0000   1.0000   1.0000   1.0000   1.0000   1.0000   1.0000   1.0000
     1.0000   1.0000   1.0000   1.0000   1.0000

          k =-0.0909-0.4653 0.0000 ( 14482 PWs)   bands (ev):

   -77.8400 -49.3430 -49.1330 -48.9971 -22.2669 -22.2272 -20.5742 -19.9006
   -15.2389 -14.9950 -12.3596 -11.5988 -11.0894 -10.8533 -10.8065  -9.6695
    -8.8165  -8.3191  -7.9299  -7.6779  -6.4129

     occupation numbers 
     1.0000   1.0000   1.0000   1.0000   1.0000   1.0000   1.0000   1.0000
     1.0000   1.0000   1.0000   1.0000   1.0000   1.0000   1.0000   1.0000
     1.0000   1.0000   1.0000   1.0000   1.0000

          k =-0.0909-0.3619 0.0000 ( 14507 PWs)   bands (ev):

   -77.8475 -49.2885 -49.1180 -49.0077 -23.0102 -22.9575 -20.8253 -19.9637
   -14.2078 -13.8576 -12.5390 -11.2006 -10.8959 -10.6483 -10.4173  -9.4248
    -8.6984  -8.3506  -8.0371  -7.7591  -6.4488

     occupation numbers 
     1.0000   1.0000   1.0000   1.0000   1.0000   1.0000   1.0000   1.0000
     1.0000   1.0000   1.0000   1.0000   1.0000   1.0000   1.0000   1.0000
     1.0000   1.0000   1.0000   1.0000   1.0000

          k =-0.0909-0.2585 0.0000 ( 14530 PWs)   bands (ev):

   -77.8573 -49.2159 -49.0989 -49.0216 -23.7304 -23.6670 -21.2191 -20.1434
   -13.5937 -12.3906 -12.1010 -11.1553 -10.4620 -10.1912  -9.9067  -8.9517
    -8.7878  -8.3253  -8.1580  -7.5844  -6.2093

     occupation numbers 
     1.0000   1.0000   1.0000   1.0000   1.0000   1.0000   1.0000   1.0000
     1.0000   1.0000   1.0000   1.0000   1.0000   1.0000   1.0000   1.0000
     1.0000   1.0000   1.0000   1.0000   1.0000

          k =-0.0909-0.1551 0.0000 ( 14541 PWs)   bands (ev):

   -77.8663 -49.1470 -49.0829 -49.0344 -24.2639 -24.1928 -21.5793 -20.3287
   -13.8076 -11.3948 -10.8824 -10.8586  -9.8418  -9.6873  -9.4286  -9.1716
    -8.6149  -8.1384  -8.0400  -7.3928  -5.8105

     occupation numbers 
     1.0000   1.0000   1.0000   1.0000   1.0000   1.0000   1.0000   1.0000
     1.0000   1.0000   1.0000   1.0000   1.0000   1.0000   1.0000   1.0000
     1.0000   1.0000   1.0000   1.0000   1.0000

     highest occupied level (ev):    -5.4567

!    total energy              =    -263.34670183 Ry
     estimated scf accuracy    <          7.7E-12 Ry

     The total energy is the sum of the following terms:
     one-electron contribution =   -6687.58093983 Ry
     hartree contribution      =    3340.29698276 Ry
     xc contribution           =     -44.78984208 Ry
     ewald contribution        =    3128.72709732 Ry

     convergence has been achieved in  21 iterations

     Forces acting on atoms (cartesian axes, Ry/au):

     atom    1 type  1   force =    -0.00002693    0.00026564    0.00020175
     atom    2 type  2   force =     0.00006358    0.00014914    0.00026710
     atom    3 type  2   force =     0.00007020   -0.00052122    0.00012806
     atom    4 type  2   force =    -0.00003619   -0.00019867   -0.00008740
     atom    5 type  2   force =    -0.00000086    0.00025020   -0.00024347
     atom    6 type  3   force =     0.00003618    0.00068946   -0.00021861
     atom    7 type  3   force =    -0.00010598   -0.00063456   -0.00004743
     The non-local contrib.  to forces
     atom    1 type  1   force =    -0.00003665   -0.00212880   -0.00527378
     atom    2 type  2   force =     0.00009279   -0.01010079   -0.08358539
     atom    3 type  2   force =    -0.00014916   -0.00937433    0.10841304
     atom    4 type  2   force =    -0.00041718    0.01379063   -0.87045006
     atom    5 type  2   force =    -0.00024477   -0.01335131    0.83618335
     atom    6 type  3   force =    -0.00001952   -0.02250552   -0.11236757
     atom    7 type  3   force =    -0.00057505    0.02245118    0.09314087
     The ionic contribution  to forces
     atom    1 type  1   force =    -0.00170877   -0.25029330   -0.19681621
     atom    2 type  2   force =     0.00025929    0.13163087  -43.39422024
     atom    3 type  2   force =     0.00105232    0.11730733   43.56338621
     atom    4 type  2   force =     0.00087607   -0.05772720   89.78436260
     atom    5 type  2   force =     0.00011703    0.05718337  -89.65181306
     atom    6 type  3   force =     0.00027381   -0.05127449  -62.37814722
     atom    7 type  3   force =    -0.00086976    0.05317341   62.27324793
     The local contribution  to forces
     atom    1 type  1   force =     0.00159959    0.25273692    0.20231701
     atom    2 type  2   force =    -0.00040741   -0.12133169   43.47811834
     atom    3 type  2   force =    -0.00095186   -0.10840498  -43.67162688
     atom    4 type  2   force =    -0.00061398    0.04378714  -88.91395015
     atom    5 type  2   force =     0.00000798   -0.04353261   88.81543657
     atom    6 type  3   force =    -0.00033701    0.07451871   62.49034624
     atom    7 type  3   force =     0.00121994   -0.07620990  -62.36638663
     The core correction contribution to forces
     atom    1 type  1   force =     0.00000000    0.00000000    0.00000000
     atom    2 type  2   force =     0.00000000    0.00000000    0.00000000
     atom    3 type  2   force =     0.00000000    0.00000000    0.00000000
     atom    4 type  2   force =     0.00000000    0.00000000    0.00000000
     atom    5 type  2   force =     0.00000000    0.00000000    0.00000000
     atom    6 type  3   force =     0.00000000    0.00000000    0.00000000
     atom    7 type  3   force =     0.00000000    0.00000000    0.00000000
     The Hubbard contrib.    to forces
     atom    1 type  1   force =     0.00000000    0.00000000    0.00000000
     atom    2 type  2   force =     0.00000000    0.00000000    0.00000000
     atom    3 type  2   force =     0.00000000    0.00000000    0.00000000
     atom    4 type  2   force =     0.00000000    0.00000000    0.00000000
     atom    5 type  2   force =     0.00000000    0.00000000    0.00000000
     atom    6 type  3   force =     0.00000000    0.00000000    0.00000000
     atom    7 type  3   force =     0.00000000    0.00000000    0.00000000
     The SCF correction term to forces
     atom    1 type  1   force =    -0.00000001    0.00000005    0.00002557
     atom    2 type  2   force =    -0.00000000   -0.00000001    0.00000523
     atom    3 type  2   force =     0.00000001    0.00000001    0.00000654
     atom    4 type  2   force =    -0.00000000    0.00000001    0.00000105
     atom    5 type  2   force =     0.00000000   -0.00000000    0.00000052
     atom    6 type  3   force =     0.00000000   -0.00000000    0.00000079
     atom    7 type  3   force =     0.00000000    0.00000000    0.00000124

     Total force =     0.001270     Total SCF correction =     0.000027
     Energy error            =      3.1E-04 Ry
     Gradient error          =      6.9E-04 Ry/Bohr

     number of scf cycles    =  10
     number of bfgs steps    =   9

     energy             old  =    -263.3463872687 Ry
     energy             new  =    -263.3467018299 Ry

     CASE: energy            _new < energy            _old

     new trust radius        =       0.0010299911 bohr
     new conv_thr            =            1.0E-12 Ry


ATOMIC_POSITIONS (angstrom)
Cr               2.2010720578        0.3513806634       11.0251673935
N                0.8003258849        1.1717147948        9.8758728106
N                0.8002384511        1.1761631150       12.1891052080
N                2.2006132907        0.3423136684       14.5034651073
N               -0.5999250528        2.0024570891        7.5846057054
Si               0.8008096921        1.1728329033        8.1289405537
Si               0.8001232320        1.1719032095       13.9489898845



     Writing config-only to output data dir ./tmp/crsi2n4.save/ :
     XML data file
     NEW-OLD atomic charge density approx. for the potential

     total cpu time spent up to now is     4482.6 secs

     Self-consistent Calculation
[tb_dev] Currently allocated     0.00E+00 Mbytes, locked:    0 /   0
[tb_pin] Currently allocated     0.00E+00 Mbytes, locked:    0 /   0

     iteration #  1     ecut=    80.00 Ry     beta= 0.40
     Davidson diagonalization with overlap

---- Real-time Memory Report at c_bands before calling an iterative solver
          1431 MiB given to the printing process from OS
             0 MiB allocation reported by mallinfo(arena+hblkhd)
         15863 MiB available memory on the node where the printing process lives
     GPU memory used/free/total (MiB): 1213 / 10700 / 11914
------------------
     ethr =  1.00E-06,  avg # of iterations =  2.0

     Threshold (ethr) on eigenvalues was too large:
     Diagonalizing with lowered threshold

     Davidson diagonalization with overlap

---- Real-time Memory Report at c_bands before calling an iterative solver
          1431 MiB given to the printing process from OS
             0 MiB allocation reported by mallinfo(arena+hblkhd)
         15853 MiB available memory on the node where the printing process lives
     GPU memory used/free/total (MiB): 1213 / 10700 / 11914
------------------
     ethr =  1.84E-09,  avg # of iterations =  4.9

     total cpu time spent up to now is     4511.6 secs

     total energy              =    -263.34670313 Ry
     estimated scf accuracy    <       0.00000043 Ry
[tb_dev] Currently allocated     2.67E-05 Mbytes, locked:    0 /   1
[tb_pin] Currently allocated     0.00E+00 Mbytes, locked:    0 /   0

     iteration #  2     ecut=    80.00 Ry     beta= 0.40
     Davidson diagonalization with overlap

---- Real-time Memory Report at c_bands before calling an iterative solver
          1431 MiB given to the printing process from OS
             0 MiB allocation reported by mallinfo(arena+hblkhd)
         15849 MiB available memory on the node where the printing process lives
     GPU memory used/free/total (MiB): 1213 / 10700 / 11914
------------------
     ethr =  1.02E-09,  avg # of iterations =  6.4

     total cpu time spent up to now is     4529.8 secs

     total energy              =    -263.34670312 Ry
     estimated scf accuracy    <       0.00000081 Ry
[tb_dev] Currently allocated     2.67E-05 Mbytes, locked:    0 /   1
[tb_pin] Currently allocated     0.00E+00 Mbytes, locked:    0 /   0

     iteration #  3     ecut=    80.00 Ry     beta= 0.40
     Davidson diagonalization with overlap

---- Real-time Memory Report at c_bands before calling an iterative solver
          1432 MiB given to the printing process from OS
             0 MiB allocation reported by mallinfo(arena+hblkhd)
         15850 MiB available memory on the node where the printing process lives
     GPU memory used/free/total (MiB): 1213 / 10700 / 11914
------------------
     ethr =  1.02E-09,  avg # of iterations =  5.4

     total cpu time spent up to now is     4546.1 secs

     total energy              =    -263.34670324 Ry
     estimated scf accuracy    <       0.00000006 Ry
[tb_dev] Currently allocated     2.67E-05 Mbytes, locked:    0 /   1
[tb_pin] Currently allocated     0.00E+00 Mbytes, locked:    0 /   0

     iteration #  4     ecut=    80.00 Ry     beta= 0.40
     Davidson diagonalization with overlap

---- Real-time Memory Report at c_bands before calling an iterative solver
          1432 MiB given to the printing process from OS
             0 MiB allocation reported by mallinfo(arena+hblkhd)
         15876 MiB available memory on the node where the printing process lives
     GPU memory used/free/total (MiB): 1213 / 10700 / 11914
------------------
     ethr =  1.53E-10,  avg # of iterations =  5.7

     total cpu time spent up to now is     4562.0 secs

     total energy              =    -263.34670324 Ry
     estimated scf accuracy    <       0.00000007 Ry
[tb_dev] Currently allocated     2.67E-05 Mbytes, locked:    0 /   1
[tb_pin] Currently allocated     0.00E+00 Mbytes, locked:    0 /   0

     iteration #  5     ecut=    80.00 Ry     beta= 0.40
     Davidson diagonalization with overlap

---- Real-time Memory Report at c_bands before calling an iterative solver
          1432 MiB given to the printing process from OS
             0 MiB allocation reported by mallinfo(arena+hblkhd)
         15870 MiB available memory on the node where the printing process lives
     GPU memory used/free/total (MiB): 1213 / 10700 / 11914
------------------
     ethr =  1.53E-10,  avg # of iterations =  3.8

     total cpu time spent up to now is     4575.2 secs

     total energy              =    -263.34670325 Ry
     estimated scf accuracy    <          9.8E-09 Ry
[tb_dev] Currently allocated     2.67E-05 Mbytes, locked:    0 /   1
[tb_pin] Currently allocated     0.00E+00 Mbytes, locked:    0 /   0

     iteration #  6     ecut=    80.00 Ry     beta= 0.40
     Davidson diagonalization with overlap

---- Real-time Memory Report at c_bands before calling an iterative solver
          1432 MiB given to the printing process from OS
             0 MiB allocation reported by mallinfo(arena+hblkhd)
         15859 MiB available memory on the node where the printing process lives
     GPU memory used/free/total (MiB): 1213 / 10700 / 11914
------------------
     ethr =  2.33E-11,  avg # of iterations =  7.6

     total cpu time spent up to now is     4594.9 secs

     total energy              =    -263.34670325 Ry
     estimated scf accuracy    <       0.00000002 Ry
[tb_dev] Currently allocated     2.67E-05 Mbytes, locked:    0 /   1
[tb_pin] Currently allocated     0.00E+00 Mbytes, locked:    0 /   0

     iteration #  7     ecut=    80.00 Ry     beta= 0.40
     Davidson diagonalization with overlap

---- Real-time Memory Report at c_bands before calling an iterative solver
          1432 MiB given to the printing process from OS
             0 MiB allocation reported by mallinfo(arena+hblkhd)
         15862 MiB available memory on the node where the printing process lives
     GPU memory used/free/total (MiB): 1213 / 10700 / 11914
------------------
     ethr =  2.33E-11,  avg # of iterations =  4.1

     total cpu time spent up to now is     4608.6 secs

     total energy              =    -263.34670325 Ry
     estimated scf accuracy    <          2.5E-09 Ry
[tb_dev] Currently allocated     2.67E-05 Mbytes, locked:    0 /   1
[tb_pin] Currently allocated     0.00E+00 Mbytes, locked:    0 /   0

     iteration #  8     ecut=    80.00 Ry     beta= 0.40
     Davidson diagonalization with overlap

---- Real-time Memory Report at c_bands before calling an iterative solver
          1432 MiB given to the printing process from OS
             0 MiB allocation reported by mallinfo(arena+hblkhd)
         15847 MiB available memory on the node where the printing process lives
     GPU memory used/free/total (MiB): 1213 / 10700 / 11914
------------------
     ethr =  5.93E-12,  avg # of iterations =  6.7

     total cpu time spent up to now is     4627.5 secs

     total energy              =    -263.34670326 Ry
     estimated scf accuracy    <          2.9E-09 Ry
[tb_dev] Currently allocated     2.67E-05 Mbytes, locked:    0 /   1
[tb_pin] Currently allocated     0.00E+00 Mbytes, locked:    0 /   0

     iteration #  9     ecut=    80.00 Ry     beta= 0.40
     Davidson diagonalization with overlap

---- Real-time Memory Report at c_bands before calling an iterative solver
          1432 MiB given to the printing process from OS
             0 MiB allocation reported by mallinfo(arena+hblkhd)
         15842 MiB available memory on the node where the printing process lives
     GPU memory used/free/total (MiB): 1213 / 10700 / 11914
------------------
     ethr =  5.93E-12,  avg # of iterations =  1.0

     total cpu time spent up to now is     4636.0 secs

     total energy              =    -263.34670325 Ry
     estimated scf accuracy    <          2.2E-09 Ry
[tb_dev] Currently allocated     2.67E-05 Mbytes, locked:    0 /   1
[tb_pin] Currently allocated     0.00E+00 Mbytes, locked:    0 /   0

     iteration # 10     ecut=    80.00 Ry     beta= 0.40
     Davidson diagonalization with overlap

---- Real-time Memory Report at c_bands before calling an iterative solver
          1433 MiB given to the printing process from OS
             0 MiB allocation reported by mallinfo(arena+hblkhd)
         15836 MiB available memory on the node where the printing process lives
     GPU memory used/free/total (MiB): 1213 / 10700 / 11914
------------------
     ethr =  5.13E-12,  avg # of iterations =  3.5

     total cpu time spent up to now is     4649.3 secs

     total energy              =    -263.34670325 Ry
     estimated scf accuracy    <          3.1E-10 Ry
[tb_dev] Currently allocated     2.67E-05 Mbytes, locked:    0 /   1
[tb_pin] Currently allocated     0.00E+00 Mbytes, locked:    0 /   0

     iteration # 11     ecut=    80.00 Ry     beta= 0.40
     Davidson diagonalization with overlap

---- Real-time Memory Report at c_bands before calling an iterative solver
          1434 MiB given to the printing process from OS
             0 MiB allocation reported by mallinfo(arena+hblkhd)
         15841 MiB available memory on the node where the printing process lives
     GPU memory used/free/total (MiB): 1213 / 10700 / 11914
------------------
     ethr =  7.48E-13,  avg # of iterations =  6.0

     total cpu time spent up to now is     4667.0 secs

     total energy              =    -263.34670325 Ry
     estimated scf accuracy    <          7.9E-11 Ry
[tb_dev] Currently allocated     2.67E-05 Mbytes, locked:    0 /   1
[tb_pin] Currently allocated     0.00E+00 Mbytes, locked:    0 /   0

     iteration # 12     ecut=    80.00 Ry     beta= 0.40
     Davidson diagonalization with overlap

---- Real-time Memory Report at c_bands before calling an iterative solver
          1434 MiB given to the printing process from OS
             0 MiB allocation reported by mallinfo(arena+hblkhd)
         15848 MiB available memory on the node where the printing process lives
     GPU memory used/free/total (MiB): 1213 / 10700 / 11914
------------------
     ethr =  1.89E-13,  avg # of iterations =  2.8

     total cpu time spent up to now is     4679.1 secs

     total energy              =    -263.34670325 Ry
     estimated scf accuracy    <          8.6E-11 Ry
[tb_dev] Currently allocated     2.67E-05 Mbytes, locked:    0 /   1
[tb_pin] Currently allocated     0.00E+00 Mbytes, locked:    0 /   0

     iteration # 13     ecut=    80.00 Ry     beta= 0.40
     Davidson diagonalization with overlap

---- Real-time Memory Report at c_bands before calling an iterative solver
          1434 MiB given to the printing process from OS
             0 MiB allocation reported by mallinfo(arena+hblkhd)
         15834 MiB available memory on the node where the printing process lives
     GPU memory used/free/total (MiB): 1213 / 10700 / 11914
------------------
     ethr =  1.89E-13,  avg # of iterations =  5.2

     total cpu time spent up to now is     4694.9 secs

     total energy              =    -263.34670325 Ry
     estimated scf accuracy    <          1.7E-12 Ry
[tb_dev] Currently allocated     2.67E-05 Mbytes, locked:    0 /   1
[tb_pin] Currently allocated     0.00E+00 Mbytes, locked:    0 /   0

     iteration # 14     ecut=    80.00 Ry     beta= 0.40
     Davidson diagonalization with overlap

---- Real-time Memory Report at c_bands before calling an iterative solver
          1435 MiB given to the printing process from OS
             0 MiB allocation reported by mallinfo(arena+hblkhd)
         15841 MiB available memory on the node where the printing process lives
     GPU memory used/free/total (MiB): 1213 / 10700 / 11914
------------------
     ethr =  1.00E-13,  avg # of iterations =  3.3

     total cpu time spent up to now is     4708.0 secs

     total energy              =    -263.34670325 Ry
     estimated scf accuracy    <          1.0E-11 Ry
[tb_dev] Currently allocated     2.67E-05 Mbytes, locked:    0 /   1
[tb_pin] Currently allocated     0.00E+00 Mbytes, locked:    0 /   0

     iteration # 15     ecut=    80.00 Ry     beta= 0.40
     Davidson diagonalization with overlap

---- Real-time Memory Report at c_bands before calling an iterative solver
          1435 MiB given to the printing process from OS
             0 MiB allocation reported by mallinfo(arena+hblkhd)
         15834 MiB available memory on the node where the printing process lives
     GPU memory used/free/total (MiB): 1213 / 10700 / 11914
------------------
     ethr =  1.00E-13,  avg # of iterations =  1.2

     total cpu time spent up to now is     4716.9 secs

     total energy              =    -263.34670325 Ry
     estimated scf accuracy    <          3.8E-12 Ry
[tb_dev] Currently allocated     2.67E-05 Mbytes, locked:    0 /   1
[tb_pin] Currently allocated     0.00E+00 Mbytes, locked:    0 /   0

     iteration # 16     ecut=    80.00 Ry     beta= 0.40
     Davidson diagonalization with overlap

---- Real-time Memory Report at c_bands before calling an iterative solver
          1435 MiB given to the printing process from OS
             0 MiB allocation reported by mallinfo(arena+hblkhd)
         15831 MiB available memory on the node where the printing process lives
     GPU memory used/free/total (MiB): 1213 / 10700 / 11914
------------------
     ethr =  1.00E-13,  avg # of iterations =  1.0

     total cpu time spent up to now is     4725.3 secs

     total energy              =    -263.34670326 Ry
     estimated scf accuracy    <          1.8E-12 Ry
[tb_dev] Currently allocated     2.67E-05 Mbytes, locked:    0 /   1
[tb_pin] Currently allocated     0.00E+00 Mbytes, locked:    0 /   0

     iteration # 17     ecut=    80.00 Ry     beta= 0.40
     Davidson diagonalization with overlap

---- Real-time Memory Report at c_bands before calling an iterative solver
          1435 MiB given to the printing process from OS
             0 MiB allocation reported by mallinfo(arena+hblkhd)
         15825 MiB available memory on the node where the printing process lives
     GPU memory used/free/total (MiB): 1213 / 10700 / 11914
------------------
     ethr =  1.00E-13,  avg # of iterations =  1.0

     total cpu time spent up to now is     4733.8 secs

     total energy              =    -263.34670325 Ry
     estimated scf accuracy    <          1.1E-12 Ry
[tb_dev] Currently allocated     2.67E-05 Mbytes, locked:    0 /   1
[tb_pin] Currently allocated     0.00E+00 Mbytes, locked:    0 /   0

     iteration # 18     ecut=    80.00 Ry     beta= 0.40
     Davidson diagonalization with overlap

---- Real-time Memory Report at c_bands before calling an iterative solver
          1435 MiB given to the printing process from OS
             0 MiB allocation reported by mallinfo(arena+hblkhd)
         15820 MiB available memory on the node where the printing process lives
     GPU memory used/free/total (MiB): 1213 / 10700 / 11914
------------------
     ethr =  1.00E-13,  avg # of iterations =  1.0

     total cpu time spent up to now is     4742.3 secs

     End of self-consistent calculation

          k = 0.0000 0.0000 0.0000 ( 14509 PWs)   bands (ev):

   -77.8739 -49.0879 -49.0600 -49.0454 -24.6893 -24.6122 -21.8996 -20.5012
   -14.1273 -11.5156  -9.5618  -9.3688  -9.3187  -9.1943  -9.1411  -8.9455
    -8.8114  -7.6427  -7.5863  -7.5555  -5.4563

     occupation numbers 
     1.0000   1.0000   1.0000   1.0000   1.0000   1.0000   1.0000   1.0000
     1.0000   1.0000   1.0000   1.0000   1.0000   1.0000   1.0000   1.0000
     1.0000   1.0000   1.0000   1.0000   1.0000

          k = 0.0000 0.1034 0.0000 ( 14525 PWs)   bands (ev):

   -77.8710 -49.1106 -49.0650 -49.0413 -24.5466 -24.4717 -21.7891 -20.4417
   -14.0121 -11.4638 -10.0697  -9.9831  -9.3514  -9.3139  -9.2795  -9.1929
    -8.7246  -7.9026  -7.6962  -7.4199  -5.5648

     occupation numbers 
     1.0000   1.0000   1.0000   1.0000   1.0000   1.0000   1.0000   1.0000
     1.0000   1.0000   1.0000   1.0000   1.0000   1.0000   1.0000   1.0000
     1.0000   1.0000   1.0000   1.0000   1.0000

          k = 0.0000 0.2068 0.0000 ( 14553 PWs)   bands (ev):

   -77.8632 -49.1713 -49.0782 -49.0302 -24.1304 -24.0617 -21.4848 -20.2806
   -13.7319 -11.5690 -11.3746 -11.2057  -9.8088  -9.6307  -9.6214  -9.1188
    -8.4642  -8.3033  -8.0328  -7.5281  -5.9364

     occupation numbers 
     1.0000   1.0000   1.0000   1.0000   1.0000   1.0000   1.0000   1.0000
     1.0000   1.0000   1.0000   1.0000   1.0000   1.0000   1.0000   1.0000
     1.0000   1.0000   1.0000   1.0000   1.0000

          k = 0.0000 0.3102 0.0000 ( 14539 PWs)   bands (ev):

   -77.8529 -49.2500 -49.0954 -49.0158 -23.4829 -23.4238 -21.0730 -20.0766
   -13.7534 -13.1265 -12.5292 -11.1498 -10.4972 -10.0229 -10.0059  -8.9587
    -8.7532  -8.4284  -8.0770  -7.7256  -6.3331

     occupation numbers 
     1.0000   1.0000   1.0000   1.0000   1.0000   1.0000   1.0000   1.0000
     1.0000   1.0000   1.0000   1.0000   1.0000   1.0000   1.0000   1.0000
     1.0000   1.0000   1.0000   1.0000   1.0000

          k = 0.0000 0.4136 0.0000 ( 14485 PWs)   bands (ev):

   -77.8435 -49.3216 -49.1112 -49.0025 -22.7075 -22.6608 -20.7102 -19.9356
   -14.8218 -14.5561 -12.5141 -11.3368 -10.9250 -10.3510 -10.3204  -9.3837
    -8.7364  -8.5333  -7.8116  -7.7043  -6.4665

     occupation numbers 
     1.0000   1.0000   1.0000   1.0000   1.0000   1.0000   1.0000   1.0000
     1.0000   1.0000   1.0000   1.0000   1.0000   1.0000   1.0000   1.0000
     1.0000   1.0000   1.0000   1.0000   1.0000

          k = 0.0000 0.5170 0.0000 ( 14484 PWs)   bands (ev):

   -77.8379 -49.3639 -49.1206 -48.9946 -22.0672 -22.0336 -20.5674 -19.9427
   -15.6587 -15.4200 -12.3394 -11.7236 -11.0602 -10.5322 -10.4947  -9.5676
    -8.9071  -8.2843  -7.8263  -7.4630  -6.4305

     occupation numbers 
     1.0000   1.0000   1.0000   1.0000   1.0000   1.0000   1.0000   1.0000
     1.0000   1.0000   1.0000   1.0000   1.0000   1.0000   1.0000   1.0000
     1.0000   1.0000   1.0000   1.0000   1.0000

          k = 0.0000-0.5170 0.0000 ( 14484 PWs)   bands (ev):

   -77.8379 -49.3639 -49.1206 -48.9946 -22.0672 -22.0336 -20.5674 -19.9427
   -15.6587 -15.4200 -12.3394 -11.7236 -11.0602 -10.5322 -10.4947  -9.5676
    -8.9071  -8.2843  -7.8263  -7.4630  -6.4305

     occupation numbers 
     1.0000   1.0000   1.0000   1.0000   1.0000   1.0000   1.0000   1.0000
     1.0000   1.0000   1.0000   1.0000   1.0000   1.0000   1.0000   1.0000
     1.0000   1.0000   1.0000   1.0000   1.0000

          k = 0.0000-0.4136 0.0000 ( 14485 PWs)   bands (ev):

   -77.8435 -49.3216 -49.1112 -49.0025 -22.7075 -22.6608 -20.7102 -19.9356
   -14.8218 -14.5561 -12.5141 -11.3368 -10.9250 -10.3510 -10.3204  -9.3837
    -8.7364  -8.5333  -7.8116  -7.7043  -6.4665

     occupation numbers 
     1.0000   1.0000   1.0000   1.0000   1.0000   1.0000   1.0000   1.0000
     1.0000   1.0000   1.0000   1.0000   1.0000   1.0000   1.0000   1.0000
     1.0000   1.0000   1.0000   1.0000   1.0000

          k = 0.0000-0.3102 0.0000 ( 14539 PWs)   bands (ev):

   -77.8529 -49.2500 -49.0954 -49.0158 -23.4829 -23.4238 -21.0730 -20.0766
   -13.7534 -13.1265 -12.5292 -11.1498 -10.4972 -10.0229 -10.0059  -8.9587
    -8.7532  -8.4284  -8.0770  -7.7256  -6.3331

     occupation numbers 
     1.0000   1.0000   1.0000   1.0000   1.0000   1.0000   1.0000   1.0000
     1.0000   1.0000   1.0000   1.0000   1.0000   1.0000   1.0000   1.0000
     1.0000   1.0000   1.0000   1.0000   1.0000

          k = 0.0000-0.2068 0.0000 ( 14553 PWs)   bands (ev):

   -77.8632 -49.1713 -49.0782 -49.0302 -24.1304 -24.0617 -21.4848 -20.2806
   -13.7319 -11.5690 -11.3746 -11.2057  -9.8088  -9.6307  -9.6214  -9.1188
    -8.4642  -8.3033  -8.0328  -7.5281  -5.9364

     occupation numbers 
     1.0000   1.0000   1.0000   1.0000   1.0000   1.0000   1.0000   1.0000
     1.0000   1.0000   1.0000   1.0000   1.0000   1.0000   1.0000   1.0000
     1.0000   1.0000   1.0000   1.0000   1.0000

          k = 0.0000-0.1034 0.0000 ( 14525 PWs)   bands (ev):

   -77.8710 -49.1106 -49.0650 -49.0413 -24.5466 -24.4717 -21.7891 -20.4417
   -14.0121 -11.4638 -10.0697  -9.9831  -9.3514  -9.3139  -9.2795  -9.1929
    -8.7246  -7.9026  -7.6962  -7.4199  -5.5648

     occupation numbers 
     1.0000   1.0000   1.0000   1.0000   1.0000   1.0000   1.0000   1.0000
     1.0000   1.0000   1.0000   1.0000   1.0000   1.0000   1.0000   1.0000
     1.0000   1.0000   1.0000   1.0000   1.0000

          k = 0.0909 0.0517 0.0000 ( 14561 PWs)   bands (ev):

   -77.8708 -49.1000 -49.0771 -49.0410 -24.5430 -24.4681 -21.7856 -20.4384
   -14.0080 -11.4599  -9.9665  -9.8598  -9.4542  -9.4185  -9.3130  -9.1147
    -8.8143  -7.8864  -7.7437  -7.3928  -5.5605

     occupation numbers 
     1.0000   1.0000   1.0000   1.0000   1.0000   1.0000   1.0000   1.0000
     1.0000   1.0000   1.0000   1.0000   1.0000   1.0000   1.0000   1.0000
     1.0000   1.0000   1.0000   1.0000   1.0000

          k = 0.0909 0.1551 0.0000 ( 14541 PWs)   bands (ev):

   -77.8654 -49.1460 -49.0818 -49.0335 -24.2634 -24.1927 -21.5780 -20.3276
   -13.8064 -11.3949 -10.8814 -10.8586  -9.8413  -9.6875  -9.4280  -9.1717
    -8.6130  -8.1371  -8.0390  -7.3923  -5.8096

     occupation numbers 
     1.0000   1.0000   1.0000   1.0000   1.0000   1.0000   1.0000   1.0000
     1.0000   1.0000   1.0000   1.0000   1.0000   1.0000   1.0000   1.0000
     1.0000   1.0000   1.0000   1.0000   1.0000

          k = 0.0909 0.2585 0.0000 ( 14530 PWs)   bands (ev):

   -77.8564 -49.2149 -49.0978 -49.0207 -23.7298 -23.6670 -21.2177 -20.1421
   -13.5924 -12.3901 -12.1004 -11.1549 -10.4613 -10.1916  -9.9065  -8.9517
    -8.7868  -8.3236  -8.1571  -7.5840  -6.2081

     occupation numbers 
     1.0000   1.0000   1.0000   1.0000   1.0000   1.0000   1.0000   1.0000
     1.0000   1.0000   1.0000   1.0000   1.0000   1.0000   1.0000   1.0000
     1.0000   1.0000   1.0000   1.0000   1.0000

          k = 0.0909 0.3619 0.0000 ( 14507 PWs)   bands (ev):

   -77.8466 -49.2875 -49.1170 -49.0068 -23.0097 -22.9575 -20.8238 -19.9623
   -14.2069 -13.8572 -12.5379 -11.1996 -10.8953 -10.6485 -10.4174  -9.4241
    -8.6985  -8.3498  -8.0358  -7.7587  -6.4474

     occupation numbers 
     1.0000   1.0000   1.0000   1.0000   1.0000   1.0000   1.0000   1.0000
     1.0000   1.0000   1.0000   1.0000   1.0000   1.0000   1.0000   1.0000
     1.0000   1.0000   1.0000   1.0000   1.0000

          k = 0.0909 0.4653 0.0000 ( 14482 PWs)   bands (ev):

   -77.8390 -49.3420 -49.1320 -48.9962 -22.2664 -22.2276 -20.5726 -19.8990
   -15.2381 -14.9946 -12.3584 -11.5977 -11.0888 -10.8536 -10.8063  -9.6691
    -8.8160  -8.3184  -7.9293  -7.6773  -6.4116

     occupation numbers 
     1.0000   1.0000   1.0000   1.0000   1.0000   1.0000   1.0000   1.0000
     1.0000   1.0000   1.0000   1.0000   1.0000   1.0000   1.0000   1.0000
     1.0000   1.0000   1.0000   1.0000   1.0000

          k = 0.0909 0.5687 0.0000 ( 14530 PWs)   bands (ev):

   -77.8362 -49.3622 -49.1376 -48.9923 -21.8949 -21.8636 -20.5322 -19.9317
   -15.6704 -15.4316 -12.2446 -11.8058 -11.1758 -11.0198 -10.8835  -9.6455
    -8.9966  -8.1883  -7.8820  -7.6373  -6.3425

     occupation numbers 
     1.0000   1.0000   1.0000   1.0000   1.0000   1.0000   1.0000   1.0000
     1.0000   1.0000   1.0000   1.0000   1.0000   1.0000   1.0000   1.0000
     1.0000   1.0000   1.0000   1.0000   1.0000

          k = 0.0909-0.4653 0.0000 ( 14482 PWs)   bands (ev):

   -77.8390 -49.3420 -49.1320 -48.9962 -22.2663 -22.2275 -20.5727 -19.8990
   -15.2382 -14.9946 -12.3584 -11.5976 -11.0886 -10.8539 -10.8062  -9.6687
    -8.8163  -8.3185  -7.9294  -7.6775  -6.4113

     occupation numbers 
     1.0000   1.0000   1.0000   1.0000   1.0000   1.0000   1.0000   1.0000
     1.0000   1.0000   1.0000   1.0000   1.0000   1.0000   1.0000   1.0000
     1.0000   1.0000   1.0000   1.0000   1.0000

          k = 0.0909-0.3619 0.0000 ( 14507 PWs)   bands (ev):

   -77.8466 -49.2875 -49.1170 -49.0068 -23.0096 -22.9575 -20.8239 -19.9623
   -14.2070 -13.8572 -12.5379 -11.1995 -10.8952 -10.6484 -10.4176  -9.4240
    -8.6984  -8.3497  -8.0359  -7.7591  -6.4471

     occupation numbers 
     1.0000   1.0000   1.0000   1.0000   1.0000   1.0000   1.0000   1.0000
     1.0000   1.0000   1.0000   1.0000   1.0000   1.0000   1.0000   1.0000
     1.0000   1.0000   1.0000   1.0000   1.0000

          k = 0.0909-0.2585 0.0000 ( 14530 PWs)   bands (ev):

   -77.8564 -49.2149 -49.0978 -49.0207 -23.7298 -23.6669 -21.2178 -20.1421
   -13.5925 -12.3902 -12.1005 -11.1548 -10.4612 -10.1913  -9.9066  -8.9517
    -8.7871  -8.3235  -8.1565  -7.5846  -6.2078

     occupation numbers 
     1.0000   1.0000   1.0000   1.0000   1.0000   1.0000   1.0000   1.0000
     1.0000   1.0000   1.0000   1.0000   1.0000   1.0000   1.0000   1.0000
     1.0000   1.0000   1.0000   1.0000   1.0000

          k = 0.0909-0.1551 0.0000 ( 14541 PWs)   bands (ev):

   -77.8654 -49.1461 -49.0818 -49.0335 -24.2634 -24.1927 -21.5780 -20.3276
   -13.8064 -11.3948 -10.8820 -10.8586  -9.8410  -9.6871  -9.4280  -9.1717
    -8.6129  -8.1377  -8.0382  -7.3927  -5.8094

     occupation numbers 
     1.0000   1.0000   1.0000   1.0000   1.0000   1.0000   1.0000   1.0000
     1.0000   1.0000   1.0000   1.0000   1.0000   1.0000   1.0000   1.0000
     1.0000   1.0000   1.0000   1.0000   1.0000

          k = 0.0909-0.0517 0.0000 ( 14561 PWs)   bands (ev):

   -77.8708 -49.1001 -49.0771 -49.0410 -24.5430 -24.4681 -21.7856 -20.4384
   -14.0081 -11.4599  -9.9669  -9.8603  -9.4537  -9.4181  -9.3130  -9.1148
    -8.8142  -7.8856  -7.7446  -7.3927  -5.5604

     occupation numbers 
     1.0000   1.0000   1.0000   1.0000   1.0000   1.0000   1.0000   1.0000
     1.0000   1.0000   1.0000   1.0000   1.0000   1.0000   1.0000   1.0000
     1.0000   1.0000   1.0000   1.0000   1.0000

          k = 0.1818 0.1034 0.0000 ( 14557 PWs)   bands (ev):

   -77.8624 -49.1555 -49.0995 -49.0294 -24.1162 -24.0476 -21.4713 -20.2677
   -13.7140 -11.4817 -11.2496 -11.1460  -9.8004  -9.7896  -9.7434  -9.1006
    -8.5551  -8.2896  -8.1079  -7.4957  -5.9235

     occupation numbers 
     1.0000   1.0000   1.0000   1.0000   1.0000   1.0000   1.0000   1.0000
     1.0000   1.0000   1.0000   1.0000   1.0000   1.0000   1.0000   1.0000
     1.0000   1.0000   1.0000   1.0000   1.0000

          k = 0.1818 0.2068 0.0000 ( 14545 PWs)   bands (ev):

   -77.8558 -49.2069 -49.1100 -49.0201 -23.7192 -23.6564 -21.2076 -20.1318
   -13.5698 -12.3039 -12.0267 -11.1390 -10.5268 -10.3080  -9.9273  -8.9411
    -8.7990  -8.3730  -8.1861  -7.5742  -6.1984

     occupation numbers 
     1.0000   1.0000   1.0000   1.0000   1.0000   1.0000   1.0000   1.0000
     1.0000   1.0000   1.0000   1.0000   1.0000   1.0000   1.0000   1.0000
     1.0000   1.0000   1.0000   1.0000   1.0000

          k = 0.1818 0.3102 0.0000 ( 14487 PWs)   bands (ev):

   -77.8472 -49.2635 -49.1340 -49.0079 -23.1075 -23.0535 -20.8598 -19.9638
   -13.8353 -13.3453 -12.4138 -11.4078 -11.2552 -10.8863 -10.3068  -9.5564
    -8.7111  -8.3661  -8.0130  -7.7961  -6.4314

     occupation numbers 
     1.0000   1.0000   1.0000   1.0000   1.0000   1.0000   1.0000   1.0000
     1.0000   1.0000   1.0000   1.0000   1.0000   1.0000   1.0000   1.0000
     1.0000   1.0000   1.0000   1.0000   1.0000

          k = 0.1818 0.4136 0.0000 ( 14478 PWs)   bands (ev):

   -77.8393 -49.3110 -49.1602 -48.9967 -22.3878 -22.3452 -20.5677 -19.8530
   -14.6394 -14.3606 -12.3584 -12.0427 -11.8634 -10.8549 -10.7012  -9.9878
    -8.6637  -8.5381  -8.1280  -7.7341  -6.4037

     occupation numbers 
     1.0000   1.0000   1.0000   1.0000   1.0000   1.0000   1.0000   1.0000
     1.0000   1.0000   1.0000   1.0000   1.0000   1.0000   1.0000   1.0000
     1.0000   1.0000   1.0000   1.0000   1.0000

          k = 0.1818 0.5170 0.0000 ( 14479 PWs)   bands (ev):

   -77.8345 -49.3379 -49.1769 -48.9901 -21.8106 -21.7785 -20.4631 -19.8603
   -15.2719 -15.0286 -12.5393 -12.3511 -11.7352 -11.2105 -10.9966  -9.8137
    -9.0325  -8.6465  -8.1011  -7.5648  -6.2331

     occupation numbers 
     1.0000   1.0000   1.0000   1.0000   1.0000   1.0000   1.0000   1.0000
     1.0000   1.0000   1.0000   1.0000   1.0000   1.0000   1.0000   1.0000
     1.0000   1.0000   1.0000   1.0000   1.0000

          k = 0.1818 0.6204 0.0000 ( 14479 PWs)   bands (ev):

   -77.8345 -49.3379 -49.1769 -48.9901 -21.8106 -21.7785 -20.4631 -19.8604
   -15.2720 -15.0286 -12.5393 -12.3510 -11.7351 -11.2107 -10.9968  -9.8133
    -9.0327  -8.6465  -8.1014  -7.5648  -6.2329

     occupation numbers 
     1.0000   1.0000   1.0000   1.0000   1.0000   1.0000   1.0000   1.0000
     1.0000   1.0000   1.0000   1.0000   1.0000   1.0000   1.0000   1.0000
     1.0000   1.0000   1.0000   1.0000   1.0000

          k = 0.1818-0.4136 0.0000 ( 14478 PWs)   bands (ev):

   -77.8393 -49.3110 -49.1602 -48.9967 -22.3877 -22.3452 -20.5678 -19.8530
   -14.6396 -14.3606 -12.3583 -12.0424 -11.8633 -10.8551 -10.7015  -9.9874
    -8.6635  -8.5380  -8.1288  -7.7342  -6.4033

     occupation numbers 
     1.0000   1.0000   1.0000   1.0000   1.0000   1.0000   1.0000   1.0000
     1.0000   1.0000   1.0000   1.0000   1.0000   1.0000   1.0000   1.0000
     1.0000   1.0000   1.0000   1.0000   1.0000

          k = 0.1818-0.3102 0.0000 ( 14487 PWs)   bands (ev):

   -77.8472 -49.2635 -49.1339 -49.0079 -23.1074 -23.0534 -20.8599 -19.9638
   -13.8355 -13.3454 -12.4138 -11.4074 -11.2549 -10.8861 -10.3071  -9.5564
    -8.7111  -8.3659  -8.0128  -7.7969  -6.4309

     occupation numbers 
     1.0000   1.0000   1.0000   1.0000   1.0000   1.0000   1.0000   1.0000
     1.0000   1.0000   1.0000   1.0000   1.0000   1.0000   1.0000   1.0000
     1.0000   1.0000   1.0000   1.0000   1.0000

          k = 0.1818-0.2068 0.0000 ( 14545 PWs)   bands (ev):

   -77.8558 -49.2069 -49.1099 -49.0201 -23.7192 -23.6564 -21.2077 -20.1318
   -13.5700 -12.3042 -12.0269 -11.1388 -10.5265 -10.3075  -9.9274  -8.9410
    -8.7993  -8.3729  -8.1859  -7.5747  -6.1980

     occupation numbers 
     1.0000   1.0000   1.0000   1.0000   1.0000   1.0000   1.0000   1.0000
     1.0000   1.0000   1.0000   1.0000   1.0000   1.0000   1.0000   1.0000
     1.0000   1.0000   1.0000   1.0000   1.0000

          k = 0.1818-0.1034 0.0000 ( 14557 PWs)   bands (ev):

   -77.8624 -49.1556 -49.0995 -49.0294 -24.1162 -24.0476 -21.4713 -20.2677
   -13.7141 -11.4817 -11.2501 -11.1460  -9.7995  -9.7898  -9.7435  -9.1005
    -8.5550  -8.2889  -8.1087  -7.4958  -5.9232

     occupation numbers 
     1.0000   1.0000   1.0000   1.0000   1.0000   1.0000   1.0000   1.0000
     1.0000   1.0000   1.0000   1.0000   1.0000   1.0000   1.0000   1.0000
     1.0000   1.0000   1.0000   1.0000   1.0000

          k = 0.1818-0.0000 0.0000 ( 14573 PWs)   bands (ev):

   -77.8648 -49.1288 -49.1032 -49.0328 -24.2528 -24.1822 -21.5680 -20.3185
   -13.7949 -11.3802 -10.7987 -10.7765  -9.8825  -9.7848  -9.4344  -9.1603
    -8.6854  -8.1555  -8.0582  -7.3736  -5.8031

     occupation numbers 
     1.0000   1.0000   1.0000   1.0000   1.0000   1.0000   1.0000   1.0000
     1.0000   1.0000   1.0000   1.0000   1.0000   1.0000   1.0000   1.0000
     1.0000   1.0000   1.0000   1.0000   1.0000

          k = 0.2727 0.1551 0.0000 ( 14551 PWs)   bands (ev):

   -77.8514 -49.2365 -49.1198 -49.0141 -23.4521 -23.3930 -21.0448 -20.0481
   -13.6752 -13.0035 -12.4654 -11.1197 -10.4470 -10.2166 -10.1997  -8.9358
    -8.7495  -8.5258  -8.1688  -7.6903  -6.3155

     occupation numbers 
     1.0000   1.0000   1.0000   1.0000   1.0000   1.0000   1.0000   1.0000
     1.0000   1.0000   1.0000   1.0000   1.0000   1.0000   1.0000   1.0000
     1.0000   1.0000   1.0000   1.0000   1.0000

          k = 0.2727 0.2585 0.0000 ( 14499 PWs)   bands (ev):

   -77.8452 -49.2770 -49.1368 -49.0054 -22.9822 -22.9301 -20.7984 -19.9350
   -14.1084 -13.7463 -12.5132 -11.2166 -10.9583 -10.7880 -10.4765  -9.4428
    -8.6923  -8.4069  -8.1110  -7.7382  -6.4270

     occupation numbers 
     1.0000   1.0000   1.0000   1.0000   1.0000   1.0000   1.0000   1.0000
     1.0000   1.0000   1.0000   1.0000   1.0000   1.0000   1.0000   1.0000
     1.0000   1.0000   1.0000   1.0000   1.0000

          k = 0.2727 0.3619 0.0000 ( 14446 PWs)   bands (ev):

   -77.8385 -49.3048 -49.1716 -48.9959 -22.3705 -22.3279 -20.5519 -19.8355
   -14.5728 -14.2898 -12.3762 -12.1162 -11.9571 -10.8477 -10.6831 -10.0034
    -8.6903  -8.5528  -8.1512  -7.7250  -6.3908

     occupation numbers 
     1.0000   1.0000   1.0000   1.0000   1.0000   1.0000   1.0000   1.0000
     1.0000   1.0000   1.0000   1.0000   1.0000   1.0000   1.0000   1.0000
     1.0000   1.0000   1.0000   1.0000   1.0000

          k = 0.2727 0.4653 0.0000 ( 14474 PWs)   bands (ev):

   -77.8334 -49.3132 -49.2110 -48.9886 -21.7793 -21.7462 -20.4163 -19.8068
   -14.8402 -14.5680 -13.1857 -13.0512 -11.8145 -11.0444 -10.7771  -9.9967
    -9.3460  -8.7932  -8.1123  -7.5417  -6.1819

     occupation numbers 
     1.0000   1.0000   1.0000   1.0000   1.0000   1.0000   1.0000   1.0000
     1.0000   1.0000   1.0000   1.0000   1.0000   1.0000   1.0000   1.0000
     1.0000   1.0000   1.0000   1.0000   1.0000

          k = 0.2727 0.5687 0.0000 ( 14432 PWs)   bands (ev):

   -77.8315 -49.3112 -49.2308 -48.9859 -21.5085 -21.4753 -20.4004 -19.8228
   -14.9051 -14.6306 -13.5831 -13.4841 -11.5125 -11.2185 -10.8757  -9.8934
    -9.5588  -9.1090  -8.0413  -7.4446  -6.0385

     occupation numbers 
     1.0000   1.0000   1.0000   1.0000   1.0000   1.0000   1.0000   1.0000
     1.0000   1.0000   1.0000   1.0000   1.0000   1.0000   1.0000   1.0000
     1.0000   1.0000   1.0000   1.0000   1.0000

          k = 0.2727 0.6721 0.0000 ( 14474 PWs)   bands (ev):

   -77.8334 -49.3132 -49.2110 -48.9886 -21.7792 -21.7461 -20.4165 -19.8069
   -14.8404 -14.5680 -13.1853 -13.0511 -11.8146 -11.0447 -10.7775  -9.9961
    -9.3455  -8.7936  -8.1128  -7.5417  -6.1817

     occupation numbers 
     1.0000   1.0000   1.0000   1.0000   1.0000   1.0000   1.0000   1.0000
     1.0000   1.0000   1.0000   1.0000   1.0000   1.0000   1.0000   1.0000
     1.0000   1.0000   1.0000   1.0000   1.0000

          k = 0.2727-0.3619 0.0000 ( 14446 PWs)   bands (ev):

   -77.8385 -49.3048 -49.1716 -48.9959 -22.3704 -22.3278 -20.5521 -19.8356
   -14.5731 -14.2899 -12.3759 -12.1159 -11.9570 -10.8479 -10.6833 -10.0030
    -8.6900  -8.5529  -8.1522  -7.7250  -6.3904

     occupation numbers 
     1.0000   1.0000   1.0000   1.0000   1.0000   1.0000   1.0000   1.0000
     1.0000   1.0000   1.0000   1.0000   1.0000   1.0000   1.0000   1.0000
     1.0000   1.0000   1.0000   1.0000   1.0000

          k = 0.2727-0.2585 0.0000 ( 14499 PWs)   bands (ev):

   -77.8452 -49.2770 -49.1368 -49.0054 -22.9821 -22.9300 -20.7985 -19.9350
   -14.1087 -13.7464 -12.5132 -11.2165 -10.9582 -10.7875 -10.4766  -9.4428
    -8.6924  -8.4072  -8.1111  -7.7384  -6.4265

     occupation numbers 
     1.0000   1.0000   1.0000   1.0000   1.0000   1.0000   1.0000   1.0000
     1.0000   1.0000   1.0000   1.0000   1.0000   1.0000   1.0000   1.0000
     1.0000   1.0000   1.0000   1.0000   1.0000

          k = 0.2727-0.1551 0.0000 ( 14551 PWs)   bands (ev):

   -77.8514 -49.2365 -49.1198 -49.0141 -23.4521 -23.3930 -21.0448 -20.0481
   -13.6755 -13.0036 -12.4655 -11.1196 -10.4471 -10.2159 -10.1996  -8.9353
    -8.7498  -8.5264  -8.1688  -7.6903  -6.3151

     occupation numbers 
     1.0000   1.0000   1.0000   1.0000   1.0000   1.0000   1.0000   1.0000
     1.0000   1.0000   1.0000   1.0000   1.0000   1.0000   1.0000   1.0000
     1.0000   1.0000   1.0000   1.0000   1.0000

          k = 0.2727-0.0517 0.0000 ( 14554 PWs)   bands (ev):

   -77.8550 -49.2012 -49.1210 -49.0193 -23.7027 -23.6400 -21.1935 -20.1193
   -13.5549 -12.2945 -12.0234 -11.1358 -10.5198 -10.3169  -9.9473  -8.9316
    -8.8180  -8.3897  -8.2047  -7.5541  -6.2012

     occupation numbers 
     1.0000   1.0000   1.0000   1.0000   1.0000   1.0000   1.0000   1.0000
     1.0000   1.0000   1.0000   1.0000   1.0000   1.0000   1.0000   1.0000
     1.0000   1.0000   1.0000   1.0000   1.0000

          k = 0.2727 0.0517 0.0000 ( 14554 PWs)   bands (ev):

   -77.8550 -49.2012 -49.1210 -49.0193 -23.7027 -23.6400 -21.1934 -20.1193
   -13.5549 -12.2945 -12.0233 -11.1358 -10.5199 -10.3172  -9.9473  -8.9317
    -8.8179  -8.3897  -8.2045  -7.5541  -6.2014

     occupation numbers 
     1.0000   1.0000   1.0000   1.0000   1.0000   1.0000   1.0000   1.0000
     1.0000   1.0000   1.0000   1.0000   1.0000   1.0000   1.0000   1.0000
     1.0000   1.0000   1.0000   1.0000   1.0000

          k = 0.3636 0.2068 0.0000 ( 14479 PWs)   bands (ev):

   -77.8413 -49.3110 -49.1376 -49.0000 -22.6563 -22.6095 -20.6658 -19.8888
   -14.7157 -14.4522 -12.4990 -11.2920 -10.8947 -10.5641 -10.5345  -9.3687
    -8.8527  -8.5048  -7.7990  -7.7752  -6.4432

     occupation numbers 
     1.0000   1.0000   1.0000   1.0000   1.0000   1.0000   1.0000   1.0000
     1.0000   1.0000   1.0000   1.0000   1.0000   1.0000   1.0000   1.0000
     1.0000   1.0000   1.0000   1.0000   1.0000

          k = 0.3636 0.3102 0.0000 ( 14484 PWs)   bands (ev):

   -77.8370 -49.3322 -49.1560 -48.9940 -22.2175 -22.1785 -20.5302 -19.8526
   -15.1375 -14.8970 -12.3547 -11.6148 -11.2126 -10.9586 -10.8902  -9.6720
    -8.8799  -8.3047  -7.9949  -7.6816  -6.3804

     occupation numbers 
     1.0000   1.0000   1.0000   1.0000   1.0000   1.0000   1.0000   1.0000
     1.0000   1.0000   1.0000   1.0000   1.0000   1.0000   1.0000   1.0000
     1.0000   1.0000   1.0000   1.0000   1.0000

          k = 0.3636 0.4136 0.0000 ( 14456 PWs)   bands (ev):

   -77.8331 -49.3292 -49.1956 -48.9885 -21.7700 -21.7375 -20.4317 -19.8261
   -15.1895 -14.9481 -12.6524 -12.4812 -11.7603 -11.1904 -11.0062  -9.8202
    -9.0629  -8.6972  -8.0850  -7.5605  -6.2162

     occupation numbers 
     1.0000   1.0000   1.0000   1.0000   1.0000   1.0000   1.0000   1.0000
     1.0000   1.0000   1.0000   1.0000   1.0000   1.0000   1.0000   1.0000
     1.0000   1.0000   1.0000   1.0000   1.0000

          k = 0.3636 0.5170 0.0000 ( 14455 PWs)   bands (ev):

   -77.8308 -49.3039 -49.2430 -48.9852 -21.4836 -21.4500 -20.3871 -19.8086
   -14.8499 -14.5704 -13.6657 -13.5734 -11.5077 -11.2250 -10.8652  -9.9194
    -9.5704  -9.1017  -8.0295  -7.4434  -6.0419

     occupation numbers 
     1.0000   1.0000   1.0000   1.0000   1.0000   1.0000   1.0000   1.0000
     1.0000   1.0000   1.0000   1.0000   1.0000   1.0000   1.0000   1.0000
     1.0000   1.0000   1.0000   1.0000   1.0000

          k = 0.3636 0.6204 0.0000 ( 14455 PWs)   bands (ev):

   -77.8308 -49.3039 -49.2430 -48.9852 -21.4835 -21.4499 -20.3873 -19.8087
   -14.8501 -14.5704 -13.6653 -13.5734 -11.5077 -11.2250 -10.8655  -9.9192
    -9.5699  -9.1021  -8.0297  -7.4434  -6.0419

     occupation numbers 
     1.0000   1.0000   1.0000   1.0000   1.0000   1.0000   1.0000   1.0000
     1.0000   1.0000   1.0000   1.0000   1.0000   1.0000   1.0000   1.0000
     1.0000   1.0000   1.0000   1.0000   1.0000

          k = 0.3636 0.7238 0.0000 ( 14456 PWs)   bands (ev):

   -77.8331 -49.3293 -49.1956 -48.9885 -21.7698 -21.7374 -20.4320 -19.8263
   -15.1897 -14.9480 -12.6521 -12.4810 -11.7605 -11.1905 -11.0063  -9.8196
    -9.0629  -8.6974  -8.0856  -7.5604  -6.2159

     occupation numbers 
     1.0000   1.0000   1.0000   1.0000   1.0000   1.0000   1.0000   1.0000
     1.0000   1.0000   1.0000   1.0000   1.0000   1.0000   1.0000   1.0000
     1.0000   1.0000   1.0000   1.0000   1.0000

          k = 0.3636-0.3102 0.0000 ( 14484 PWs)   bands (ev):

   -77.8370 -49.3322 -49.1560 -48.9940 -22.2174 -22.1784 -20.5305 -19.8528
   -15.1377 -14.8970 -12.3548 -11.6147 -11.2123 -10.9585 -10.8899  -9.6716
    -8.8802  -8.3051  -7.9951  -7.6817  -6.3799

     occupation numbers 
     1.0000   1.0000   1.0000   1.0000   1.0000   1.0000   1.0000   1.0000
     1.0000   1.0000   1.0000   1.0000   1.0000   1.0000   1.0000   1.0000
     1.0000   1.0000   1.0000   1.0000   1.0000

          k = 0.3636-0.2068 0.0000 ( 14479 PWs)   bands (ev):

   -77.8413 -49.3110 -49.1376 -49.0000 -22.6562 -22.6094 -20.6660 -19.8888
   -14.7160 -14.4522 -12.4992 -11.2921 -10.8943 -10.5636 -10.5343  -9.3685
    -8.8531  -8.5052  -7.7991  -7.7752  -6.4428

     occupation numbers 
     1.0000   1.0000   1.0000   1.0000   1.0000   1.0000   1.0000   1.0000
     1.0000   1.0000   1.0000   1.0000   1.0000   1.0000   1.0000   1.0000
     1.0000   1.0000   1.0000   1.0000   1.0000

          k = 0.3636-0.1034 0.0000 ( 14506 PWs)   bands (ev):

   -77.8445 -49.2772 -49.1414 -49.0046 -22.9623 -22.9104 -20.7845 -19.9235
   -14.1208 -13.7676 -12.5146 -11.2163 -10.9553 -10.7716 -10.4836  -9.4621
    -8.6834  -8.3975  -8.0907  -7.7319  -6.4467

     occupation numbers 
     1.0000   1.0000   1.0000   1.0000   1.0000   1.0000   1.0000   1.0000
     1.0000   1.0000   1.0000   1.0000   1.0000   1.0000   1.0000   1.0000
     1.0000   1.0000   1.0000   1.0000   1.0000

          k = 0.3636 0.0000 0.0000 ( 14493 PWs)   bands (ev):

   -77.8457 -49.2578 -49.1498 -49.0063 -23.0709 -23.0172 -20.8312 -19.9380
   -13.8068 -13.3224 -12.4034 -11.4501 -11.3023 -10.8771 -10.3292  -9.5891
    -8.6902  -8.3759  -8.0415  -7.7624  -6.4482

     occupation numbers 
     1.0000   1.0000   1.0000   1.0000   1.0000   1.0000   1.0000   1.0000
     1.0000   1.0000   1.0000   1.0000   1.0000   1.0000   1.0000   1.0000
     1.0000   1.0000   1.0000   1.0000   1.0000

          k = 0.3636 0.1034 0.0000 ( 14506 PWs)   bands (ev):

   -77.8445 -49.2772 -49.1415 -49.0046 -22.9624 -22.9104 -20.7844 -19.9235
   -14.1206 -13.7676 -12.5146 -11.2163 -10.9553 -10.7720 -10.4838  -9.4620
    -8.6833  -8.3971  -8.0907  -7.7321  -6.4469

     occupation numbers 
     1.0000   1.0000   1.0000   1.0000   1.0000   1.0000   1.0000   1.0000
     1.0000   1.0000   1.0000   1.0000   1.0000   1.0000   1.0000   1.0000
     1.0000   1.0000   1.0000   1.0000   1.0000

          k = 0.4545 0.2585 0.0000 ( 14447 PWs)   bands (ev):

   -77.8352 -49.3550 -49.1481 -48.9916 -21.9978 -21.9638 -20.5123 -19.8832
   -15.5692 -15.3353 -12.3238 -11.6856 -11.0532 -10.7553 -10.7192  -9.5306
    -9.0322  -8.2398  -7.7908  -7.5640  -6.3996

     occupation numbers 
     1.0000   1.0000   1.0000   1.0000   1.0000   1.0000   1.0000   1.0000
     1.0000   1.0000   1.0000   1.0000   1.0000   1.0000   1.0000   1.0000
     1.0000   1.0000   1.0000   1.0000   1.0000

          k = 0.4545 0.3619 0.0000 ( 14473 PWs)   bands (ev):

   -77.8338 -49.3536 -49.1633 -48.9896 -21.8272 -21.7955 -20.4813 -19.8767
   -15.5866 -15.3524 -12.2463 -11.8108 -11.2691 -11.1839 -10.9738  -9.6385
    -9.0596  -8.1612  -7.9326  -7.6454  -6.3205

     occupation numbers 
     1.0000   1.0000   1.0000   1.0000   1.0000   1.0000   1.0000   1.0000
     1.0000   1.0000   1.0000   1.0000   1.0000   1.0000   1.0000   1.0000
     1.0000   1.0000   1.0000   1.0000   1.0000

          k = 0.4545 0.4653 0.0000 ( 14430 PWs)   bands (ev):

   -77.8327 -49.3301 -49.1976 -48.9880 -21.7511 -21.7188 -20.4257 -19.8216
   -15.2052 -14.9652 -12.6461 -12.4773 -11.7626 -11.2020 -11.0129  -9.8379
    -9.0372  -8.6837  -8.0704  -7.5645  -6.2388

     occupation numbers 
     1.0000   1.0000   1.0000   1.0000   1.0000   1.0000   1.0000   1.0000
     1.0000   1.0000   1.0000   1.0000   1.0000   1.0000   1.0000   1.0000
     1.0000   1.0000   1.0000   1.0000   1.0000

          k = 0.4545 0.5687 0.0000 ( 14406 PWs)   bands (ev):

   -77.8322 -49.3094 -49.2224 -48.9874 -21.7368 -21.7038 -20.3964 -19.7882
   -14.8273 -14.5578 -13.2335 -13.1003 -11.8094 -11.0573 -10.8080 -10.0091
    -9.3317  -8.7748  -8.0892  -7.5454  -6.2089

     occupation numbers 
     1.0000   1.0000   1.0000   1.0000   1.0000   1.0000   1.0000   1.0000
     1.0000   1.0000   1.0000   1.0000   1.0000   1.0000   1.0000   1.0000
     1.0000   1.0000   1.0000   1.0000   1.0000

          k = 0.4545 0.6721 0.0000 ( 14430 PWs)   bands (ev):

   -77.8327 -49.3301 -49.1976 -48.9880 -21.7510 -21.7187 -20.4260 -19.8218
   -15.2053 -14.9651 -12.6458 -12.4772 -11.7628 -11.2020 -11.0128  -9.8378
    -9.0370  -8.6840  -8.0708  -7.5644  -6.2387

     occupation numbers 
     1.0000   1.0000   1.0000   1.0000   1.0000   1.0000   1.0000   1.0000
     1.0000   1.0000   1.0000   1.0000   1.0000   1.0000   1.0000   1.0000
     1.0000   1.0000   1.0000   1.0000   1.0000

          k = 0.4545 0.7755 0.0000 ( 14473 PWs)   bands (ev):

   -77.8338 -49.3536 -49.1632 -48.9896 -21.8269 -21.7953 -20.4817 -19.8769
   -15.5867 -15.3522 -12.2465 -11.8108 -11.2688 -11.1839 -10.9735  -9.6381
    -9.0599  -8.1616  -7.9329  -7.6454  -6.3202

     occupation numbers 
     1.0000   1.0000   1.0000   1.0000   1.0000   1.0000   1.0000   1.0000
     1.0000   1.0000   1.0000   1.0000   1.0000   1.0000   1.0000   1.0000
     1.0000   1.0000   1.0000   1.0000   1.0000

          k = 0.4545-0.2585 0.0000 ( 14447 PWs)   bands (ev):

   -77.8352 -49.3550 -49.1480 -48.9916 -21.9976 -21.9637 -20.5127 -19.8834
   -15.5693 -15.3351 -12.3241 -11.6857 -11.0529 -10.7548 -10.7190  -9.5303
    -9.0325  -8.2402  -7.7909  -7.5642  -6.3991

     occupation numbers 
     1.0000   1.0000   1.0000   1.0000   1.0000   1.0000   1.0000   1.0000
     1.0000   1.0000   1.0000   1.0000   1.0000   1.0000   1.0000   1.0000
     1.0000   1.0000   1.0000   1.0000   1.0000

          k = 0.4545-0.1551 0.0000 ( 14436 PWs)   bands (ev):

   -77.8366 -49.3335 -49.1575 -48.9935 -22.2008 -22.1620 -20.5232 -19.8476
   -15.1552 -14.9160 -12.3511 -11.6227 -11.2129 -10.9451 -10.8894  -9.6948
    -8.8511  -8.2956  -7.9761  -7.6783  -6.4087

     occupation numbers 
     1.0000   1.0000   1.0000   1.0000   1.0000   1.0000   1.0000   1.0000
     1.0000   1.0000   1.0000   1.0000   1.0000   1.0000   1.0000   1.0000
     1.0000   1.0000   1.0000   1.0000   1.0000

          k = 0.4545-0.0517 0.0000 ( 14468 PWs)   bands (ev):

   -77.8374 -49.3048 -49.1792 -48.9947 -22.3330 -22.2907 -20.5303 -19.8174
   -14.5917 -14.3157 -12.3717 -12.1267 -11.9561 -10.8510 -10.7106 -10.0276
    -8.6488  -8.5467  -8.1153  -7.7341  -6.4271

     occupation numbers 
     1.0000   1.0000   1.0000   1.0000   1.0000   1.0000   1.0000   1.0000
     1.0000   1.0000   1.0000   1.0000   1.0000   1.0000   1.0000   1.0000
     1.0000   1.0000   1.0000   1.0000   1.0000

          k = 0.4545 0.0517 0.0000 ( 14468 PWs)   bands (ev):

   -77.8374 -49.3048 -49.1793 -48.9947 -22.3330 -22.2907 -20.5302 -19.8173
   -14.5916 -14.3157 -12.3718 -12.1267 -11.9561 -10.8510 -10.7108 -10.0274
    -8.6489  -8.5465  -8.1151  -7.7342  -6.4272

     occupation numbers 
     1.0000   1.0000   1.0000   1.0000   1.0000   1.0000   1.0000   1.0000
     1.0000   1.0000   1.0000   1.0000   1.0000   1.0000   1.0000   1.0000
     1.0000   1.0000   1.0000   1.0000   1.0000

          k = 0.4545 0.1551 0.0000 ( 14436 PWs)   bands (ev):

   -77.8366 -49.3335 -49.1575 -48.9935 -22.2009 -22.1621 -20.5229 -19.8475
   -15.1551 -14.9161 -12.3509 -11.6227 -11.2129 -10.9453 -10.8898  -9.6947
    -8.8510  -8.2952  -7.9761  -7.6784  -6.4089

     occupation numbers 
     1.0000   1.0000   1.0000   1.0000   1.0000   1.0000   1.0000   1.0000
     1.0000   1.0000   1.0000   1.0000   1.0000   1.0000   1.0000   1.0000
     1.0000   1.0000   1.0000   1.0000   1.0000

          k =-0.4545-0.2585 0.0000 ( 14447 PWs)   bands (ev):

   -77.8352 -49.3550 -49.1481 -48.9916 -21.9978 -21.9638 -20.5123 -19.8832
   -15.5692 -15.3353 -12.3238 -11.6856 -11.0532 -10.7553 -10.7192  -9.5306
    -9.0322  -8.2398  -7.7908  -7.5640  -6.3996

     occupation numbers 
     1.0000   1.0000   1.0000   1.0000   1.0000   1.0000   1.0000   1.0000
     1.0000   1.0000   1.0000   1.0000   1.0000   1.0000   1.0000   1.0000
     1.0000   1.0000   1.0000   1.0000   1.0000

          k =-0.4545-0.1551 0.0000 ( 14436 PWs)   bands (ev):

   -77.8366 -49.3335 -49.1575 -48.9935 -22.2009 -22.1621 -20.5229 -19.8475
   -15.1551 -14.9161 -12.3509 -11.6227 -11.2129 -10.9453 -10.8898  -9.6947
    -8.8510  -8.2952  -7.9761  -7.6784  -6.4089

     occupation numbers 
     1.0000   1.0000   1.0000   1.0000   1.0000   1.0000   1.0000   1.0000
     1.0000   1.0000   1.0000   1.0000   1.0000   1.0000   1.0000   1.0000
     1.0000   1.0000   1.0000   1.0000   1.0000

          k =-0.4545-0.0517 0.0000 ( 14468 PWs)   bands (ev):

   -77.8374 -49.3048 -49.1793 -48.9947 -22.3330 -22.2907 -20.5302 -19.8173
   -14.5916 -14.3157 -12.3718 -12.1267 -11.9561 -10.8510 -10.7108 -10.0274
    -8.6489  -8.5465  -8.1151  -7.7342  -6.4272

     occupation numbers 
     1.0000   1.0000   1.0000   1.0000   1.0000   1.0000   1.0000   1.0000
     1.0000   1.0000   1.0000   1.0000   1.0000   1.0000   1.0000   1.0000
     1.0000   1.0000   1.0000   1.0000   1.0000

          k =-0.4545 0.0517 0.0000 ( 14468 PWs)   bands (ev):

   -77.8374 -49.3048 -49.1792 -48.9947 -22.3330 -22.2907 -20.5303 -19.8174
   -14.5917 -14.3157 -12.3717 -12.1267 -11.9561 -10.8510 -10.7106 -10.0276
    -8.6488  -8.5467  -8.1153  -7.7341  -6.4271

     occupation numbers 
     1.0000   1.0000   1.0000   1.0000   1.0000   1.0000   1.0000   1.0000
     1.0000   1.0000   1.0000   1.0000   1.0000   1.0000   1.0000   1.0000
     1.0000   1.0000   1.0000   1.0000   1.0000

          k =-0.4545 0.1551 0.0000 ( 14436 PWs)   bands (ev):

   -77.8366 -49.3335 -49.1575 -48.9935 -22.2008 -22.1620 -20.5232 -19.8476
   -15.1552 -14.9160 -12.3511 -11.6227 -11.2129 -10.9451 -10.8894  -9.6948
    -8.8511  -8.2956  -7.9761  -7.6783  -6.4087

     occupation numbers 
     1.0000   1.0000   1.0000   1.0000   1.0000   1.0000   1.0000   1.0000
     1.0000   1.0000   1.0000   1.0000   1.0000   1.0000   1.0000   1.0000
     1.0000   1.0000   1.0000   1.0000   1.0000

          k =-0.4545 0.2585 0.0000 ( 14447 PWs)   bands (ev):

   -77.8352 -49.3550 -49.1480 -48.9916 -21.9976 -21.9637 -20.5127 -19.8834
   -15.5693 -15.3351 -12.3241 -11.6857 -11.0529 -10.7548 -10.7190  -9.5303
    -9.0325  -8.2402  -7.7909  -7.5642  -6.3991

     occupation numbers 
     1.0000   1.0000   1.0000   1.0000   1.0000   1.0000   1.0000   1.0000
     1.0000   1.0000   1.0000   1.0000   1.0000   1.0000   1.0000   1.0000
     1.0000   1.0000   1.0000   1.0000   1.0000

          k =-0.4545-0.7755 0.0000 ( 14473 PWs)   bands (ev):

   -77.8338 -49.3536 -49.1632 -48.9896 -21.8269 -21.7953 -20.4817 -19.8769
   -15.5867 -15.3522 -12.2465 -11.8108 -11.2688 -11.1839 -10.9735  -9.6381
    -9.0599  -8.1616  -7.9329  -7.6454  -6.3202

     occupation numbers 
     1.0000   1.0000   1.0000   1.0000   1.0000   1.0000   1.0000   1.0000
     1.0000   1.0000   1.0000   1.0000   1.0000   1.0000   1.0000   1.0000
     1.0000   1.0000   1.0000   1.0000   1.0000

          k =-0.4545-0.6721 0.0000 ( 14430 PWs)   bands (ev):

   -77.8327 -49.3301 -49.1976 -48.9880 -21.7510 -21.7187 -20.4260 -19.8218
   -15.2053 -14.9651 -12.6458 -12.4772 -11.7628 -11.2020 -11.0128  -9.8378
    -9.0370  -8.6840  -8.0708  -7.5644  -6.2387

     occupation numbers 
     1.0000   1.0000   1.0000   1.0000   1.0000   1.0000   1.0000   1.0000
     1.0000   1.0000   1.0000   1.0000   1.0000   1.0000   1.0000   1.0000
     1.0000   1.0000   1.0000   1.0000   1.0000

          k =-0.4545-0.5687 0.0000 ( 14406 PWs)   bands (ev):

   -77.8322 -49.3094 -49.2224 -48.9874 -21.7368 -21.7038 -20.3964 -19.7882
   -14.8273 -14.5578 -13.2335 -13.1003 -11.8094 -11.0573 -10.8080 -10.0091
    -9.3317  -8.7748  -8.0892  -7.5454  -6.2089

     occupation numbers 
     1.0000   1.0000   1.0000   1.0000   1.0000   1.0000   1.0000   1.0000
     1.0000   1.0000   1.0000   1.0000   1.0000   1.0000   1.0000   1.0000
     1.0000   1.0000   1.0000   1.0000   1.0000

          k =-0.4545-0.4653 0.0000 ( 14430 PWs)   bands (ev):

   -77.8327 -49.3301 -49.1976 -48.9880 -21.7511 -21.7188 -20.4257 -19.8216
   -15.2052 -14.9652 -12.6461 -12.4773 -11.7626 -11.2020 -11.0129  -9.8379
    -9.0372  -8.6837  -8.0704  -7.5645  -6.2388

     occupation numbers 
     1.0000   1.0000   1.0000   1.0000   1.0000   1.0000   1.0000   1.0000
     1.0000   1.0000   1.0000   1.0000   1.0000   1.0000   1.0000   1.0000
     1.0000   1.0000   1.0000   1.0000   1.0000

          k =-0.4545-0.3619 0.0000 ( 14473 PWs)   bands (ev):

   -77.8338 -49.3536 -49.1633 -48.9896 -21.8272 -21.7955 -20.4813 -19.8767
   -15.5866 -15.3524 -12.2463 -11.8108 -11.2691 -11.1839 -10.9738  -9.6385
    -9.0596  -8.1612  -7.9326  -7.6454  -6.3205

     occupation numbers 
     1.0000   1.0000   1.0000   1.0000   1.0000   1.0000   1.0000   1.0000
     1.0000   1.0000   1.0000   1.0000   1.0000   1.0000   1.0000   1.0000
     1.0000   1.0000   1.0000   1.0000   1.0000

          k =-0.3636-0.2068 0.0000 ( 14479 PWs)   bands (ev):

   -77.8413 -49.3110 -49.1376 -49.0000 -22.6563 -22.6095 -20.6658 -19.8888
   -14.7157 -14.4522 -12.4990 -11.2920 -10.8947 -10.5641 -10.5345  -9.3687
    -8.8527  -8.5048  -7.7990  -7.7752  -6.4432

     occupation numbers 
     1.0000   1.0000   1.0000   1.0000   1.0000   1.0000   1.0000   1.0000
     1.0000   1.0000   1.0000   1.0000   1.0000   1.0000   1.0000   1.0000
     1.0000   1.0000   1.0000   1.0000   1.0000

          k =-0.3636-0.1034 0.0000 ( 14506 PWs)   bands (ev):

   -77.8445 -49.2772 -49.1415 -49.0046 -22.9624 -22.9104 -20.7844 -19.9235
   -14.1206 -13.7676 -12.5146 -11.2163 -10.9553 -10.7720 -10.4838  -9.4620
    -8.6833  -8.3971  -8.0907  -7.7321  -6.4469

     occupation numbers 
     1.0000   1.0000   1.0000   1.0000   1.0000   1.0000   1.0000   1.0000
     1.0000   1.0000   1.0000   1.0000   1.0000   1.0000   1.0000   1.0000
     1.0000   1.0000   1.0000   1.0000   1.0000

          k =-0.3636 0.0000 0.0000 ( 14493 PWs)   bands (ev):

   -77.8457 -49.2578 -49.1498 -49.0063 -23.0709 -23.0172 -20.8312 -19.9380
   -13.8068 -13.3224 -12.4034 -11.4501 -11.3023 -10.8771 -10.3292  -9.5891
    -8.6902  -8.3759  -8.0415  -7.7624  -6.4482

     occupation numbers 
     1.0000   1.0000   1.0000   1.0000   1.0000   1.0000   1.0000   1.0000
     1.0000   1.0000   1.0000   1.0000   1.0000   1.0000   1.0000   1.0000
     1.0000   1.0000   1.0000   1.0000   1.0000

          k =-0.3636 0.1034 0.0000 ( 14506 PWs)   bands (ev):

   -77.8445 -49.2772 -49.1414 -49.0046 -22.9623 -22.9104 -20.7845 -19.9235
   -14.1208 -13.7676 -12.5146 -11.2163 -10.9553 -10.7716 -10.4836  -9.4621
    -8.6834  -8.3975  -8.0907  -7.7319  -6.4467

     occupation numbers 
     1.0000   1.0000   1.0000   1.0000   1.0000   1.0000   1.0000   1.0000
     1.0000   1.0000   1.0000   1.0000   1.0000   1.0000   1.0000   1.0000
     1.0000   1.0000   1.0000   1.0000   1.0000

          k =-0.3636 0.2068 0.0000 ( 14479 PWs)   bands (ev):

   -77.8413 -49.3110 -49.1376 -49.0000 -22.6562 -22.6094 -20.6660 -19.8888
   -14.7160 -14.4522 -12.4992 -11.2921 -10.8943 -10.5636 -10.5343  -9.3685
    -8.8531  -8.5052  -7.7991  -7.7752  -6.4428

     occupation numbers 
     1.0000   1.0000   1.0000   1.0000   1.0000   1.0000   1.0000   1.0000
     1.0000   1.0000   1.0000   1.0000   1.0000   1.0000   1.0000   1.0000
     1.0000   1.0000   1.0000   1.0000   1.0000

          k =-0.3636 0.3102 0.0000 ( 14484 PWs)   bands (ev):

   -77.8370 -49.3322 -49.1560 -48.9940 -22.2174 -22.1784 -20.5305 -19.8528
   -15.1377 -14.8970 -12.3548 -11.6147 -11.2123 -10.9585 -10.8899  -9.6716
    -8.8802  -8.3051  -7.9951  -7.6817  -6.3799

     occupation numbers 
     1.0000   1.0000   1.0000   1.0000   1.0000   1.0000   1.0000   1.0000
     1.0000   1.0000   1.0000   1.0000   1.0000   1.0000   1.0000   1.0000
     1.0000   1.0000   1.0000   1.0000   1.0000

          k =-0.3636-0.7238 0.0000 ( 14456 PWs)   bands (ev):

   -77.8331 -49.3293 -49.1956 -48.9885 -21.7698 -21.7374 -20.4320 -19.8263
   -15.1897 -14.9480 -12.6521 -12.4810 -11.7605 -11.1905 -11.0063  -9.8196
    -9.0629  -8.6974  -8.0856  -7.5604  -6.2159

     occupation numbers 
     1.0000   1.0000   1.0000   1.0000   1.0000   1.0000   1.0000   1.0000
     1.0000   1.0000   1.0000   1.0000   1.0000   1.0000   1.0000   1.0000
     1.0000   1.0000   1.0000   1.0000   1.0000

          k =-0.3636-0.6204 0.0000 ( 14455 PWs)   bands (ev):

   -77.8308 -49.3039 -49.2430 -48.9852 -21.4835 -21.4499 -20.3873 -19.8087
   -14.8501 -14.5704 -13.6653 -13.5734 -11.5077 -11.2250 -10.8655  -9.9192
    -9.5699  -9.1021  -8.0297  -7.4434  -6.0419

     occupation numbers 
     1.0000   1.0000   1.0000   1.0000   1.0000   1.0000   1.0000   1.0000
     1.0000   1.0000   1.0000   1.0000   1.0000   1.0000   1.0000   1.0000
     1.0000   1.0000   1.0000   1.0000   1.0000

          k =-0.3636-0.5170 0.0000 ( 14455 PWs)   bands (ev):

   -77.8308 -49.3039 -49.2430 -48.9852 -21.4836 -21.4500 -20.3871 -19.8086
   -14.8499 -14.5704 -13.6657 -13.5734 -11.5077 -11.2250 -10.8652  -9.9194
    -9.5704  -9.1017  -8.0295  -7.4434  -6.0419

     occupation numbers 
     1.0000   1.0000   1.0000   1.0000   1.0000   1.0000   1.0000   1.0000
     1.0000   1.0000   1.0000   1.0000   1.0000   1.0000   1.0000   1.0000
     1.0000   1.0000   1.0000   1.0000   1.0000

          k =-0.3636-0.4136 0.0000 ( 14456 PWs)   bands (ev):

   -77.8331 -49.3292 -49.1956 -48.9885 -21.7700 -21.7375 -20.4317 -19.8261
   -15.1895 -14.9481 -12.6524 -12.4812 -11.7603 -11.1904 -11.0062  -9.8202
    -9.0629  -8.6972  -8.0850  -7.5605  -6.2162

     occupation numbers 
     1.0000   1.0000   1.0000   1.0000   1.0000   1.0000   1.0000   1.0000
     1.0000   1.0000   1.0000   1.0000   1.0000   1.0000   1.0000   1.0000
     1.0000   1.0000   1.0000   1.0000   1.0000

          k =-0.3636-0.3102 0.0000 ( 14484 PWs)   bands (ev):

   -77.8370 -49.3322 -49.1560 -48.9940 -22.2175 -22.1785 -20.5302 -19.8526
   -15.1375 -14.8970 -12.3547 -11.6148 -11.2126 -10.9586 -10.8902  -9.6720
    -8.8799  -8.3047  -7.9949  -7.6816  -6.3804

     occupation numbers 
     1.0000   1.0000   1.0000   1.0000   1.0000   1.0000   1.0000   1.0000
     1.0000   1.0000   1.0000   1.0000   1.0000   1.0000   1.0000   1.0000
     1.0000   1.0000   1.0000   1.0000   1.0000

          k =-0.2727-0.1551 0.0000 ( 14551 PWs)   bands (ev):

   -77.8514 -49.2365 -49.1198 -49.0141 -23.4521 -23.3930 -21.0448 -20.0481
   -13.6752 -13.0035 -12.4654 -11.1197 -10.4470 -10.2166 -10.1997  -8.9358
    -8.7495  -8.5258  -8.1688  -7.6903  -6.3155

     occupation numbers 
     1.0000   1.0000   1.0000   1.0000   1.0000   1.0000   1.0000   1.0000
     1.0000   1.0000   1.0000   1.0000   1.0000   1.0000   1.0000   1.0000
     1.0000   1.0000   1.0000   1.0000   1.0000

          k =-0.2727-0.0517 0.0000 ( 14554 PWs)   bands (ev):

   -77.8550 -49.2012 -49.1210 -49.0193 -23.7027 -23.6400 -21.1934 -20.1193
   -13.5549 -12.2945 -12.0233 -11.1358 -10.5199 -10.3172  -9.9473  -8.9317
    -8.8179  -8.3897  -8.2045  -7.5541  -6.2014

     occupation numbers 
     1.0000   1.0000   1.0000   1.0000   1.0000   1.0000   1.0000   1.0000
     1.0000   1.0000   1.0000   1.0000   1.0000   1.0000   1.0000   1.0000
     1.0000   1.0000   1.0000   1.0000   1.0000

          k =-0.2727 0.0517 0.0000 ( 14554 PWs)   bands (ev):

   -77.8550 -49.2012 -49.1210 -49.0193 -23.7027 -23.6400 -21.1935 -20.1193
   -13.5549 -12.2945 -12.0234 -11.1358 -10.5198 -10.3169  -9.9473  -8.9316
    -8.8180  -8.3897  -8.2047  -7.5541  -6.2012

     occupation numbers 
     1.0000   1.0000   1.0000   1.0000   1.0000   1.0000   1.0000   1.0000
     1.0000   1.0000   1.0000   1.0000   1.0000   1.0000   1.0000   1.0000
     1.0000   1.0000   1.0000   1.0000   1.0000

          k =-0.2727 0.1551 0.0000 ( 14551 PWs)   bands (ev):

   -77.8514 -49.2365 -49.1198 -49.0141 -23.4521 -23.3930 -21.0448 -20.0481
   -13.6755 -13.0036 -12.4655 -11.1196 -10.4471 -10.2159 -10.1996  -8.9353
    -8.7498  -8.5264  -8.1688  -7.6903  -6.3151

     occupation numbers 
     1.0000   1.0000   1.0000   1.0000   1.0000   1.0000   1.0000   1.0000
     1.0000   1.0000   1.0000   1.0000   1.0000   1.0000   1.0000   1.0000
     1.0000   1.0000   1.0000   1.0000   1.0000

          k =-0.2727 0.2585 0.0000 ( 14499 PWs)   bands (ev):

   -77.8452 -49.2770 -49.1368 -49.0054 -22.9821 -22.9300 -20.7985 -19.9350
   -14.1087 -13.7464 -12.5132 -11.2165 -10.9582 -10.7875 -10.4766  -9.4428
    -8.6924  -8.4072  -8.1111  -7.7384  -6.4265

     occupation numbers 
     1.0000   1.0000   1.0000   1.0000   1.0000   1.0000   1.0000   1.0000
     1.0000   1.0000   1.0000   1.0000   1.0000   1.0000   1.0000   1.0000
     1.0000   1.0000   1.0000   1.0000   1.0000

          k =-0.2727 0.3619 0.0000 ( 14446 PWs)   bands (ev):

   -77.8385 -49.3048 -49.1716 -48.9959 -22.3704 -22.3278 -20.5521 -19.8356
   -14.5731 -14.2899 -12.3759 -12.1159 -11.9570 -10.8479 -10.6833 -10.0030
    -8.6900  -8.5529  -8.1522  -7.7250  -6.3904

     occupation numbers 
     1.0000   1.0000   1.0000   1.0000   1.0000   1.0000   1.0000   1.0000
     1.0000   1.0000   1.0000   1.0000   1.0000   1.0000   1.0000   1.0000
     1.0000   1.0000   1.0000   1.0000   1.0000

          k =-0.2727-0.6721 0.0000 ( 14474 PWs)   bands (ev):

   -77.8334 -49.3132 -49.2110 -48.9886 -21.7792 -21.7461 -20.4165 -19.8069
   -14.8404 -14.5680 -13.1853 -13.0511 -11.8146 -11.0447 -10.7775  -9.9961
    -9.3455  -8.7936  -8.1128  -7.5417  -6.1817

     occupation numbers 
     1.0000   1.0000   1.0000   1.0000   1.0000   1.0000   1.0000   1.0000
     1.0000   1.0000   1.0000   1.0000   1.0000   1.0000   1.0000   1.0000
     1.0000   1.0000   1.0000   1.0000   1.0000

          k =-0.2727-0.5687 0.0000 ( 14432 PWs)   bands (ev):

   -77.8315 -49.3112 -49.2308 -48.9859 -21.5085 -21.4753 -20.4004 -19.8228
   -14.9051 -14.6306 -13.5831 -13.4841 -11.5125 -11.2185 -10.8757  -9.8934
    -9.5588  -9.1090  -8.0413  -7.4446  -6.0385

     occupation numbers 
     1.0000   1.0000   1.0000   1.0000   1.0000   1.0000   1.0000   1.0000
     1.0000   1.0000   1.0000   1.0000   1.0000   1.0000   1.0000   1.0000
     1.0000   1.0000   1.0000   1.0000   1.0000

          k =-0.2727-0.4653 0.0000 ( 14474 PWs)   bands (ev):

   -77.8334 -49.3132 -49.2110 -48.9886 -21.7793 -21.7462 -20.4163 -19.8068
   -14.8402 -14.5680 -13.1857 -13.0512 -11.8145 -11.0444 -10.7771  -9.9967
    -9.3460  -8.7932  -8.1123  -7.5417  -6.1819

     occupation numbers 
     1.0000   1.0000   1.0000   1.0000   1.0000   1.0000   1.0000   1.0000
     1.0000   1.0000   1.0000   1.0000   1.0000   1.0000   1.0000   1.0000
     1.0000   1.0000   1.0000   1.0000   1.0000

          k =-0.2727-0.3619 0.0000 ( 14446 PWs)   bands (ev):

   -77.8385 -49.3048 -49.1716 -48.9959 -22.3705 -22.3279 -20.5519 -19.8355
   -14.5728 -14.2898 -12.3762 -12.1162 -11.9571 -10.8477 -10.6831 -10.0034
    -8.6903  -8.5528  -8.1512  -7.7250  -6.3908

     occupation numbers 
     1.0000   1.0000   1.0000   1.0000   1.0000   1.0000   1.0000   1.0000
     1.0000   1.0000   1.0000   1.0000   1.0000   1.0000   1.0000   1.0000
     1.0000   1.0000   1.0000   1.0000   1.0000

          k =-0.2727-0.2585 0.0000 ( 14499 PWs)   bands (ev):

   -77.8452 -49.2770 -49.1368 -49.0054 -22.9822 -22.9301 -20.7984 -19.9350
   -14.1084 -13.7463 -12.5132 -11.2166 -10.9583 -10.7880 -10.4765  -9.4428
    -8.6923  -8.4069  -8.1110  -7.7382  -6.4270

     occupation numbers 
     1.0000   1.0000   1.0000   1.0000   1.0000   1.0000   1.0000   1.0000
     1.0000   1.0000   1.0000   1.0000   1.0000   1.0000   1.0000   1.0000
     1.0000   1.0000   1.0000   1.0000   1.0000

          k =-0.1818-0.1034 0.0000 ( 14557 PWs)   bands (ev):

   -77.8624 -49.1555 -49.0995 -49.0294 -24.1162 -24.0476 -21.4713 -20.2677
   -13.7140 -11.4817 -11.2496 -11.1460  -9.8004  -9.7896  -9.7434  -9.1006
    -8.5551  -8.2896  -8.1079  -7.4957  -5.9235

     occupation numbers 
     1.0000   1.0000   1.0000   1.0000   1.0000   1.0000   1.0000   1.0000
     1.0000   1.0000   1.0000   1.0000   1.0000   1.0000   1.0000   1.0000
     1.0000   1.0000   1.0000   1.0000   1.0000

          k =-0.1818 0.0000 0.0000 ( 14573 PWs)   bands (ev):

   -77.8648 -49.1288 -49.1032 -49.0328 -24.2528 -24.1822 -21.5680 -20.3185
   -13.7949 -11.3802 -10.7987 -10.7765  -9.8825  -9.7848  -9.4344  -9.1603
    -8.6854  -8.1555  -8.0582  -7.3736  -5.8031

     occupation numbers 
     1.0000   1.0000   1.0000   1.0000   1.0000   1.0000   1.0000   1.0000
     1.0000   1.0000   1.0000   1.0000   1.0000   1.0000   1.0000   1.0000
     1.0000   1.0000   1.0000   1.0000   1.0000

          k =-0.1818 0.1034 0.0000 ( 14557 PWs)   bands (ev):

   -77.8624 -49.1556 -49.0995 -49.0294 -24.1162 -24.0476 -21.4713 -20.2677
   -13.7141 -11.4817 -11.2501 -11.1460  -9.7995  -9.7898  -9.7435  -9.1005
    -8.5550  -8.2889  -8.1087  -7.4958  -5.9232

     occupation numbers 
     1.0000   1.0000   1.0000   1.0000   1.0000   1.0000   1.0000   1.0000
     1.0000   1.0000   1.0000   1.0000   1.0000   1.0000   1.0000   1.0000
     1.0000   1.0000   1.0000   1.0000   1.0000

          k =-0.1818 0.2068 0.0000 ( 14545 PWs)   bands (ev):

   -77.8558 -49.2069 -49.1099 -49.0201 -23.7192 -23.6564 -21.2077 -20.1318
   -13.5700 -12.3042 -12.0269 -11.1388 -10.5265 -10.3075  -9.9274  -8.9410
    -8.7993  -8.3729  -8.1859  -7.5747  -6.1980

     occupation numbers 
     1.0000   1.0000   1.0000   1.0000   1.0000   1.0000   1.0000   1.0000
     1.0000   1.0000   1.0000   1.0000   1.0000   1.0000   1.0000   1.0000
     1.0000   1.0000   1.0000   1.0000   1.0000

          k =-0.1818 0.3102 0.0000 ( 14487 PWs)   bands (ev):

   -77.8472 -49.2635 -49.1339 -49.0079 -23.1074 -23.0534 -20.8599 -19.9638
   -13.8355 -13.3454 -12.4138 -11.4074 -11.2549 -10.8861 -10.3071  -9.5564
    -8.7111  -8.3659  -8.0128  -7.7969  -6.4309

     occupation numbers 
     1.0000   1.0000   1.0000   1.0000   1.0000   1.0000   1.0000   1.0000
     1.0000   1.0000   1.0000   1.0000   1.0000   1.0000   1.0000   1.0000
     1.0000   1.0000   1.0000   1.0000   1.0000

          k =-0.1818 0.4136 0.0000 ( 14478 PWs)   bands (ev):

   -77.8393 -49.3110 -49.1602 -48.9967 -22.3877 -22.3452 -20.5678 -19.8530
   -14.6396 -14.3606 -12.3583 -12.0424 -11.8633 -10.8551 -10.7015  -9.9874
    -8.6635  -8.5380  -8.1288  -7.7342  -6.4033

     occupation numbers 
     1.0000   1.0000   1.0000   1.0000   1.0000   1.0000   1.0000   1.0000
     1.0000   1.0000   1.0000   1.0000   1.0000   1.0000   1.0000   1.0000
     1.0000   1.0000   1.0000   1.0000   1.0000

          k =-0.1818-0.6204 0.0000 ( 14479 PWs)   bands (ev):

   -77.8345 -49.3379 -49.1769 -48.9901 -21.8106 -21.7785 -20.4631 -19.8604
   -15.2720 -15.0286 -12.5393 -12.3510 -11.7351 -11.2107 -10.9968  -9.8133
    -9.0327  -8.6465  -8.1014  -7.5648  -6.2329

     occupation numbers 
     1.0000   1.0000   1.0000   1.0000   1.0000   1.0000   1.0000   1.0000
     1.0000   1.0000   1.0000   1.0000   1.0000   1.0000   1.0000   1.0000
     1.0000   1.0000   1.0000   1.0000   1.0000

          k =-0.1818-0.5170 0.0000 ( 14479 PWs)   bands (ev):

   -77.8345 -49.3379 -49.1769 -48.9901 -21.8106 -21.7785 -20.4631 -19.8603
   -15.2719 -15.0286 -12.5393 -12.3511 -11.7352 -11.2105 -10.9966  -9.8137
    -9.0325  -8.6465  -8.1011  -7.5648  -6.2331

     occupation numbers 
     1.0000   1.0000   1.0000   1.0000   1.0000   1.0000   1.0000   1.0000
     1.0000   1.0000   1.0000   1.0000   1.0000   1.0000   1.0000   1.0000
     1.0000   1.0000   1.0000   1.0000   1.0000

          k =-0.1818-0.4136 0.0000 ( 14478 PWs)   bands (ev):

   -77.8393 -49.3110 -49.1602 -48.9967 -22.3878 -22.3452 -20.5677 -19.8530
   -14.6394 -14.3606 -12.3584 -12.0427 -11.8634 -10.8549 -10.7012  -9.9878
    -8.6637  -8.5381  -8.1280  -7.7341  -6.4037

     occupation numbers 
     1.0000   1.0000   1.0000   1.0000   1.0000   1.0000   1.0000   1.0000
     1.0000   1.0000   1.0000   1.0000   1.0000   1.0000   1.0000   1.0000
     1.0000   1.0000   1.0000   1.0000   1.0000

          k =-0.1818-0.3102 0.0000 ( 14487 PWs)   bands (ev):

   -77.8472 -49.2635 -49.1340 -49.0079 -23.1075 -23.0535 -20.8598 -19.9638
   -13.8353 -13.3453 -12.4138 -11.4078 -11.2552 -10.8863 -10.3068  -9.5564
    -8.7111  -8.3661  -8.0130  -7.7961  -6.4314

     occupation numbers 
     1.0000   1.0000   1.0000   1.0000   1.0000   1.0000   1.0000   1.0000
     1.0000   1.0000   1.0000   1.0000   1.0000   1.0000   1.0000   1.0000
     1.0000   1.0000   1.0000   1.0000   1.0000

          k =-0.1818-0.2068 0.0000 ( 14545 PWs)   bands (ev):

   -77.8558 -49.2069 -49.1100 -49.0201 -23.7192 -23.6564 -21.2076 -20.1318
   -13.5698 -12.3039 -12.0267 -11.1390 -10.5268 -10.3080  -9.9273  -8.9411
    -8.7990  -8.3730  -8.1861  -7.5742  -6.1984

     occupation numbers 
     1.0000   1.0000   1.0000   1.0000   1.0000   1.0000   1.0000   1.0000
     1.0000   1.0000   1.0000   1.0000   1.0000   1.0000   1.0000   1.0000
     1.0000   1.0000   1.0000   1.0000   1.0000

          k =-0.0909-0.0517 0.0000 ( 14561 PWs)   bands (ev):

   -77.8708 -49.1000 -49.0771 -49.0410 -24.5430 -24.4681 -21.7856 -20.4384
   -14.0080 -11.4599  -9.9665  -9.8598  -9.4542  -9.4185  -9.3130  -9.1147
    -8.8143  -7.8864  -7.7437  -7.3928  -5.5605

     occupation numbers 
     1.0000   1.0000   1.0000   1.0000   1.0000   1.0000   1.0000   1.0000
     1.0000   1.0000   1.0000   1.0000   1.0000   1.0000   1.0000   1.0000
     1.0000   1.0000   1.0000   1.0000   1.0000

          k =-0.0909 0.0517 0.0000 ( 14561 PWs)   bands (ev):

   -77.8708 -49.1001 -49.0771 -49.0410 -24.5430 -24.4681 -21.7856 -20.4384
   -14.0081 -11.4599  -9.9669  -9.8603  -9.4537  -9.4181  -9.3130  -9.1148
    -8.8142  -7.8856  -7.7446  -7.3927  -5.5604

     occupation numbers 
     1.0000   1.0000   1.0000   1.0000   1.0000   1.0000   1.0000   1.0000
     1.0000   1.0000   1.0000   1.0000   1.0000   1.0000   1.0000   1.0000
     1.0000   1.0000   1.0000   1.0000   1.0000

          k =-0.0909 0.1551 0.0000 ( 14541 PWs)   bands (ev):

   -77.8654 -49.1461 -49.0818 -49.0335 -24.2634 -24.1927 -21.5780 -20.3276
   -13.8064 -11.3948 -10.8820 -10.8586  -9.8410  -9.6871  -9.4280  -9.1717
    -8.6129  -8.1377  -8.0382  -7.3927  -5.8094

     occupation numbers 
     1.0000   1.0000   1.0000   1.0000   1.0000   1.0000   1.0000   1.0000
     1.0000   1.0000   1.0000   1.0000   1.0000   1.0000   1.0000   1.0000
     1.0000   1.0000   1.0000   1.0000   1.0000

          k =-0.0909 0.2585 0.0000 ( 14530 PWs)   bands (ev):

   -77.8564 -49.2149 -49.0978 -49.0207 -23.7298 -23.6669 -21.2178 -20.1421
   -13.5925 -12.3902 -12.1005 -11.1548 -10.4612 -10.1913  -9.9066  -8.9517
    -8.7871  -8.3235  -8.1565  -7.5846  -6.2078

     occupation numbers 
     1.0000   1.0000   1.0000   1.0000   1.0000   1.0000   1.0000   1.0000
     1.0000   1.0000   1.0000   1.0000   1.0000   1.0000   1.0000   1.0000
     1.0000   1.0000   1.0000   1.0000   1.0000

          k =-0.0909 0.3619 0.0000 ( 14507 PWs)   bands (ev):

   -77.8466 -49.2875 -49.1170 -49.0068 -23.0096 -22.9575 -20.8239 -19.9623
   -14.2070 -13.8572 -12.5379 -11.1995 -10.8952 -10.6484 -10.4176  -9.4240
    -8.6984  -8.3497  -8.0359  -7.7591  -6.4471

     occupation numbers 
     1.0000   1.0000   1.0000   1.0000   1.0000   1.0000   1.0000   1.0000
     1.0000   1.0000   1.0000   1.0000   1.0000   1.0000   1.0000   1.0000
     1.0000   1.0000   1.0000   1.0000   1.0000

          k =-0.0909 0.4653 0.0000 ( 14482 PWs)   bands (ev):

   -77.8390 -49.3420 -49.1320 -48.9962 -22.2663 -22.2275 -20.5727 -19.8990
   -15.2382 -14.9946 -12.3584 -11.5976 -11.0886 -10.8539 -10.8062  -9.6687
    -8.8163  -8.3185  -7.9294  -7.6775  -6.4113

     occupation numbers 
     1.0000   1.0000   1.0000   1.0000   1.0000   1.0000   1.0000   1.0000
     1.0000   1.0000   1.0000   1.0000   1.0000   1.0000   1.0000   1.0000
     1.0000   1.0000   1.0000   1.0000   1.0000

          k =-0.0909-0.5687 0.0000 ( 14530 PWs)   bands (ev):

   -77.8362 -49.3622 -49.1376 -48.9923 -21.8949 -21.8636 -20.5322 -19.9317
   -15.6704 -15.4316 -12.2446 -11.8058 -11.1758 -11.0198 -10.8835  -9.6455
    -8.9966  -8.1883  -7.8820  -7.6373  -6.3425

     occupation numbers 
     1.0000   1.0000   1.0000   1.0000   1.0000   1.0000   1.0000   1.0000
     1.0000   1.0000   1.0000   1.0000   1.0000   1.0000   1.0000   1.0000
     1.0000   1.0000   1.0000   1.0000   1.0000

          k =-0.0909-0.4653 0.0000 ( 14482 PWs)   bands (ev):

   -77.8390 -49.3420 -49.1320 -48.9962 -22.2664 -22.2276 -20.5726 -19.8990
   -15.2381 -14.9946 -12.3584 -11.5977 -11.0888 -10.8536 -10.8063  -9.6691
    -8.8160  -8.3184  -7.9293  -7.6773  -6.4116

     occupation numbers 
     1.0000   1.0000   1.0000   1.0000   1.0000   1.0000   1.0000   1.0000
     1.0000   1.0000   1.0000   1.0000   1.0000   1.0000   1.0000   1.0000
     1.0000   1.0000   1.0000   1.0000   1.0000

          k =-0.0909-0.3619 0.0000 ( 14507 PWs)   bands (ev):

   -77.8466 -49.2875 -49.1170 -49.0068 -23.0097 -22.9575 -20.8238 -19.9623
   -14.2069 -13.8572 -12.5379 -11.1996 -10.8953 -10.6485 -10.4174  -9.4241
    -8.6985  -8.3498  -8.0358  -7.7587  -6.4474

     occupation numbers 
     1.0000   1.0000   1.0000   1.0000   1.0000   1.0000   1.0000   1.0000
     1.0000   1.0000   1.0000   1.0000   1.0000   1.0000   1.0000   1.0000
     1.0000   1.0000   1.0000   1.0000   1.0000

          k =-0.0909-0.2585 0.0000 ( 14530 PWs)   bands (ev):

   -77.8564 -49.2149 -49.0978 -49.0207 -23.7298 -23.6670 -21.2177 -20.1421
   -13.5924 -12.3901 -12.1004 -11.1549 -10.4613 -10.1916  -9.9065  -8.9517
    -8.7868  -8.3236  -8.1571  -7.5840  -6.2081

     occupation numbers 
     1.0000   1.0000   1.0000   1.0000   1.0000   1.0000   1.0000   1.0000
     1.0000   1.0000   1.0000   1.0000   1.0000   1.0000   1.0000   1.0000
     1.0000   1.0000   1.0000   1.0000   1.0000

          k =-0.0909-0.1551 0.0000 ( 14541 PWs)   bands (ev):

   -77.8654 -49.1460 -49.0818 -49.0335 -24.2634 -24.1927 -21.5780 -20.3276
   -13.8064 -11.3949 -10.8814 -10.8586  -9.8413  -9.6875  -9.4280  -9.1717
    -8.6130  -8.1371  -8.0390  -7.3923  -5.8096

     occupation numbers 
     1.0000   1.0000   1.0000   1.0000   1.0000   1.0000   1.0000   1.0000
     1.0000   1.0000   1.0000   1.0000   1.0000   1.0000   1.0000   1.0000
     1.0000   1.0000   1.0000   1.0000   1.0000

     highest occupied level (ev):    -5.4563

!    total energy              =    -263.34670325 Ry
     estimated scf accuracy    <          2.1E-13 Ry

     The total energy is the sum of the following terms:
     one-electron contribution =   -6687.13172832 Ry
     hartree contribution      =    3340.07320712 Ry
     xc contribution           =     -44.78931501 Ry
     ewald contribution        =    3128.50113295 Ry

     convergence has been achieved in  18 iterations

     Forces acting on atoms (cartesian axes, Ry/au):

     atom    1 type  1   force =     0.00001672    0.00006966    0.00018858
     atom    2 type  2   force =     0.00004050    0.00019975    0.00003123
     atom    3 type  2   force =     0.00004161   -0.00036069    0.00000914
     atom    4 type  2   force =    -0.00007324   -0.00044219   -0.00009150
     atom    5 type  2   force =     0.00001914    0.00049436   -0.00018265
     atom    6 type  3   force =     0.00001618    0.00042718    0.00011451
     atom    7 type  3   force =    -0.00006093   -0.00038806   -0.00006931
     The non-local contrib.  to forces
     atom    1 type  1   force =    -0.00002292   -0.00220084   -0.00526029
     atom    2 type  2   force =     0.00006169   -0.00991210   -0.08383930
     atom    3 type  2   force =    -0.00021910   -0.00924405    0.10831973
     atom    4 type  2   force =    -0.00043242    0.01366867   -0.87049218
     atom    5 type  2   force =    -0.00023409   -0.01324610    0.83642406
     atom    6 type  3   force =    -0.00007438   -0.02305569   -0.11165696
     atom    7 type  3   force =    -0.00050318    0.02305509    0.09306961
     The ionic contribution  to forces
     atom    1 type  1   force =    -0.00119272   -0.25269045   -0.19696575
     atom    2 type  2   force =     0.00001384    0.13172703  -43.39594365
     atom    3 type  2   force =     0.00087208    0.11941679   43.56472264
     atom    4 type  2   force =     0.00073523   -0.05871619   89.78451947
     atom    5 type  2   force =     0.00020109    0.05814548  -89.65257740
     atom    6 type  3   force =     0.00017734   -0.05198772  -62.37682962
     atom    7 type  3   force =    -0.00080686    0.05410506   62.27307431
     The local contribution  to forces
     atom    1 type  1   force =     0.00111305    0.25501026    0.20246576
     atom    2 type  2   force =    -0.00015435   -0.12156586   43.47986688
     atom    3 type  2   force =    -0.00073068   -0.11048410  -43.67298193
     atom    4 type  2   force =    -0.00049535    0.04465465  -88.91406673
     atom    5 type  2   force =    -0.00006717   -0.04435570   88.81602300
     atom    6 type  3   force =    -0.00020609    0.07551992   62.48865341
     atom    7 type  3   force =     0.00112980   -0.07749889  -62.36616119
     The core correction contribution to forces
     atom    1 type  1   force =     0.00000000    0.00000000    0.00000000
     atom    2 type  2   force =     0.00000000    0.00000000    0.00000000
     atom    3 type  2   force =     0.00000000    0.00000000    0.00000000
     atom    4 type  2   force =     0.00000000    0.00000000    0.00000000
     atom    5 type  2   force =     0.00000000    0.00000000    0.00000000
     atom    6 type  3   force =     0.00000000    0.00000000    0.00000000
     atom    7 type  3   force =     0.00000000    0.00000000    0.00000000
     The Hubbard contrib.    to forces
     atom    1 type  1   force =     0.00000000    0.00000000    0.00000000
     atom    2 type  2   force =     0.00000000    0.00000000    0.00000000
     atom    3 type  2   force =     0.00000000    0.00000000    0.00000000
     atom    4 type  2   force =     0.00000000    0.00000000    0.00000000
     atom    5 type  2   force =     0.00000000    0.00000000    0.00000000
     atom    6 type  3   force =     0.00000000    0.00000000    0.00000000
     atom    7 type  3   force =     0.00000000    0.00000000    0.00000000
     The SCF correction term to forces
     atom    1 type  1   force =    -0.00000000    0.00000003    0.00000116
     atom    2 type  2   force =     0.00000000   -0.00000000   -0.00000040
     atom    3 type  2   force =    -0.00000000   -0.00000000    0.00000100
     atom    4 type  2   force =    -0.00000000   -0.00000000    0.00000022
     atom    5 type  2   force =    -0.00000000    0.00000000   -0.00000002
     atom    6 type  3   force =     0.00000000   -0.00000000   -0.00000003
     atom    7 type  3   force =     0.00000000    0.00000000    0.00000025

     Total force =     0.001028     Total SCF correction =     0.000002
     Energy error            =      1.4E-06 Ry
     Gradient error          =      4.9E-04 Ry/Bohr

     bfgs converged in  11 scf cycles and  10 bfgs steps
     (criteria: energy <  1.0E-04 Ry, force <  1.0E-03 Ry/Bohr)

     End of BFGS Geometry Optimization

     Final energy             =    -263.3467032549 Ry

     File ./tmp/crsi2n4.bfgs deleted, as requested
Begin final coordinates

ATOMIC_POSITIONS (angstrom)
Cr               2.2010720578        0.3513806634       11.0251673935
N                0.8003258849        1.1717147948        9.8758728106
N                0.8002384511        1.1761631150       12.1891052080
N                2.2006132907        0.3423136684       14.5034651073
N               -0.5999250528        2.0024570891        7.5846057054
Si               0.8008096921        1.1728329033        8.1289405537
Si               0.8001232320        1.1719032095       13.9489898845
End final coordinates



     Writing all to output data dir ./tmp/crsi2n4.save/ :
     XML data file, charge density, pseudopotentials, collected wavefunctions
 
     init_run     :      6.88s CPU      7.09s WALL (       1 calls)
     electrons    :   4709.45s CPU   4716.59s WALL (      11 calls)
     update_pot   :      0.33s CPU      0.33s WALL (      10 calls)
     forces       :     19.74s CPU     19.74s WALL (      11 calls)

     Called by init_run:
     wfcinit      :      5.61s CPU      5.76s WALL (       1 calls)
     wfcinit:atom :      0.08s CPU      0.08s WALL (     121 calls)
     wfcinit:wfcr :      5.32s CPU      5.35s WALL (     121 calls)
     potinit      :      0.94s CPU      0.97s WALL (       1 calls)
     hinit0       :      0.17s CPU      0.17s WALL (       1 calls)

     Called by electrons:
     c_bands      :   4350.79s CPU   4357.50s WALL (     303 calls)
     sum_band     :    344.25s CPU    344.53s WALL (     303 calls)
     v_of_rho     :      4.61s CPU      4.67s WALL (     313 calls)
     v_h          :      1.10s CPU      1.11s WALL (     313 calls)
     v_xc         :      3.51s CPU      3.56s WALL (     313 calls)
     mix_rho      :      6.10s CPU      6.15s WALL (     303 calls)

     Called by c_bands:
     init_us_2    :     54.38s CPU     54.46s WALL (   74778 calls)
     cegterg      :   4180.33s CPU   4186.73s WALL (   36663 calls)

     Called by sum_band:
     sum_band:wei :      0.00s CPU      0.00s WALL (     303 calls)
     sum_band:loo :    343.08s CPU    343.36s WALL (     303 calls)
     sum_band:buf :     42.73s CPU     42.82s WALL (   36663 calls)
     sum_band:ini :     27.20s CPU     27.24s WALL (   36663 calls)

     Called by *egterg:
     cdiaghg      :    476.83s CPU    478.40s WALL (  211862 calls)
                                      477.64s GPU  (  211862 calls)
     cegterg:over :    868.68s CPU    869.11s WALL (  176530 calls)
     cegterg:upda :    207.51s CPU    207.71s WALL (  176530 calls)
     cegterg:last :    191.13s CPU    191.26s WALL (   91045 calls)
     h_psi        :   2303.05s CPU   2309.29s WALL (  213314 calls)
                                     2307.57s GPU  (  213314 calls)
     g_psi        :      0.64s CPU     19.39s WALL (  176530 calls)
                                       18.71s GPU  (  176530 calls)

     Called by h_psi:
     h_psi:calbec :      5.35s CPU    411.40s WALL (  213314 calls)
                                      410.61s GPU  (  213314 calls)
     vloc_psi     :   1544.35s CPU   1550.26s WALL (  213314 calls)
                                     1549.60s GPU  (  213314 calls)
     add_vuspsi   :     40.53s CPU    336.19s WALL (  213314 calls)
                                      335.31s GPU  (  213314 calls)

     General routines
     calbec       :      5.06s CPU      5.13s WALL (  218638 calls)
     fft          :      1.62s CPU      3.31s WALL (    3756 calls)
                                        1.72s GPU  (    3443 calls)
     ffts         :      1.20s CPU      1.30s WALL (     616 calls)
                                        0.11s GPU  (     303 calls)
     fftw         :      6.32s CPU   1574.12s WALL (  658666 calls)
                                     1571.68s GPU  (  658666 calls)
     interpolate  :      3.39s CPU      3.40s WALL (     313 calls)
 
     Parallel routines
 
     PWSCF        :      1h18m CPU      1h19m WALL

 
   This run was terminated on:   4:26:57  27Apr2026            

=------------------------------------------------------------------------------=
   JOB DONE.
=------------------------------------------------------------------------------=
