
     Program PWSCF v.7.3.1 starts on  4Jan2026 at 21:46:24 

     This program is part of the open-source Quantum ESPRESSO suite
     for quantum simulation of materials; please cite
         "P. Giannozzi et al., J. Phys.:Condens. Matter 21 395502 (2009);
         "P. Giannozzi et al., J. Phys.:Condens. Matter 29 465901 (2017);
         "P. Giannozzi et al., J. Chem. Phys. 152 154105 (2020);
          URL http://www.quantum-espresso.org", 
     in publications or presentations arising from this work. More details at
     http://www.quantum-espresso.org/quote

     Parallel version (MPI), running on     4 processors

     MPI processes distributed on     1 nodes
     1566 MiB available memory on the printing compute node when the environment starts

     Waiting for input...
     Reading input from standard input

     Current dimensions of program PWSCF are:
     Max number of different atomic species (ntypx) = 10
     Max number of k-points (npk) =  40000
     Max angular momentum in pseudopotentials (lmaxx) =  4

     R & G space division:  proc/nbgrp/npool/nimage =       4
     Subspace diagonalization in iterative solution of the eigenvalue problem:
     a serial algorithm will be used


     Parallelization info
     --------------------
     sticks:   dense  smooth     PW     G-vecs:    dense   smooth      PW
     Min         201     162     46                33155    23758    3760
     Max         202     163     47                33163    23770    3787
     Sum         805     649    187               132633    95059   15103

     Using Slab Decomposition



     bravais-lattice index     =            0
     lattice parameter (alat)  =       5.3744  a.u.
     unit-cell volume          =     981.6153 (a.u.)^3
     number of atoms/cell      =            7
     number of atomic types    =            3
     number of electrons       =        42.00
     number of Kohn-Sham states=           21
     kinetic-energy cutoff     =      80.0000  Ry
     charge density cutoff     =     400.0000  Ry
     scf convergence threshold =      1.0E-10
     mixing beta               =       0.5000
     number of iterations used =            8  plain     mixing
     Exchange-correlation= PBE
                           (   1   4   3   4   0   0   0)

     celldm(1)=   5.374381  celldm(2)=   0.000000  celldm(3)=   0.000000
     celldm(4)=   0.000000  celldm(5)=   0.000000  celldm(6)=   0.000000

     crystal axes: (cart. coord. in units of alat)
               a(1) = (   1.000000   0.000000   0.000000 )  
               a(2) = (  -0.500000   0.866025   0.000000 )  
               a(3) = (   0.000000   0.000000   7.301723 )  

     reciprocal axes: (cart. coord. in units 2 pi/alat)
               b(1) = (  1.000000  0.577350 -0.000000 )  
               b(2) = (  0.000000  1.154701  0.000000 )  
               b(3) = (  0.000000 -0.000000  0.136954 )  


     PseudoPot. # 1 for Cr read from file:
     ./../../pseudo/ONCVPSP/abinit/Cr_ONCV_PBE_sr.upf
     MD5 check sum: 3baa404e46b6888915b3a385d4a3464a
     Pseudo is Norm-conserving + core correction, Zval = 14.0
     Generated using ONCVPSP code by D. R. Hamann
     Using radial grid of 1638 points,  6 beta functions with: 
                l(1) =   0
                l(2) =   0
                l(3) =   1
                l(4) =   1
                l(5) =   2
                l(6) =   2

     PseudoPot. # 2 for Si read from file:
     ./../../pseudo/ONCVPSP/abinit/Si_ONCV_PBE_sr.upf
     MD5 check sum: e543d271109d17c80368dfa7c482276d
     Pseudo is Norm-conserving + core correction, Zval =  4.0
     Generated using ONCVPSP code by D. R. Hamann
     Using radial grid of 1510 points,  6 beta functions with: 
                l(1) =   0
                l(2) =   0
                l(3) =   1
                l(4) =   1
                l(5) =   2
                l(6) =   2

     PseudoPot. # 3 for N  read from file:
     ./../../pseudo/ONCVPSP/abinit/N_ONCV_PBE_sr.upf
     MD5 check sum: 18c6af81dac9c5a2d6d52ed11cf7bfee
     Pseudo is Norm-conserving + core correction, Zval =  5.0
     Generated using ONCVPSP code by D. R. Hamann
     Using radial grid of 1058 points,  4 beta functions with: 
                l(1) =   0
                l(2) =   0
                l(3) =   1
                l(4) =   1

     atomic species   valence    mass     pseudopotential
     Cr               14.00    51.99600     Cr( 1.00)
     Si                4.00    28.08600     Si( 1.00)
     N                 5.00    14.00700     N ( 1.00)

     No symmetry found


                                    s                        frac. trans.

      isym =  1     identity                                     

 cryst.   s( 1) = (     1          0          0      )
                  (     0          1          0      )
                  (     0          0          1      )

 cart.    s( 1) = (  1.0000000  0.0000000  0.0000000 )
                  (  0.0000000  1.0000000  0.0000000 )
                  (  0.0000000  0.0000000  1.0000000 )


   Cartesian axes

     site n.     atom                  positions (alat units)
         1        Cr     tau(   1) = (   0.7856992   0.1237169   3.1237137  )
         2        N      tau(   2) = (   0.2857045   0.4123895   2.7238712  )
         3        N      tau(   3) = (   0.2857069   0.4123867   3.5287613  )
         4        N      tau(   4) = (   0.7857152   0.1236985   4.3391106  )
         5        N      tau(   5) = (  -0.2142868   0.7010642   1.9209304  )
         6        Si     tau(   6) = (   0.2857130   0.4123891   2.1091259  )
         7        Si     tau(   7) = (   0.2857150   0.4123739   4.1477101  )

   Crystallographic axes

     site n.     atom                  positions (cryst. coord.)
         1        Cr     tau(   1) = (  0.8571272  0.1428560  0.4278050  )
         2        N      tau(   2) = (  0.5237977  0.4761865  0.3730450  )
         3        N      tau(   3) = (  0.5237985  0.4761832  0.4832779  )
         4        N      tau(   4) = (  0.8571325  0.1428347  0.5942585  )
         5        N      tau(   5) = (  0.1904728  0.8095192  0.2630791  )
         6        Si     tau(   6) = (  0.5238059  0.4761860  0.2888532  )
         7        Si     tau(   7) = (  0.5237992  0.4761684  0.5680454  )

     number of k points=    61
                       cart. coord. in units 2pi/alat
        k(    1) = (   0.0000000   0.0000000   0.0000000), wk =   0.0165289
        k(    2) = (   0.0000000   0.1049728   0.0000000), wk =   0.0330579
        k(    3) = (   0.0000000   0.2099456   0.0000000), wk =   0.0330579
        k(    4) = (   0.0000000   0.3149184   0.0000000), wk =   0.0330579
        k(    5) = (   0.0000000   0.4198911   0.0000000), wk =   0.0330579
        k(    6) = (   0.0000000   0.5248639   0.0000000), wk =   0.0330579
        k(    7) = (   0.0909091   0.1574592   0.0000000), wk =   0.0330579
        k(    8) = (   0.0909091   0.2624320   0.0000000), wk =   0.0330579
        k(    9) = (   0.0909091   0.3674048   0.0000000), wk =   0.0330579
        k(   10) = (   0.0909091   0.4723775   0.0000000), wk =   0.0330579
        k(   11) = (   0.0909091   0.5773503   0.0000000), wk =   0.0330579
        k(   12) = (   0.1818182   0.3149184   0.0000000), wk =   0.0330579
        k(   13) = (   0.1818182   0.4198911   0.0000000), wk =   0.0330579
        k(   14) = (   0.1818182   0.5248639   0.0000000), wk =   0.0330579
        k(   15) = (   0.2727273   0.4723775   0.0000000), wk =   0.0330579
        k(   16) = (   0.2727273   0.5773503   0.0000000), wk =   0.0330579
        k(   17) = (  -0.0909091   0.0524864   0.0000000), wk =   0.0330579
        k(   18) = (   0.0909091   0.0524864   0.0000000), wk =   0.0330579
        k(   19) = (  -0.1818182   0.1049728   0.0000000), wk =   0.0330579
        k(   20) = (   0.1818182   0.1049728   0.0000000), wk =   0.0330579
        k(   21) = (  -0.2727273   0.1574592   0.0000000), wk =   0.0330579
        k(   22) = (   0.2727273   0.1574592   0.0000000), wk =   0.0330579
        k(   23) = (  -0.3636364   0.2099456   0.0000000), wk =   0.0330579
        k(   24) = (   0.3636364   0.2099456   0.0000000), wk =   0.0330579
        k(   25) = (  -0.4545455   0.2624320   0.0000000), wk =   0.0330579
        k(   26) = (   0.4545455   0.2624320   0.0000000), wk =   0.0330579
        k(   27) = (  -0.0909091   0.1574592   0.0000000), wk =   0.0330579
        k(   28) = (   0.1818182   0.0000000   0.0000000), wk =   0.0330579
        k(   29) = (  -0.0909091   0.2624320   0.0000000), wk =   0.0330579
        k(   30) = (  -0.1818182   0.2099456   0.0000000), wk =   0.0330579
        k(   31) = (   0.2727273   0.0524864   0.0000000), wk =   0.0330579
        k(   32) = (  -0.1818182  -0.2099456   0.0000000), wk =   0.0330579
        k(   33) = (   0.2727273  -0.0524864   0.0000000), wk =   0.0330579
        k(   34) = (  -0.0909091   0.3674048   0.0000000), wk =   0.0330579
        k(   35) = (  -0.2727273   0.2624320   0.0000000), wk =   0.0330579
        k(   36) = (   0.3636364   0.1049728   0.0000000), wk =   0.0330579
        k(   37) = (  -0.2727273  -0.2624320   0.0000000), wk =   0.0330579
        k(   38) = (   0.3636364  -0.1049728   0.0000000), wk =   0.0330579
        k(   39) = (  -0.0909091   0.4723775   0.0000000), wk =   0.0330579
        k(   40) = (  -0.3636364   0.3149184   0.0000000), wk =   0.0330579
        k(   41) = (   0.4545455   0.1574592   0.0000000), wk =   0.0330579
        k(   42) = (  -0.3636364  -0.3149184   0.0000000), wk =   0.0330579
        k(   43) = (   0.4545455  -0.1574592   0.0000000), wk =   0.0330579
        k(   44) = (  -0.4545455   0.3674048   0.0000000), wk =   0.0330579
        k(   45) = (   0.5454545   0.2099456   0.0000000), wk =   0.0330579
        k(   46) = (  -0.1818182   0.3149184   0.0000000), wk =   0.0330579
        k(   47) = (   0.3636364   0.0000000   0.0000000), wk =   0.0330579
        k(   48) = (  -0.1818182   0.4198911   0.0000000), wk =   0.0330579
        k(   49) = (  -0.2727273   0.3674048   0.0000000), wk =   0.0330579
        k(   50) = (   0.4545455   0.0524864   0.0000000), wk =   0.0330579
        k(   51) = (  -0.2727273  -0.3674048   0.0000000), wk =   0.0330579
        k(   52) = (   0.4545455  -0.0524864   0.0000000), wk =   0.0330579
        k(   53) = (  -0.1818182   0.5248639   0.0000000), wk =   0.0330579
        k(   54) = (  -0.3636364   0.4198911   0.0000000), wk =   0.0330579
        k(   55) = (   0.5454545   0.1049728   0.0000000), wk =   0.0330579
        k(   56) = (  -0.3636364  -0.4198911   0.0000000), wk =   0.0330579
        k(   57) = (   0.5454545  -0.1049728   0.0000000), wk =   0.0330579
        k(   58) = (  -0.2727273   0.4723775   0.0000000), wk =   0.0330579
        k(   59) = (   0.5454545  -0.0000000   0.0000000), wk =   0.0330579
        k(   60) = (  -0.3636364   0.5248639   0.0000000), wk =   0.0330579
        k(   61) = (   0.6363636   0.0524864   0.0000000), wk =   0.0330579

                       cryst. coord.
        k(    1) = (   0.0000000   0.0000000   0.0000000), wk =   0.0165289
        k(    2) = (   0.0000000   0.0909091   0.0000000), wk =   0.0330579
        k(    3) = (   0.0000000   0.1818182   0.0000000), wk =   0.0330579
        k(    4) = (   0.0000000   0.2727273   0.0000000), wk =   0.0330579
        k(    5) = (   0.0000000   0.3636364   0.0000000), wk =   0.0330579
        k(    6) = (   0.0000000   0.4545455   0.0000000), wk =   0.0330579
        k(    7) = (   0.0909091   0.0909091   0.0000000), wk =   0.0330579
        k(    8) = (   0.0909091   0.1818182   0.0000000), wk =   0.0330579
        k(    9) = (   0.0909091   0.2727273   0.0000000), wk =   0.0330579
        k(   10) = (   0.0909091   0.3636364   0.0000000), wk =   0.0330579
        k(   11) = (   0.0909091   0.4545455   0.0000000), wk =   0.0330579
        k(   12) = (   0.1818182   0.1818182   0.0000000), wk =   0.0330579
        k(   13) = (   0.1818182   0.2727273   0.0000000), wk =   0.0330579
        k(   14) = (   0.1818182   0.3636364   0.0000000), wk =   0.0330579
        k(   15) = (   0.2727273   0.2727273   0.0000000), wk =   0.0330579
        k(   16) = (   0.2727273   0.3636364   0.0000000), wk =   0.0330579
        k(   17) = (  -0.0909091   0.0909091   0.0000000), wk =   0.0330579
        k(   18) = (   0.0909091  -0.0000000   0.0000000), wk =   0.0330579
        k(   19) = (  -0.1818182   0.1818182   0.0000000), wk =   0.0330579
        k(   20) = (   0.1818182  -0.0000000   0.0000000), wk =   0.0330579
        k(   21) = (  -0.2727273   0.2727273   0.0000000), wk =   0.0330579
        k(   22) = (   0.2727273  -0.0000000   0.0000000), wk =   0.0330579
        k(   23) = (  -0.3636364   0.3636364   0.0000000), wk =   0.0330579
        k(   24) = (   0.3636364  -0.0000000   0.0000000), wk =   0.0330579
        k(   25) = (  -0.4545455   0.4545455   0.0000000), wk =   0.0330579
        k(   26) = (   0.4545455   0.0000000   0.0000000), wk =   0.0330579
        k(   27) = (  -0.0909091   0.1818182   0.0000000), wk =   0.0330579
        k(   28) = (   0.1818182  -0.0909091   0.0000000), wk =   0.0330579
        k(   29) = (  -0.0909091   0.2727273   0.0000000), wk =   0.0330579
        k(   30) = (  -0.1818182   0.2727273   0.0000000), wk =   0.0330579
        k(   31) = (   0.2727273  -0.0909091   0.0000000), wk =   0.0330579
        k(   32) = (  -0.1818182  -0.0909091   0.0000000), wk =   0.0330579
        k(   33) = (   0.2727273  -0.1818182   0.0000000), wk =   0.0330579
        k(   34) = (  -0.0909091   0.3636364   0.0000000), wk =   0.0330579
        k(   35) = (  -0.2727273   0.3636364   0.0000000), wk =   0.0330579
        k(   36) = (   0.3636364  -0.0909091   0.0000000), wk =   0.0330579
        k(   37) = (  -0.2727273  -0.0909091   0.0000000), wk =   0.0330579
        k(   38) = (   0.3636364  -0.2727273   0.0000000), wk =   0.0330579
        k(   39) = (  -0.0909091   0.4545455   0.0000000), wk =   0.0330579
        k(   40) = (  -0.3636364   0.4545455   0.0000000), wk =   0.0330579
        k(   41) = (   0.4545455  -0.0909091   0.0000000), wk =   0.0330579
        k(   42) = (  -0.3636364  -0.0909091   0.0000000), wk =   0.0330579
        k(   43) = (   0.4545455  -0.3636364   0.0000000), wk =   0.0330579
        k(   44) = (  -0.4545455   0.5454545   0.0000000), wk =   0.0330579
        k(   45) = (   0.5454545  -0.0909091   0.0000000), wk =   0.0330579
        k(   46) = (  -0.1818182   0.3636364   0.0000000), wk =   0.0330579
        k(   47) = (   0.3636364  -0.1818182   0.0000000), wk =   0.0330579
        k(   48) = (  -0.1818182   0.4545455   0.0000000), wk =   0.0330579
        k(   49) = (  -0.2727273   0.4545455   0.0000000), wk =   0.0330579
        k(   50) = (   0.4545455  -0.1818182   0.0000000), wk =   0.0330579
        k(   51) = (  -0.2727273  -0.1818182   0.0000000), wk =   0.0330579
        k(   52) = (   0.4545455  -0.2727273   0.0000000), wk =   0.0330579
        k(   53) = (  -0.1818182   0.5454545   0.0000000), wk =   0.0330579
        k(   54) = (  -0.3636364   0.5454545   0.0000000), wk =   0.0330579
        k(   55) = (   0.5454545  -0.1818182   0.0000000), wk =   0.0330579
        k(   56) = (  -0.3636364  -0.1818182   0.0000000), wk =   0.0330579
        k(   57) = (   0.5454545  -0.3636364   0.0000000), wk =   0.0330579
        k(   58) = (  -0.2727273   0.5454545   0.0000000), wk =   0.0330579
        k(   59) = (   0.5454545  -0.2727273   0.0000000), wk =   0.0330579
        k(   60) = (  -0.3636364   0.6363636   0.0000000), wk =   0.0330579
        k(   61) = (   0.6363636  -0.2727273   0.0000000), wk =   0.0330579

     Dense  grid:   132633 G-vectors     FFT dimensions: (  36,  36, 250)

     Smooth grid:    95059 G-vectors     FFT dimensions: (  32,  32, 225)

     Dynamical RAM for                 wfc:       0.95 MB

     Dynamical RAM for     wfc (w. buffer):      58.91 MB

     Dynamical RAM for           str. fact:       1.52 MB

     Dynamical RAM for           local pot:       0.00 MB

     Dynamical RAM for          nlocal pot:       3.89 MB

     Dynamical RAM for                qrad:       4.82 MB

     Dynamical RAM for          rho,v,vnew:       3.39 MB

     Dynamical RAM for               rhoin:       1.13 MB

     Dynamical RAM for            rho*nmix:       8.10 MB

     Dynamical RAM for           G-vectors:       2.08 MB

     Dynamical RAM for          h,s,v(r/c):       0.08 MB

     Dynamical RAM for          <psi|beta>:       0.03 MB

     Dynamical RAM for                 psi:       1.90 MB

     Dynamical RAM for                hpsi:       1.90 MB

     Dynamical RAM for      wfcinit/wfcrot:       3.10 MB

     Estimated static dynamical RAM per process >      80.86 MB

     Estimated max dynamical RAM per process >      92.87 MB

     Estimated total dynamical RAM >     371.48 MB
 ----2D----2D----2D----2D----2D----2D----2D----2D----2D----2D----2D----2D
  The code is running with the 2D cutoff
  Please refer to:
  Sohier, T., Calandra, M., & Mauri, F. (2017), 
  Density functional perturbation theory for gated two-dimensional heterostructures:
  Theoretical developments and application to flexural phonons in graphene.
  Physical Review B, 96(7), 75448. https://doi.org/10.1103/PhysRevB.96.075448
 ----2D----2D----2D----2D----2D----2D----2D----2D----2D----2D----2D----2D

     Initial potential from superposition of free atoms

     starting charge      41.9973, renormalised to      42.0000

     negative rho (up, down):  6.165E-06 0.000E+00
     Starting wfcs are   34 randomized atomic wfcs

     total cpu time spent up to now is        4.8 secs

     Self-consistent Calculation

     iteration #  1     ecut=    80.00 Ry     beta= 0.50
     Davidson diagonalization with overlap

---- Real-time Memory Report at c_bands before calling an iterative solver
           110 MiB given to the printing process from OS
             0 MiB allocation reported by mallinfo(arena+hblkhd)
          1914 MiB available memory on the node where the printing process lives
------------------
     ethr =  1.00E-02,  avg # of iterations =  2.2

     total cpu time spent up to now is       13.3 secs

     total energy              =    -276.54685388 Ry
     estimated scf accuracy    <       4.20567333 Ry

     iteration #  2     ecut=    80.00 Ry     beta= 0.50
     Davidson diagonalization with overlap

---- Real-time Memory Report at c_bands before calling an iterative solver
           121 MiB given to the printing process from OS
             0 MiB allocation reported by mallinfo(arena+hblkhd)
          1827 MiB available memory on the node where the printing process lives
------------------
     ethr =  1.00E-02,  avg # of iterations =  9.9

     total cpu time spent up to now is       28.8 secs

     total energy              =    -274.67444727 Ry
     estimated scf accuracy    <      29.73470734 Ry

     iteration #  3     ecut=    80.00 Ry     beta= 0.50
     Davidson diagonalization with overlap

---- Real-time Memory Report at c_bands before calling an iterative solver
           122 MiB given to the printing process from OS
             0 MiB allocation reported by mallinfo(arena+hblkhd)
          1816 MiB available memory on the node where the printing process lives
------------------
     ethr =  1.00E-02,  avg # of iterations =  7.1

     total cpu time spent up to now is       40.6 secs

     total energy              =    -277.80272226 Ry
     estimated scf accuracy    <       4.60168527 Ry

     iteration #  4     ecut=    80.00 Ry     beta= 0.50
     Davidson diagonalization with overlap

---- Real-time Memory Report at c_bands before calling an iterative solver
           123 MiB given to the printing process from OS
             0 MiB allocation reported by mallinfo(arena+hblkhd)
          1800 MiB available memory on the node where the printing process lives
------------------
     ethr =  1.00E-02,  avg # of iterations =  4.0

     total cpu time spent up to now is       48.1 secs

     total energy              =    -278.14059053 Ry
     estimated scf accuracy    <       0.95668244 Ry

     iteration #  5     ecut=    80.00 Ry     beta= 0.50
     Davidson diagonalization with overlap

---- Real-time Memory Report at c_bands before calling an iterative solver
           124 MiB given to the printing process from OS
             0 MiB allocation reported by mallinfo(arena+hblkhd)
          1789 MiB available memory on the node where the printing process lives
------------------
     ethr =  2.28E-03,  avg # of iterations =  4.9

     total cpu time spent up to now is       55.9 secs

     total energy              =    -278.32694245 Ry
     estimated scf accuracy    <       0.20874482 Ry

     iteration #  6     ecut=    80.00 Ry     beta= 0.50
     Davidson diagonalization with overlap

---- Real-time Memory Report at c_bands before calling an iterative solver
           124 MiB given to the printing process from OS
             0 MiB allocation reported by mallinfo(arena+hblkhd)
          1786 MiB available memory on the node where the printing process lives
------------------
     ethr =  4.97E-04,  avg # of iterations =  3.6

     total cpu time spent up to now is       63.0 secs

     total energy              =    -278.31780424 Ry
     estimated scf accuracy    <       0.09105066 Ry

     iteration #  7     ecut=    80.00 Ry     beta= 0.50
     Davidson diagonalization with overlap

---- Real-time Memory Report at c_bands before calling an iterative solver
           125 MiB given to the printing process from OS
             0 MiB allocation reported by mallinfo(arena+hblkhd)
          1785 MiB available memory on the node where the printing process lives
------------------
     ethr =  2.17E-04,  avg # of iterations =  5.6

     total cpu time spent up to now is       71.6 secs

     total energy              =    -278.33800055 Ry
     estimated scf accuracy    <       0.00793278 Ry

     iteration #  8     ecut=    80.00 Ry     beta= 0.50
     Davidson diagonalization with overlap

---- Real-time Memory Report at c_bands before calling an iterative solver
           126 MiB given to the printing process from OS
             0 MiB allocation reported by mallinfo(arena+hblkhd)
          1783 MiB available memory on the node where the printing process lives
------------------
     ethr =  1.89E-05,  avg # of iterations =  7.1

     total cpu time spent up to now is       83.4 secs

     total energy              =    -278.34152523 Ry
     estimated scf accuracy    <       0.00736337 Ry

     iteration #  9     ecut=    80.00 Ry     beta= 0.50
     Davidson diagonalization with overlap

---- Real-time Memory Report at c_bands before calling an iterative solver
           126 MiB given to the printing process from OS
             0 MiB allocation reported by mallinfo(arena+hblkhd)
          1781 MiB available memory on the node where the printing process lives
------------------
     ethr =  1.75E-05,  avg # of iterations =  2.1

     total cpu time spent up to now is       90.4 secs

     total energy              =    -278.34121845 Ry
     estimated scf accuracy    <       0.00462897 Ry

     iteration # 10     ecut=    80.00 Ry     beta= 0.50
     Davidson diagonalization with overlap

---- Real-time Memory Report at c_bands before calling an iterative solver
           127 MiB given to the printing process from OS
             0 MiB allocation reported by mallinfo(arena+hblkhd)
          1773 MiB available memory on the node where the printing process lives
------------------
     ethr =  1.10E-05,  avg # of iterations =  5.2

     total cpu time spent up to now is       98.5 secs

     total energy              =    -278.34181420 Ry
     estimated scf accuracy    <       0.00068741 Ry

     iteration # 11     ecut=    80.00 Ry     beta= 0.50
     Davidson diagonalization with overlap

---- Real-time Memory Report at c_bands before calling an iterative solver
           127 MiB given to the printing process from OS
             0 MiB allocation reported by mallinfo(arena+hblkhd)
          1771 MiB available memory on the node where the printing process lives
------------------
     ethr =  1.64E-06,  avg # of iterations =  5.8

     total cpu time spent up to now is      108.1 secs

     total energy              =    -278.34197310 Ry
     estimated scf accuracy    <       0.00015442 Ry

     iteration # 12     ecut=    80.00 Ry     beta= 0.50
     Davidson diagonalization with overlap

---- Real-time Memory Report at c_bands before calling an iterative solver
           127 MiB given to the printing process from OS
             0 MiB allocation reported by mallinfo(arena+hblkhd)
          1768 MiB available memory on the node where the printing process lives
------------------
     ethr =  3.68E-07,  avg # of iterations =  6.4

     total cpu time spent up to now is      118.6 secs

     total energy              =    -278.34202507 Ry
     estimated scf accuracy    <       0.00003589 Ry

     iteration # 13     ecut=    80.00 Ry     beta= 0.50
     Davidson diagonalization with overlap

---- Real-time Memory Report at c_bands before calling an iterative solver
           127 MiB given to the printing process from OS
             0 MiB allocation reported by mallinfo(arena+hblkhd)
          1768 MiB available memory on the node where the printing process lives
------------------
     ethr =  8.55E-08,  avg # of iterations =  7.2

     total cpu time spent up to now is      129.9 secs

     total energy              =    -278.34203457 Ry
     estimated scf accuracy    <       0.00002907 Ry

     iteration # 14     ecut=    80.00 Ry     beta= 0.50
     Davidson diagonalization with overlap

---- Real-time Memory Report at c_bands before calling an iterative solver
           127 MiB given to the printing process from OS
             0 MiB allocation reported by mallinfo(arena+hblkhd)
          1762 MiB available memory on the node where the printing process lives
------------------
     ethr =  6.92E-08,  avg # of iterations =  5.0

     total cpu time spent up to now is      138.0 secs

     total energy              =    -278.34203812 Ry
     estimated scf accuracy    <       0.00000558 Ry

     iteration # 15     ecut=    80.00 Ry     beta= 0.50
     Davidson diagonalization with overlap

---- Real-time Memory Report at c_bands before calling an iterative solver
           127 MiB given to the printing process from OS
             0 MiB allocation reported by mallinfo(arena+hblkhd)
          1758 MiB available memory on the node where the printing process lives
------------------
     ethr =  1.33E-08,  avg # of iterations =  5.5

     total cpu time spent up to now is      146.8 secs

     total energy              =    -278.34203901 Ry
     estimated scf accuracy    <       0.00000263 Ry

     iteration # 16     ecut=    80.00 Ry     beta= 0.50
     Davidson diagonalization with overlap

---- Real-time Memory Report at c_bands before calling an iterative solver
           127 MiB given to the printing process from OS
             0 MiB allocation reported by mallinfo(arena+hblkhd)
          1757 MiB available memory on the node where the printing process lives
------------------
     ethr =  6.25E-09,  avg # of iterations =  4.6

     total cpu time spent up to now is      154.4 secs

     total energy              =    -278.34203923 Ry
     estimated scf accuracy    <       0.00000038 Ry

     iteration # 17     ecut=    80.00 Ry     beta= 0.50
     Davidson diagonalization with overlap

---- Real-time Memory Report at c_bands before calling an iterative solver
           127 MiB given to the printing process from OS
             0 MiB allocation reported by mallinfo(arena+hblkhd)
          1755 MiB available memory on the node where the printing process lives
------------------
     ethr =  9.03E-10,  avg # of iterations =  7.9

     total cpu time spent up to now is      167.1 secs

     total energy              =    -278.34203944 Ry
     estimated scf accuracy    <       0.00000030 Ry

     iteration # 18     ecut=    80.00 Ry     beta= 0.50
     Davidson diagonalization with overlap

---- Real-time Memory Report at c_bands before calling an iterative solver
           127 MiB given to the printing process from OS
             0 MiB allocation reported by mallinfo(arena+hblkhd)
          1753 MiB available memory on the node where the printing process lives
------------------
     ethr =  7.16E-10,  avg # of iterations =  2.0

     total cpu time spent up to now is      173.7 secs

     total energy              =    -278.34203940 Ry
     estimated scf accuracy    <       0.00000016 Ry

     iteration # 19     ecut=    80.00 Ry     beta= 0.50
     Davidson diagonalization with overlap

---- Real-time Memory Report at c_bands before calling an iterative solver
           127 MiB given to the printing process from OS
             0 MiB allocation reported by mallinfo(arena+hblkhd)
          1750 MiB available memory on the node where the printing process lives
------------------
     ethr =  3.73E-10,  avg # of iterations =  6.9

     total cpu time spent up to now is      184.6 secs

     total energy              =    -278.34203944 Ry
     estimated scf accuracy    <       0.00000019 Ry

     iteration # 20     ecut=    80.00 Ry     beta= 0.50
     Davidson diagonalization with overlap

---- Real-time Memory Report at c_bands before calling an iterative solver
           127 MiB given to the printing process from OS
             0 MiB allocation reported by mallinfo(arena+hblkhd)
          1746 MiB available memory on the node where the printing process lives
------------------
     ethr =  3.73E-10,  avg # of iterations =  3.0

     total cpu time spent up to now is      191.9 secs

     total energy              =    -278.34203944 Ry
     estimated scf accuracy    <       0.00000004 Ry

     iteration # 21     ecut=    80.00 Ry     beta= 0.50
     Davidson diagonalization with overlap

---- Real-time Memory Report at c_bands before calling an iterative solver
           127 MiB given to the printing process from OS
             0 MiB allocation reported by mallinfo(arena+hblkhd)
          1737 MiB available memory on the node where the printing process lives
------------------
     ethr =  8.64E-11,  avg # of iterations =  6.4

     total cpu time spent up to now is      202.1 secs

     total energy              =    -278.34203945 Ry
     estimated scf accuracy    <       0.00000001 Ry

     iteration # 22     ecut=    80.00 Ry     beta= 0.50
     Davidson diagonalization with overlap

---- Real-time Memory Report at c_bands before calling an iterative solver
           127 MiB given to the printing process from OS
             0 MiB allocation reported by mallinfo(arena+hblkhd)
          1736 MiB available memory on the node where the printing process lives
------------------
     ethr =  3.37E-11,  avg # of iterations =  2.1

     total cpu time spent up to now is      208.9 secs

     total energy              =    -278.34203945 Ry
     estimated scf accuracy    <          6.7E-09 Ry

     iteration # 23     ecut=    80.00 Ry     beta= 0.50
     Davidson diagonalization with overlap

---- Real-time Memory Report at c_bands before calling an iterative solver
           127 MiB given to the printing process from OS
             0 MiB allocation reported by mallinfo(arena+hblkhd)
          1734 MiB available memory on the node where the printing process lives
------------------
     ethr =  1.59E-11,  avg # of iterations =  6.1

     total cpu time spent up to now is      219.0 secs

     total energy              =    -278.34203946 Ry
     estimated scf accuracy    <          3.3E-09 Ry

     iteration # 24     ecut=    80.00 Ry     beta= 0.50
     Davidson diagonalization with overlap

---- Real-time Memory Report at c_bands before calling an iterative solver
           127 MiB given to the printing process from OS
             0 MiB allocation reported by mallinfo(arena+hblkhd)
          1733 MiB available memory on the node where the printing process lives
------------------
     ethr =  7.84E-12,  avg # of iterations =  2.9

     total cpu time spent up to now is      226.4 secs

     total energy              =    -278.34203946 Ry
     estimated scf accuracy    <          5.2E-10 Ry

     iteration # 25     ecut=    80.00 Ry     beta= 0.50
     Davidson diagonalization with overlap

---- Real-time Memory Report at c_bands before calling an iterative solver
           127 MiB given to the printing process from OS
             0 MiB allocation reported by mallinfo(arena+hblkhd)
          1730 MiB available memory on the node where the printing process lives
------------------
     ethr =  1.24E-12,  avg # of iterations =  6.2

     total cpu time spent up to now is      236.2 secs

     End of self-consistent calculation

          k = 0.0000 0.0000 0.0000 ( 11937 PWs)   bands (ev):

   -77.7289 -48.9926 -48.9926 -48.9532 -24.5055 -24.4189 -21.7637 -20.3271
   -13.9767 -11.3036  -9.3660  -9.2207  -9.2206  -9.1550  -9.1550  -8.8207
    -8.8207  -7.5222  -7.5220  -7.4068  -5.3089

     occupation numbers 
     1.0000   1.0000   1.0000   1.0000   1.0000   1.0000   1.0000   1.0000
     1.0000   1.0000   1.0000   1.0000   1.0000   1.0000   1.0000   1.0000
     1.0000   1.0000   1.0000   1.0000   1.0000

          k = 0.0000 0.1050 0.0000 ( 11913 PWs)   bands (ev):

   -77.7261 -49.0144 -48.9976 -48.9492 -24.3637 -24.2791 -21.6548 -20.2688
   -13.8638 -11.2525  -9.9098  -9.8174  -9.3467  -9.3001  -9.1618  -9.0750
    -8.7386  -7.7736  -7.6652  -7.2361  -5.4181

     occupation numbers 
     1.0000   1.0000   1.0000   1.0000   1.0000   1.0000   1.0000   1.0000
     1.0000   1.0000   1.0000   1.0000   1.0000   1.0000   1.0000   1.0000
     1.0000   1.0000   1.0000   1.0000   1.0000

          k = 0.0000 0.2099 0.0000 ( 11871 PWs)   bands (ev):

   -77.7186 -49.0725 -49.0108 -48.9386 -23.9501 -23.8713 -21.3555 -20.1118
   -13.5903 -11.3860 -11.2065 -11.0077  -9.6924  -9.6848  -9.6562  -8.9282
    -8.4829  -8.1689  -8.0080  -7.3255  -5.7890

     occupation numbers 
     1.0000   1.0000   1.0000   1.0000   1.0000   1.0000   1.0000   1.0000
     1.0000   1.0000   1.0000   1.0000   1.0000   1.0000   1.0000   1.0000
     1.0000   1.0000   1.0000   1.0000   1.0000

          k = 0.0000 0.3149 0.0000 ( 11857 PWs)   bands (ev):

   -77.7088 -49.1480 -49.0280 -48.9248 -23.3072 -23.2370 -20.9522 -19.9138
   -13.6061 -12.9453 -12.3652 -10.9477 -10.3604 -10.0939 -10.0623  -8.7839
    -8.5885  -8.4068  -8.1027  -7.5177  -6.1818

     occupation numbers 
     1.0000   1.0000   1.0000   1.0000   1.0000   1.0000   1.0000   1.0000
     1.0000   1.0000   1.0000   1.0000   1.0000   1.0000   1.0000   1.0000
     1.0000   1.0000   1.0000   1.0000   1.0000

          k = 0.0000 0.4199 0.0000 ( 11855 PWs)   bands (ev):

   -77.6998 -49.2167 -49.0438 -48.9120 -22.5382 -22.4784 -20.5999 -19.7795
   -14.6479 -14.3648 -12.3761 -11.1692 -10.7381 -10.4341 -10.3935  -9.1922
    -8.7194  -8.3545  -7.7345  -7.6103  -6.3117

     occupation numbers 
     1.0000   1.0000   1.0000   1.0000   1.0000   1.0000   1.0000   1.0000
     1.0000   1.0000   1.0000   1.0000   1.0000   1.0000   1.0000   1.0000
     1.0000   1.0000   1.0000   1.0000   1.0000

          k = 0.0000 0.5249 0.0000 ( 11852 PWs)   bands (ev):

   -77.6945 -49.2573 -49.0532 -48.9044 -21.9041 -21.8539 -20.4648 -19.7904
   -15.4776 -15.2220 -12.1945 -11.5648 -10.8710 -10.6219 -10.5760  -9.3479
    -8.8925  -8.1045  -7.6325  -7.4966  -6.2697

     occupation numbers 
     1.0000   1.0000   1.0000   1.0000   1.0000   1.0000   1.0000   1.0000
     1.0000   1.0000   1.0000   1.0000   1.0000   1.0000   1.0000   1.0000
     1.0000   1.0000   1.0000   1.0000   1.0000

          k = 0.0909 0.1575 0.0000 ( 11915 PWs)   bands (ev):

   -77.7210 -49.0531 -49.0079 -48.9420 -24.0858 -24.0051 -21.4505 -20.1609
   -13.6672 -11.1955 -10.7759 -10.7338  -9.7888  -9.6541  -9.3585  -8.9897
    -8.5956  -8.0596  -7.9206  -7.2244  -5.6680

     occupation numbers 
     1.0000   1.0000   1.0000   1.0000   1.0000   1.0000   1.0000   1.0000
     1.0000   1.0000   1.0000   1.0000   1.0000   1.0000   1.0000   1.0000
     1.0000   1.0000   1.0000   1.0000   1.0000

          k = 0.0909 0.2624 0.0000 ( 11890 PWs)   bands (ev):

   -77.7124 -49.1166 -49.0264 -48.9297 -23.5559 -23.4824 -21.0973 -19.9809
   -13.4624 -12.2359 -11.9457 -10.9582 -10.4281 -10.2003  -9.8446  -8.7819
    -8.6778  -8.3172  -8.0592  -7.4040  -6.0640

     occupation numbers 
     1.0000   1.0000   1.0000   1.0000   1.0000   1.0000   1.0000   1.0000
     1.0000   1.0000   1.0000   1.0000   1.0000   1.0000   1.0000   1.0000
     1.0000   1.0000   1.0000   1.0000   1.0000

          k = 0.0909 0.3674 0.0000 ( 11861 PWs)   bands (ev):

   -77.7029 -49.1849 -49.0467 -48.9164 -22.8413 -22.7772 -20.7134 -19.8082
   -14.0534 -13.6809 -12.3941 -11.0924 -10.8133 -10.6337 -10.3677  -9.2982
    -8.5379  -8.2589  -8.0235  -7.5738  -6.3051

     occupation numbers 
     1.0000   1.0000   1.0000   1.0000   1.0000   1.0000   1.0000   1.0000
     1.0000   1.0000   1.0000   1.0000   1.0000   1.0000   1.0000   1.0000
     1.0000   1.0000   1.0000   1.0000   1.0000

          k = 0.0909 0.4724 0.0000 ( 11834 PWs)   bands (ev):

   -77.6957 -49.2367 -49.0621 -48.9062 -22.1050 -22.0513 -20.4721 -19.7510
   -15.0654 -14.8045 -12.2285 -11.4937 -11.0676 -10.8235 -10.7257  -9.5086
    -8.7187  -8.1613  -7.8781  -7.5393  -6.2743

     occupation numbers 
     1.0000   1.0000   1.0000   1.0000   1.0000   1.0000   1.0000   1.0000
     1.0000   1.0000   1.0000   1.0000   1.0000   1.0000   1.0000   1.0000
     1.0000   1.0000   1.0000   1.0000   1.0000

          k = 0.0909 0.5774 0.0000 ( 11864 PWs)   bands (ev):

   -77.6931 -49.2559 -49.0679 -48.9024 -21.7374 -21.6884 -20.4364 -19.7857
   -15.4930 -15.2367 -12.1175 -11.6830 -11.1221 -11.0463 -10.8046  -9.4594
    -8.9119  -8.0340  -7.8135  -7.5099  -6.2060

     occupation numbers 
     1.0000   1.0000   1.0000   1.0000   1.0000   1.0000   1.0000   1.0000
     1.0000   1.0000   1.0000   1.0000   1.0000   1.0000   1.0000   1.0000
     1.0000   1.0000   1.0000   1.0000   1.0000

          k = 0.1818 0.3149 0.0000 ( 11882 PWs)   bands (ev):

   -77.7041 -49.1670 -49.0539 -48.9181 -22.9490 -22.8833 -20.7585 -19.8206
   -13.7380 -13.2342 -12.2830 -11.3449 -11.1865 -10.7080 -10.2132  -9.4341
    -8.5454  -8.2973  -7.8981  -7.6196  -6.3040

     occupation numbers 
     1.0000   1.0000   1.0000   1.0000   1.0000   1.0000   1.0000   1.0000
     1.0000   1.0000   1.0000   1.0000   1.0000   1.0000   1.0000   1.0000
     1.0000   1.0000   1.0000   1.0000   1.0000

          k = 0.1818 0.4199 0.0000 ( 11838 PWs)   bands (ev):

   -77.6965 -49.2094 -49.0827 -48.9073 -22.2361 -22.1798 -20.4774 -19.7180
   -14.5038 -14.2037 -12.2576 -12.0042 -11.8256 -10.6961 -10.5726  -9.8422
    -8.5506  -8.4183  -7.9790  -7.5816  -6.2916

     occupation numbers 
     1.0000   1.0000   1.0000   1.0000   1.0000   1.0000   1.0000   1.0000
     1.0000   1.0000   1.0000   1.0000   1.0000   1.0000   1.0000   1.0000
     1.0000   1.0000   1.0000   1.0000   1.0000

          k = 0.1818 0.5249 0.0000 ( 11836 PWs)   bands (ev):

   -77.6920 -49.2335 -49.1008 -48.9009 -21.6654 -21.6159 -20.3814 -19.7303
   -15.1114 -14.8482 -12.5173 -12.3404 -11.6321 -11.0722 -10.8418  -9.6486
    -8.9055  -8.5569  -7.9319  -7.4157  -6.1256

     occupation numbers 
     1.0000   1.0000   1.0000   1.0000   1.0000   1.0000   1.0000   1.0000
     1.0000   1.0000   1.0000   1.0000   1.0000   1.0000   1.0000   1.0000
     1.0000   1.0000   1.0000   1.0000   1.0000

          k = 0.2727 0.4724 0.0000 ( 11850 PWs)   bands (ev):

   -77.6916 -49.2143 -49.1240 -48.9004 -21.6528 -21.6029 -20.3520 -19.6963
   -14.7374 -14.4421 -13.1015 -12.9611 -11.6900 -10.8944 -10.6592  -9.8305
    -9.2097  -8.6266  -7.9490  -7.3963  -6.0918

     occupation numbers 
     1.0000   1.0000   1.0000   1.0000   1.0000   1.0000   1.0000   1.0000
     1.0000   1.0000   1.0000   1.0000   1.0000   1.0000   1.0000   1.0000
     1.0000   1.0000   1.0000   1.0000   1.0000

          k = 0.2727 0.5774 0.0000 ( 11810 PWs)   bands (ev):

   -77.6898 -49.2092 -49.1463 -48.8978 -21.3858 -21.3340 -20.3414 -19.7144
   -14.7735 -14.4693 -13.5264 -13.4268 -11.3969 -11.0650 -10.7282  -9.7887
    -9.3756  -8.9376  -7.8825  -7.2967  -5.9452

     occupation numbers 
     1.0000   1.0000   1.0000   1.0000   1.0000   1.0000   1.0000   1.0000
     1.0000   1.0000   1.0000   1.0000   1.0000   1.0000   1.0000   1.0000
     1.0000   1.0000   1.0000   1.0000   1.0000

          k =-0.0909 0.0525 0.0000 ( 11913 PWs)   bands (ev):

   -77.7261 -49.0144 -48.9976 -48.9492 -24.3637 -24.2791 -21.6548 -20.2688
   -13.8638 -11.2525  -9.9098  -9.8174  -9.3467  -9.3001  -9.1618  -9.0750
    -8.7386  -7.7737  -7.6650  -7.2361  -5.4181

     occupation numbers 
     1.0000   1.0000   1.0000   1.0000   1.0000   1.0000   1.0000   1.0000
     1.0000   1.0000   1.0000   1.0000   1.0000   1.0000   1.0000   1.0000
     1.0000   1.0000   1.0000   1.0000   1.0000

          k = 0.0909 0.0525 0.0000 ( 11913 PWs)   bands (ev):

   -77.7261 -49.0144 -48.9976 -48.9492 -24.3637 -24.2791 -21.6548 -20.2688
   -13.8638 -11.2525  -9.9098  -9.8174  -9.3467  -9.3001  -9.1618  -9.0750
    -8.7386  -7.7736  -7.6652  -7.2361  -5.4181

     occupation numbers 
     1.0000   1.0000   1.0000   1.0000   1.0000   1.0000   1.0000   1.0000
     1.0000   1.0000   1.0000   1.0000   1.0000   1.0000   1.0000   1.0000
     1.0000   1.0000   1.0000   1.0000   1.0000

          k =-0.1818 0.1050 0.0000 ( 11871 PWs)   bands (ev):

   -77.7186 -49.0725 -49.0108 -48.9386 -23.9501 -23.8713 -21.3555 -20.1118
   -13.5903 -11.3860 -11.2065 -11.0077  -9.6924  -9.6848  -9.6562  -8.9282
    -8.4829  -8.1690  -8.0078  -7.3256  -5.7890

     occupation numbers 
     1.0000   1.0000   1.0000   1.0000   1.0000   1.0000   1.0000   1.0000
     1.0000   1.0000   1.0000   1.0000   1.0000   1.0000   1.0000   1.0000
     1.0000   1.0000   1.0000   1.0000   1.0000

          k = 0.1818 0.1050 0.0000 ( 11871 PWs)   bands (ev):

   -77.7186 -49.0725 -49.0108 -48.9386 -23.9501 -23.8713 -21.3555 -20.1118
   -13.5903 -11.3860 -11.2065 -11.0077  -9.6924  -9.6848  -9.6562  -8.9282
    -8.4829  -8.1690  -8.0080  -7.3255  -5.7890

     occupation numbers 
     1.0000   1.0000   1.0000   1.0000   1.0000   1.0000   1.0000   1.0000
     1.0000   1.0000   1.0000   1.0000   1.0000   1.0000   1.0000   1.0000
     1.0000   1.0000   1.0000   1.0000   1.0000

          k =-0.2727 0.1575 0.0000 ( 11857 PWs)   bands (ev):

   -77.7088 -49.1480 -49.0280 -48.9248 -23.3072 -23.2370 -20.9522 -19.9138
   -13.6061 -12.9453 -12.3652 -10.9477 -10.3603 -10.0939 -10.0623  -8.7839
    -8.5884  -8.4067  -8.1027  -7.5178  -6.1819

     occupation numbers 
     1.0000   1.0000   1.0000   1.0000   1.0000   1.0000   1.0000   1.0000
     1.0000   1.0000   1.0000   1.0000   1.0000   1.0000   1.0000   1.0000
     1.0000   1.0000   1.0000   1.0000   1.0000

          k = 0.2727 0.1575 0.0000 ( 11857 PWs)   bands (ev):

   -77.7088 -49.1480 -49.0280 -48.9248 -23.3072 -23.2370 -20.9522 -19.9138
   -13.6061 -12.9453 -12.3653 -10.9477 -10.3604 -10.0939 -10.0623  -8.7839
    -8.5884  -8.4068  -8.1027  -7.5178  -6.1818

     occupation numbers 
     1.0000   1.0000   1.0000   1.0000   1.0000   1.0000   1.0000   1.0000
     1.0000   1.0000   1.0000   1.0000   1.0000   1.0000   1.0000   1.0000
     1.0000   1.0000   1.0000   1.0000   1.0000

          k =-0.3636 0.2099 0.0000 ( 11855 PWs)   bands (ev):

   -77.6998 -49.2167 -49.0438 -48.9120 -22.5382 -22.4784 -20.5998 -19.7795
   -14.6479 -14.3648 -12.3761 -11.1692 -10.7381 -10.4341 -10.3935  -9.1922
    -8.7194  -8.3544  -7.7345  -7.6104  -6.3118

     occupation numbers 
     1.0000   1.0000   1.0000   1.0000   1.0000   1.0000   1.0000   1.0000
     1.0000   1.0000   1.0000   1.0000   1.0000   1.0000   1.0000   1.0000
     1.0000   1.0000   1.0000   1.0000   1.0000

          k = 0.3636 0.2099 0.0000 ( 11855 PWs)   bands (ev):

   -77.6998 -49.2167 -49.0438 -48.9120 -22.5382 -22.4784 -20.5998 -19.7794
   -14.6479 -14.3648 -12.3761 -11.1692 -10.7381 -10.4341 -10.3935  -9.1922
    -8.7194  -8.3544  -7.7345  -7.6103  -6.3117

     occupation numbers 
     1.0000   1.0000   1.0000   1.0000   1.0000   1.0000   1.0000   1.0000
     1.0000   1.0000   1.0000   1.0000   1.0000   1.0000   1.0000   1.0000
     1.0000   1.0000   1.0000   1.0000   1.0000

          k =-0.4545 0.2624 0.0000 ( 11852 PWs)   bands (ev):

   -77.6945 -49.2573 -49.0532 -48.9044 -21.9041 -21.8539 -20.4647 -19.7905
   -15.4776 -15.2220 -12.1945 -11.5647 -10.8709 -10.6219 -10.5760  -9.3479
    -8.8924  -8.1044  -7.6325  -7.4966  -6.2698

     occupation numbers 
     1.0000   1.0000   1.0000   1.0000   1.0000   1.0000   1.0000   1.0000
     1.0000   1.0000   1.0000   1.0000   1.0000   1.0000   1.0000   1.0000
     1.0000   1.0000   1.0000   1.0000   1.0000

          k = 0.4545 0.2624 0.0000 ( 11852 PWs)   bands (ev):

   -77.6945 -49.2573 -49.0532 -48.9044 -21.9041 -21.8539 -20.4647 -19.7904
   -15.4776 -15.2220 -12.1945 -11.5647 -10.8710 -10.6219 -10.5760  -9.3479
    -8.8925  -8.1044  -7.6325  -7.4966  -6.2697

     occupation numbers 
     1.0000   1.0000   1.0000   1.0000   1.0000   1.0000   1.0000   1.0000
     1.0000   1.0000   1.0000   1.0000   1.0000   1.0000   1.0000   1.0000
     1.0000   1.0000   1.0000   1.0000   1.0000

          k =-0.0909 0.1575 0.0000 ( 11915 PWs)   bands (ev):

   -77.7210 -49.0531 -49.0079 -48.9420 -24.0858 -24.0051 -21.4505 -20.1609
   -13.6672 -11.1955 -10.7759 -10.7338  -9.7888  -9.6541  -9.3585  -8.9897
    -8.5956  -8.0595  -7.9207  -7.2244  -5.6680

     occupation numbers 
     1.0000   1.0000   1.0000   1.0000   1.0000   1.0000   1.0000   1.0000
     1.0000   1.0000   1.0000   1.0000   1.0000   1.0000   1.0000   1.0000
     1.0000   1.0000   1.0000   1.0000   1.0000

          k = 0.1818 0.0000 0.0000 ( 11915 PWs)   bands (ev):

   -77.7210 -49.0531 -49.0079 -48.9420 -24.0858 -24.0051 -21.4505 -20.1609
   -13.6672 -11.1955 -10.7759 -10.7338  -9.7888  -9.6541  -9.3585  -8.9897
    -8.5956  -8.0595  -7.9207  -7.2244  -5.6680

     occupation numbers 
     1.0000   1.0000   1.0000   1.0000   1.0000   1.0000   1.0000   1.0000
     1.0000   1.0000   1.0000   1.0000   1.0000   1.0000   1.0000   1.0000
     1.0000   1.0000   1.0000   1.0000   1.0000

          k =-0.0909 0.2624 0.0000 ( 11890 PWs)   bands (ev):

   -77.7124 -49.1166 -49.0264 -48.9297 -23.5559 -23.4824 -21.0973 -19.9809
   -13.4623 -12.2359 -11.9457 -10.9582 -10.4281 -10.2003  -9.8446  -8.7819
    -8.6777  -8.3172  -8.0593  -7.4040  -6.0640

     occupation numbers 
     1.0000   1.0000   1.0000   1.0000   1.0000   1.0000   1.0000   1.0000
     1.0000   1.0000   1.0000   1.0000   1.0000   1.0000   1.0000   1.0000
     1.0000   1.0000   1.0000   1.0000   1.0000

          k =-0.1818 0.2099 0.0000 ( 11890 PWs)   bands (ev):

   -77.7124 -49.1166 -49.0264 -48.9297 -23.5559 -23.4824 -21.0972 -19.9809
   -13.4623 -12.2359 -11.9457 -10.9582 -10.4281 -10.2003  -9.8446  -8.7819
    -8.6777  -8.3172  -8.0592  -7.4040  -6.0641

     occupation numbers 
     1.0000   1.0000   1.0000   1.0000   1.0000   1.0000   1.0000   1.0000
     1.0000   1.0000   1.0000   1.0000   1.0000   1.0000   1.0000   1.0000
     1.0000   1.0000   1.0000   1.0000   1.0000

          k = 0.2727 0.0525 0.0000 ( 11890 PWs)   bands (ev):

   -77.7124 -49.1166 -49.0264 -48.9297 -23.5559 -23.4824 -21.0973 -19.9809
   -13.4623 -12.2359 -11.9457 -10.9582 -10.4281 -10.2003  -9.8446  -8.7819
    -8.6777  -8.3172  -8.0593  -7.4040  -6.0640

     occupation numbers 
     1.0000   1.0000   1.0000   1.0000   1.0000   1.0000   1.0000   1.0000
     1.0000   1.0000   1.0000   1.0000   1.0000   1.0000   1.0000   1.0000
     1.0000   1.0000   1.0000   1.0000   1.0000

          k =-0.1818-0.2099 0.0000 ( 11890 PWs)   bands (ev):

   -77.7124 -49.1166 -49.0264 -48.9297 -23.5559 -23.4824 -21.0973 -19.9809
   -13.4623 -12.2359 -11.9457 -10.9582 -10.4281 -10.2003  -9.8446  -8.7819
    -8.6778  -8.3172  -8.0592  -7.4040  -6.0640

     occupation numbers 
     1.0000   1.0000   1.0000   1.0000   1.0000   1.0000   1.0000   1.0000
     1.0000   1.0000   1.0000   1.0000   1.0000   1.0000   1.0000   1.0000
     1.0000   1.0000   1.0000   1.0000   1.0000

          k = 0.2727-0.0525 0.0000 ( 11890 PWs)   bands (ev):

   -77.7124 -49.1166 -49.0264 -48.9297 -23.5559 -23.4824 -21.0972 -19.9809
   -13.4623 -12.2359 -11.9457 -10.9582 -10.4281 -10.2003  -9.8446  -8.7819
    -8.6777  -8.3172  -8.0592  -7.4040  -6.0641

     occupation numbers 
     1.0000   1.0000   1.0000   1.0000   1.0000   1.0000   1.0000   1.0000
     1.0000   1.0000   1.0000   1.0000   1.0000   1.0000   1.0000   1.0000
     1.0000   1.0000   1.0000   1.0000   1.0000

          k =-0.0909 0.3674 0.0000 ( 11861 PWs)   bands (ev):

   -77.7029 -49.1849 -49.0467 -48.9164 -22.8413 -22.7772 -20.7134 -19.8082
   -14.0534 -13.6809 -12.3941 -11.0924 -10.8132 -10.6337 -10.3677  -9.2982
    -8.5379  -8.2590  -8.0234  -7.5738  -6.3051

     occupation numbers 
     1.0000   1.0000   1.0000   1.0000   1.0000   1.0000   1.0000   1.0000
     1.0000   1.0000   1.0000   1.0000   1.0000   1.0000   1.0000   1.0000
     1.0000   1.0000   1.0000   1.0000   1.0000

          k =-0.2727 0.2624 0.0000 ( 11861 PWs)   bands (ev):

   -77.7029 -49.1849 -49.0467 -48.9164 -22.8413 -22.7772 -20.7134 -19.8083
   -14.0534 -13.6809 -12.3941 -11.0924 -10.8132 -10.6337 -10.3676  -9.2981
    -8.5378  -8.2589  -8.0234  -7.5739  -6.3052

     occupation numbers 
     1.0000   1.0000   1.0000   1.0000   1.0000   1.0000   1.0000   1.0000
     1.0000   1.0000   1.0000   1.0000   1.0000   1.0000   1.0000   1.0000
     1.0000   1.0000   1.0000   1.0000   1.0000

          k = 0.3636 0.1050 0.0000 ( 11861 PWs)   bands (ev):

   -77.7029 -49.1849 -49.0467 -48.9164 -22.8413 -22.7772 -20.7134 -19.8082
   -14.0534 -13.6809 -12.3941 -11.0924 -10.8132 -10.6337 -10.3677  -9.2982
    -8.5379  -8.2590  -8.0234  -7.5738  -6.3051

     occupation numbers 
     1.0000   1.0000   1.0000   1.0000   1.0000   1.0000   1.0000   1.0000
     1.0000   1.0000   1.0000   1.0000   1.0000   1.0000   1.0000   1.0000
     1.0000   1.0000   1.0000   1.0000   1.0000

          k =-0.2727-0.2624 0.0000 ( 11861 PWs)   bands (ev):

   -77.7029 -49.1849 -49.0467 -48.9164 -22.8413 -22.7772 -20.7134 -19.8082
   -14.0534 -13.6809 -12.3941 -11.0924 -10.8132 -10.6337 -10.3677  -9.2982
    -8.5379  -8.2589  -8.0235  -7.5739  -6.3051

     occupation numbers 
     1.0000   1.0000   1.0000   1.0000   1.0000   1.0000   1.0000   1.0000
     1.0000   1.0000   1.0000   1.0000   1.0000   1.0000   1.0000   1.0000
     1.0000   1.0000   1.0000   1.0000   1.0000

          k = 0.3636-0.1050 0.0000 ( 11861 PWs)   bands (ev):

   -77.7029 -49.1849 -49.0467 -48.9164 -22.8413 -22.7772 -20.7134 -19.8083
   -14.0534 -13.6809 -12.3941 -11.0924 -10.8132 -10.6337 -10.3676  -9.2981
    -8.5378  -8.2589  -8.0234  -7.5739  -6.3052

     occupation numbers 
     1.0000   1.0000   1.0000   1.0000   1.0000   1.0000   1.0000   1.0000
     1.0000   1.0000   1.0000   1.0000   1.0000   1.0000   1.0000   1.0000
     1.0000   1.0000   1.0000   1.0000   1.0000

          k =-0.0909 0.4724 0.0000 ( 11834 PWs)   bands (ev):

   -77.6957 -49.2367 -49.0621 -48.9062 -22.1050 -22.0513 -20.4721 -19.7510
   -15.0654 -14.8045 -12.2285 -11.4937 -11.0676 -10.8235 -10.7257  -9.5086
    -8.7187  -8.1613  -7.8780  -7.5393  -6.2743

     occupation numbers 
     1.0000   1.0000   1.0000   1.0000   1.0000   1.0000   1.0000   1.0000
     1.0000   1.0000   1.0000   1.0000   1.0000   1.0000   1.0000   1.0000
     1.0000   1.0000   1.0000   1.0000   1.0000

          k =-0.3636 0.3149 0.0000 ( 11834 PWs)   bands (ev):

   -77.6957 -49.2367 -49.0621 -48.9062 -22.1050 -22.0513 -20.4721 -19.7510
   -15.0654 -14.8045 -12.2285 -11.4937 -11.0676 -10.8235 -10.7257  -9.5086
    -8.7186  -8.1613  -7.8781  -7.5393  -6.2744

     occupation numbers 
     1.0000   1.0000   1.0000   1.0000   1.0000   1.0000   1.0000   1.0000
     1.0000   1.0000   1.0000   1.0000   1.0000   1.0000   1.0000   1.0000
     1.0000   1.0000   1.0000   1.0000   1.0000

          k = 0.4545 0.1575 0.0000 ( 11834 PWs)   bands (ev):

   -77.6957 -49.2367 -49.0621 -48.9062 -22.1050 -22.0513 -20.4721 -19.7510
   -15.0654 -14.8045 -12.2285 -11.4937 -11.0676 -10.8235 -10.7257  -9.5086
    -8.7187  -8.1613  -7.8780  -7.5393  -6.2743

     occupation numbers 
     1.0000   1.0000   1.0000   1.0000   1.0000   1.0000   1.0000   1.0000
     1.0000   1.0000   1.0000   1.0000   1.0000   1.0000   1.0000   1.0000
     1.0000   1.0000   1.0000   1.0000   1.0000

          k =-0.3636-0.3149 0.0000 ( 11834 PWs)   bands (ev):

   -77.6957 -49.2367 -49.0621 -48.9062 -22.1050 -22.0513 -20.4721 -19.7510
   -15.0654 -14.8045 -12.2285 -11.4937 -11.0676 -10.8235 -10.7257  -9.5086
    -8.7187  -8.1613  -7.8781  -7.5393  -6.2743

     occupation numbers 
     1.0000   1.0000   1.0000   1.0000   1.0000   1.0000   1.0000   1.0000
     1.0000   1.0000   1.0000   1.0000   1.0000   1.0000   1.0000   1.0000
     1.0000   1.0000   1.0000   1.0000   1.0000

          k = 0.4545-0.1575 0.0000 ( 11834 PWs)   bands (ev):

   -77.6957 -49.2367 -49.0621 -48.9062 -22.1050 -22.0513 -20.4721 -19.7510
   -15.0654 -14.8045 -12.2285 -11.4937 -11.0676 -10.8235 -10.7257  -9.5086
    -8.7186  -8.1613  -7.8781  -7.5393  -6.2744

     occupation numbers 
     1.0000   1.0000   1.0000   1.0000   1.0000   1.0000   1.0000   1.0000
     1.0000   1.0000   1.0000   1.0000   1.0000   1.0000   1.0000   1.0000
     1.0000   1.0000   1.0000   1.0000   1.0000

          k =-0.4545 0.3674 0.0000 ( 11864 PWs)   bands (ev):

   -77.6931 -49.2559 -49.0679 -48.9024 -21.7374 -21.6884 -20.4363 -19.7858
   -15.4930 -15.2368 -12.1175 -11.6830 -11.1221 -11.0463 -10.8046  -9.4594
    -8.9119  -8.0340  -7.8135  -7.5099  -6.2061

     occupation numbers 
     1.0000   1.0000   1.0000   1.0000   1.0000   1.0000   1.0000   1.0000
     1.0000   1.0000   1.0000   1.0000   1.0000   1.0000   1.0000   1.0000
     1.0000   1.0000   1.0000   1.0000   1.0000

          k = 0.5455 0.2099 0.0000 ( 11864 PWs)   bands (ev):

   -77.6931 -49.2559 -49.0679 -48.9024 -21.7374 -21.6884 -20.4363 -19.7857
   -15.4930 -15.2368 -12.1175 -11.6830 -11.1221 -11.0463 -10.8046  -9.4594
    -8.9119  -8.0340  -7.8135  -7.5099  -6.2060

     occupation numbers 
     1.0000   1.0000   1.0000   1.0000   1.0000   1.0000   1.0000   1.0000
     1.0000   1.0000   1.0000   1.0000   1.0000   1.0000   1.0000   1.0000
     1.0000   1.0000   1.0000   1.0000   1.0000

          k =-0.1818 0.3149 0.0000 ( 11882 PWs)   bands (ev):

   -77.7041 -49.1670 -49.0539 -48.9181 -22.9490 -22.8833 -20.7584 -19.8206
   -13.7380 -13.2342 -12.2830 -11.3449 -11.1865 -10.7080 -10.2132  -9.4340
    -8.5454  -8.2973  -7.8981  -7.6196  -6.3041

     occupation numbers 
     1.0000   1.0000   1.0000   1.0000   1.0000   1.0000   1.0000   1.0000
     1.0000   1.0000   1.0000   1.0000   1.0000   1.0000   1.0000   1.0000
     1.0000   1.0000   1.0000   1.0000   1.0000

          k = 0.3636 0.0000 0.0000 ( 11882 PWs)   bands (ev):

   -77.7041 -49.1670 -49.0539 -48.9181 -22.9490 -22.8833 -20.7584 -19.8206
   -13.7380 -13.2342 -12.2830 -11.3449 -11.1865 -10.7080 -10.2132  -9.4340
    -8.5454  -8.2973  -7.8981  -7.6195  -6.3041

     occupation numbers 
     1.0000   1.0000   1.0000   1.0000   1.0000   1.0000   1.0000   1.0000
     1.0000   1.0000   1.0000   1.0000   1.0000   1.0000   1.0000   1.0000
     1.0000   1.0000   1.0000   1.0000   1.0000

          k =-0.1818 0.4199 0.0000 ( 11838 PWs)   bands (ev):

   -77.6965 -49.2094 -49.0827 -48.9073 -22.2361 -22.1798 -20.4774 -19.7180
   -14.5038 -14.2037 -12.2576 -12.0042 -11.8256 -10.6961 -10.5726  -9.8422
    -8.5506  -8.4183  -7.9790  -7.5816  -6.2916

     occupation numbers 
     1.0000   1.0000   1.0000   1.0000   1.0000   1.0000   1.0000   1.0000
     1.0000   1.0000   1.0000   1.0000   1.0000   1.0000   1.0000   1.0000
     1.0000   1.0000   1.0000   1.0000   1.0000

          k =-0.2727 0.3674 0.0000 ( 11838 PWs)   bands (ev):

   -77.6965 -49.2094 -49.0827 -48.9073 -22.2361 -22.1798 -20.4774 -19.7180
   -14.5038 -14.2037 -12.2576 -12.0042 -11.8256 -10.6961 -10.5726  -9.8422
    -8.5506  -8.4183  -7.9790  -7.5816  -6.2917

     occupation numbers 
     1.0000   1.0000   1.0000   1.0000   1.0000   1.0000   1.0000   1.0000
     1.0000   1.0000   1.0000   1.0000   1.0000   1.0000   1.0000   1.0000
     1.0000   1.0000   1.0000   1.0000   1.0000

          k = 0.4545 0.0525 0.0000 ( 11838 PWs)   bands (ev):

   -77.6965 -49.2094 -49.0827 -48.9073 -22.2361 -22.1798 -20.4774 -19.7180
   -14.5038 -14.2037 -12.2577 -12.0042 -11.8256 -10.6961 -10.5726  -9.8423
    -8.5506  -8.4183  -7.9790  -7.5815  -6.2916

     occupation numbers 
     1.0000   1.0000   1.0000   1.0000   1.0000   1.0000   1.0000   1.0000
     1.0000   1.0000   1.0000   1.0000   1.0000   1.0000   1.0000   1.0000
     1.0000   1.0000   1.0000   1.0000   1.0000

          k =-0.2727-0.3674 0.0000 ( 11838 PWs)   bands (ev):

   -77.6965 -49.2094 -49.0827 -48.9073 -22.2361 -22.1798 -20.4774 -19.7180
   -14.5038 -14.2037 -12.2577 -12.0042 -11.8256 -10.6961 -10.5726  -9.8423
    -8.5506  -8.4183  -7.9790  -7.5816  -6.2916

     occupation numbers 
     1.0000   1.0000   1.0000   1.0000   1.0000   1.0000   1.0000   1.0000
     1.0000   1.0000   1.0000   1.0000   1.0000   1.0000   1.0000   1.0000
     1.0000   1.0000   1.0000   1.0000   1.0000

          k = 0.4545-0.0525 0.0000 ( 11838 PWs)   bands (ev):

   -77.6965 -49.2094 -49.0827 -48.9073 -22.2361 -22.1798 -20.4774 -19.7180
   -14.5038 -14.2037 -12.2577 -12.0042 -11.8256 -10.6961 -10.5726  -9.8422
    -8.5506  -8.4183  -7.9790  -7.5816  -6.2917

     occupation numbers 
     1.0000   1.0000   1.0000   1.0000   1.0000   1.0000   1.0000   1.0000
     1.0000   1.0000   1.0000   1.0000   1.0000   1.0000   1.0000   1.0000
     1.0000   1.0000   1.0000   1.0000   1.0000

          k =-0.1818 0.5249 0.0000 ( 11836 PWs)   bands (ev):

   -77.6920 -49.2335 -49.1008 -48.9009 -21.6654 -21.6159 -20.3814 -19.7303
   -15.1114 -14.8482 -12.5173 -12.3404 -11.6321 -11.0722 -10.8418  -9.6486
    -8.9055  -8.5569  -7.9319  -7.4157  -6.1256

     occupation numbers 
     1.0000   1.0000   1.0000   1.0000   1.0000   1.0000   1.0000   1.0000
     1.0000   1.0000   1.0000   1.0000   1.0000   1.0000   1.0000   1.0000
     1.0000   1.0000   1.0000   1.0000   1.0000

          k =-0.3636 0.4199 0.0000 ( 11836 PWs)   bands (ev):

   -77.6920 -49.2335 -49.1008 -48.9009 -21.6654 -21.6159 -20.3814 -19.7303
   -15.1114 -14.8483 -12.5173 -12.3404 -11.6321 -11.0721 -10.8418  -9.6486
    -8.9055  -8.5569  -7.9319  -7.4157  -6.1256

     occupation numbers 
     1.0000   1.0000   1.0000   1.0000   1.0000   1.0000   1.0000   1.0000
     1.0000   1.0000   1.0000   1.0000   1.0000   1.0000   1.0000   1.0000
     1.0000   1.0000   1.0000   1.0000   1.0000

          k = 0.5455 0.1050 0.0000 ( 11836 PWs)   bands (ev):

   -77.6920 -49.2335 -49.1008 -48.9009 -21.6654 -21.6159 -20.3814 -19.7303
   -15.1114 -14.8483 -12.5173 -12.3404 -11.6321 -11.0722 -10.8418  -9.6486
    -8.9055  -8.5569  -7.9319  -7.4157  -6.1256

     occupation numbers 
     1.0000   1.0000   1.0000   1.0000   1.0000   1.0000   1.0000   1.0000
     1.0000   1.0000   1.0000   1.0000   1.0000   1.0000   1.0000   1.0000
     1.0000   1.0000   1.0000   1.0000   1.0000

          k =-0.3636-0.4199 0.0000 ( 11836 PWs)   bands (ev):

   -77.6920 -49.2335 -49.1008 -48.9009 -21.6654 -21.6159 -20.3814 -19.7303
   -15.1114 -14.8483 -12.5173 -12.3404 -11.6321 -11.0722 -10.8418  -9.6486
    -8.9055  -8.5569  -7.9319  -7.4157  -6.1256

     occupation numbers 
     1.0000   1.0000   1.0000   1.0000   1.0000   1.0000   1.0000   1.0000
     1.0000   1.0000   1.0000   1.0000   1.0000   1.0000   1.0000   1.0000
     1.0000   1.0000   1.0000   1.0000   1.0000

          k = 0.5455-0.1050 0.0000 ( 11836 PWs)   bands (ev):

   -77.6920 -49.2335 -49.1008 -48.9009 -21.6654 -21.6159 -20.3814 -19.7303
   -15.1114 -14.8483 -12.5173 -12.3404 -11.6321 -11.0721 -10.8418  -9.6486
    -8.9055  -8.5569  -7.9319  -7.4157  -6.1256

     occupation numbers 
     1.0000   1.0000   1.0000   1.0000   1.0000   1.0000   1.0000   1.0000
     1.0000   1.0000   1.0000   1.0000   1.0000   1.0000   1.0000   1.0000
     1.0000   1.0000   1.0000   1.0000   1.0000

          k =-0.2727 0.4724 0.0000 ( 11850 PWs)   bands (ev):

   -77.6916 -49.2143 -49.1240 -48.9004 -21.6528 -21.6029 -20.3520 -19.6964
   -14.7374 -14.4421 -13.1015 -12.9611 -11.6900 -10.8944 -10.6592  -9.8305
    -9.2097  -8.6266  -7.9491  -7.3963  -6.0918

     occupation numbers 
     1.0000   1.0000   1.0000   1.0000   1.0000   1.0000   1.0000   1.0000
     1.0000   1.0000   1.0000   1.0000   1.0000   1.0000   1.0000   1.0000
     1.0000   1.0000   1.0000   1.0000   1.0000

          k = 0.5455-0.0000 0.0000 ( 11850 PWs)   bands (ev):

   -77.6916 -49.2143 -49.1240 -48.9004 -21.6528 -21.6029 -20.3520 -19.6964
   -14.7374 -14.4421 -13.1015 -12.9611 -11.6900 -10.8944 -10.6592  -9.8305
    -9.2097  -8.6266  -7.9491  -7.3963  -6.0918

     occupation numbers 
     1.0000   1.0000   1.0000   1.0000   1.0000   1.0000   1.0000   1.0000
     1.0000   1.0000   1.0000   1.0000   1.0000   1.0000   1.0000   1.0000
     1.0000   1.0000   1.0000   1.0000   1.0000

          k =-0.3636 0.5249 0.0000 ( 11810 PWs)   bands (ev):

   -77.6898 -49.2092 -49.1463 -48.8978 -21.3858 -21.3340 -20.3414 -19.7144
   -14.7735 -14.4693 -13.5264 -13.4268 -11.3969 -11.0650 -10.7282  -9.7887
    -9.3756  -8.9377  -7.8825  -7.2967  -5.9452

     occupation numbers 
     1.0000   1.0000   1.0000   1.0000   1.0000   1.0000   1.0000   1.0000
     1.0000   1.0000   1.0000   1.0000   1.0000   1.0000   1.0000   1.0000
     1.0000   1.0000   1.0000   1.0000   1.0000

          k = 0.6364 0.0525 0.0000 ( 11810 PWs)   bands (ev):

   -77.6898 -49.2092 -49.1463 -48.8978 -21.3858 -21.3340 -20.3414 -19.7144
   -14.7735 -14.4693 -13.5264 -13.4268 -11.3969 -11.0650 -10.7282  -9.7887
    -9.3756  -8.9376  -7.8825  -7.2967  -5.9452

     occupation numbers 
     1.0000   1.0000   1.0000   1.0000   1.0000   1.0000   1.0000   1.0000
     1.0000   1.0000   1.0000   1.0000   1.0000   1.0000   1.0000   1.0000
     1.0000   1.0000   1.0000   1.0000   1.0000

     highest occupied level (ev):    -5.3089

!    total energy              =    -278.34203946 Ry
     estimated scf accuracy    <          9.3E-11 Ry

     The total energy is the sum of the following terms:
     one-electron contribution =   -4526.15548759 Ry
     hartree contribution      =    2261.13968430 Ry
     xc contribution           =     -57.49290965 Ry
     ewald contribution        =    2044.16667348 Ry

     convergence has been achieved in  25 iterations

     Writing all to output data dir ./tmp/crsi2n4.save/ :
     XML data file, charge density, pseudopotentials, collected wavefunctions

     init_run     :      4.46s CPU      4.67s WALL (       1 calls)
     electrons    :    225.08s CPU    231.41s WALL (       1 calls)

     Called by init_run:
     wfcinit      :      4.09s CPU      4.29s WALL (       1 calls)
     wfcinit:atom :      0.05s CPU      0.07s WALL (      61 calls)
     wfcinit:wfcr :      3.71s CPU      3.86s WALL (      61 calls)
     potinit      :      0.14s CPU      0.14s WALL (       1 calls)
     hinit0       :      0.19s CPU      0.20s WALL (       1 calls)

     Called by electrons:
     c_bands      :    210.67s CPU    216.04s WALL (      25 calls)
     sum_band     :     13.44s CPU     14.35s WALL (      25 calls)
     v_of_rho     :      0.74s CPU      0.78s WALL (      26 calls)
     v_h          :      0.05s CPU      0.05s WALL (      26 calls)
     v_xc         :      0.69s CPU      0.73s WALL (      26 calls)
     mix_rho      :      0.17s CPU      0.18s WALL (      25 calls)

     Called by c_bands:
     init_us_2    :      4.90s CPU      4.99s WALL (    3111 calls)
     cegterg      :    200.12s CPU    205.44s WALL (    1525 calls)

     Called by sum_band:
     sum_band:wei :      0.00s CPU      0.00s WALL (      25 calls)
     sum_band:loo :     13.40s CPU     14.30s WALL (      25 calls)
     sum_band:buf :      0.27s CPU      0.29s WALL (    1525 calls)
     sum_band:ini :      2.50s CPU      2.53s WALL (    1525 calls)

     Called by *egterg:
     cdiaghg      :      4.70s CPU      4.72s WALL (    9439 calls)
     cegterg:over :     19.74s CPU     19.82s WALL (    7914 calls)
     cegterg:upda :     13.44s CPU     13.48s WALL (    7914 calls)
     cegterg:last :     24.36s CPU     24.38s WALL (    3850 calls)
     h_psi        :    132.61s CPU    137.89s WALL (    9500 calls)
     g_psi        :      0.56s CPU      0.57s WALL (    7914 calls)

     Called by h_psi:
     h_psi:calbec :     38.36s CPU     38.82s WALL (    9500 calls)
     vloc_psi     :     57.09s CPU     61.83s WALL (    9500 calls)
     add_vuspsi   :     36.45s CPU     36.49s WALL (    9500 calls)

     General routines
     calbec       :     38.34s CPU     38.80s WALL (    9500 calls)
     fft          :      0.52s CPU      0.55s WALL (     310 calls)
     ffts         :      0.11s CPU      0.12s WALL (      51 calls)
     fftw         :     54.08s CPU     58.59s WALL (  222213 calls)
     interpolate  :      0.14s CPU      0.14s WALL (      26 calls)

     Parallel routines

     PWSCF        :   3m49.70s CPU   3m56.36s WALL


   This run was terminated on:  21:50:20   4Jan2026            

=------------------------------------------------------------------------------=
   JOB DONE.
=------------------------------------------------------------------------------=
