
     Program PWSCF v.7.3.1 starts on 20Apr2025 at 18:32:53 

     This program is part of the open-source Quantum ESPRESSO suite
     for quantum simulation of materials; please cite
         "P. Giannozzi et al., J. Phys.:Condens. Matter 21 395502 (2009);
         "P. Giannozzi et al., J. Phys.:Condens. Matter 29 465901 (2017);
         "P. Giannozzi et al., J. Chem. Phys. 152 154105 (2020);
          URL http://www.quantum-espresso.org", 
     in publications or presentations arising from this work. More details at
     http://www.quantum-espresso.org/quote

     Parallel version (MPI), running on     8 processors

     MPI processes distributed on     1 nodes
     28581 MiB available memory on the printing compute node when the environment starts

     Waiting for input...
     Reading input from standard input

     Current dimensions of program PWSCF are:
     Max number of different atomic species (ntypx) = 10
     Max number of k-points (npk) =  40000
     Max angular momentum in pseudopotentials (lmaxx) =  4

     IMPORTANT: XC functional enforced from input :
     Exchange-correlation= VDW-DF
                           (   1   4   4   0   1   0   0)
     Any further DFT definition will be discarded
     Please, verify this is what you really want


     R & G space division:  proc/nbgrp/npool/nimage =       8
     Subspace diagonalization in iterative solution of the eigenvalue problem:
     a serial algorithm will be used


     Parallelization info
     --------------------
     sticks:   dense  smooth     PW     G-vecs:    dense   smooth      PW
     Min          82      82     24                12284    12284    1944
     Max          83      83     25                12302    12302    1961
     Sum         661     661    199                98371    98371   15631

     Using Slab Decomposition



     bravais-lattice index     =            4
     lattice parameter (alat)  =       5.4709  a.u.
     unit-cell volume          =    1017.1946 (a.u.)^3
     number of atoms/cell      =            7
     number of atomic types    =            3
     number of electrons       =        42.00
     number of Kohn-Sham states=           25
     kinetic-energy cutoff     =      80.0000  Ry
     charge density cutoff     =     320.0000  Ry
     scf convergence threshold =      1.0E-06
     mixing beta               =       0.4000
     number of iterations used =            8  plain     mixing
     Exchange-correlation= VDW-DF
                           (   1   4   4   0   1   0   0)

     celldm(1)=   5.470908  celldm(2)=   0.000000  celldm(3)=   7.172907
     celldm(4)=   0.000000  celldm(5)=   0.000000  celldm(6)=   0.000000

     crystal axes: (cart. coord. in units of alat)
               a(1) = (   1.000000   0.000000   0.000000 )  
               a(2) = (  -0.500000   0.866025   0.000000 )  
               a(3) = (   0.000000   0.000000   7.172907 )  

     reciprocal axes: (cart. coord. in units 2 pi/alat)
               b(1) = (  1.000000  0.577350 -0.000000 )  
               b(2) = (  0.000000  1.154701  0.000000 )  
               b(3) = (  0.000000 -0.000000  0.139413 )  


     PseudoPot. # 1 for Cr read from file:
     ./../../pseudo/ONCVPSP/abinit/Cr_ONCV_PBE_sr.upf
     MD5 check sum: 3baa404e46b6888915b3a385d4a3464a
     Pseudo is Norm-conserving + core correction, Zval = 14.0
     Generated using ONCVPSP code by D. R. Hamann
     Using radial grid of 1638 points,  6 beta functions with: 
                l(1) =   0
                l(2) =   0
                l(3) =   1
                l(4) =   1
                l(5) =   2
                l(6) =   2

     PseudoPot. # 2 for Si read from file:
     ./../../pseudo/ONCVPSP/abinit/Si_ONCV_PBE_sr.upf
     MD5 check sum: e543d271109d17c80368dfa7c482276d
     Pseudo is Norm-conserving + core correction, Zval =  4.0
     Generated using ONCVPSP code by D. R. Hamann
     Using radial grid of 1510 points,  6 beta functions with: 
                l(1) =   0
                l(2) =   0
                l(3) =   1
                l(4) =   1
                l(5) =   2
                l(6) =   2

     PseudoPot. # 3 for N  read from file:
     ./../../pseudo/ONCVPSP/abinit/N_ONCV_PBE_sr.upf
     MD5 check sum: 18c6af81dac9c5a2d6d52ed11cf7bfee
     Pseudo is Norm-conserving + core correction, Zval =  5.0
     Generated using ONCVPSP code by D. R. Hamann
     Using radial grid of 1058 points,  4 beta functions with: 
                l(1) =   0
                l(2) =   0
                l(3) =   1
                l(4) =   1

     atomic species   valence    mass     pseudopotential
     Cr               14.00    51.99600     Cr( 1.00)
     Si                4.00    28.08600     Si( 1.00)
     N                 5.00    14.00700     N ( 1.00)

     No symmetry found


                                    s                        frac. trans.

      isym =  1     identity                                     

 cryst.   s( 1) = (     1          0          0      )
                  (     0          1          0      )
                  (     0          0          1      )

 cart.    s( 1) = (  1.0000000  0.0000000  0.0000000 )
                  (  0.0000000  1.0000000  0.0000000 )
                  (  0.0000000  0.0000000  1.0000000 )


     point group C_1 (1)    
     there are  1 classes
     the character table:

       E    
A      1.00

     the symmetry operations in each class and the name of the first element:

     E        1
          identity                                               

   Cartesian axes

     site n.     atom                  positions (alat units)
         1        Cr     tau(   1) = (   0.2857152   0.9897320   3.0686941  )
         2        N      tau(   2) = (   0.2857126   0.4123858   2.6625749  )
         3        N      tau(   3) = (   0.2857136   0.4123803   3.4797974  )
         4        N      tau(   4) = (  -0.2142912   0.1236993   4.2861802  )
         5        N      tau(   5) = (   0.7857038   0.7010739   1.8632682  )
         6        Si     tau(   6) = (   0.2857044   0.4123980   2.0481846  )
         7        Si     tau(   7) = (   0.2857085   0.4123752   4.0982868  )

   Crystallographic axes

     site n.     atom                  positions (cryst. coord.)
         1        Cr     tau(   1) = (  0.8571373  1.1428441  0.4278174  )
         2        N      tau(   2) = (  0.5238037  0.4761821  0.3711989  )
         3        N      tau(   3) = (  0.5238014  0.4761757  0.4851307  )
         4        N      tau(   4) = ( -0.1428733  0.1428356  0.5975513  )
         5        N      tau(   5) = (  1.1904690  0.8095305  0.2597647  )
         6        Si     tau(   6) = (  0.5238025  0.4761962  0.2855446  )
         7        Si     tau(   7) = (  0.5237935  0.4761698  0.5713565  )

     number of k points=    34  Gaussian smearing, width (Ry)=  0.0100
                       cart. coord. in units 2pi/alat
        k(    1) = (   0.0000000   0.0000000   0.0000000), wk =   0.0312500
        k(    2) = (   0.0000000   0.1443376   0.0000000), wk =   0.0625000
        k(    3) = (   0.0000000   0.2886751   0.0000000), wk =   0.0625000
        k(    4) = (   0.0000000   0.4330127   0.0000000), wk =   0.0625000
        k(    5) = (   0.0000000  -0.5773503   0.0000000), wk =   0.0312500
        k(    6) = (   0.1250000   0.2165064   0.0000000), wk =   0.0625000
        k(    7) = (   0.1250000   0.3608439   0.0000000), wk =   0.0625000
        k(    8) = (   0.1250000   0.5051815   0.0000000), wk =   0.0625000
        k(    9) = (   0.2500000   0.4330127   0.0000000), wk =   0.0625000
        k(   10) = (   0.2500000   0.5773503   0.0000000), wk =   0.0625000
        k(   11) = (  -0.1250000   0.0721688   0.0000000), wk =   0.0625000
        k(   12) = (   0.1250000   0.0721688   0.0000000), wk =   0.0625000
        k(   13) = (  -0.2500000   0.1443376   0.0000000), wk =   0.0625000
        k(   14) = (   0.2500000   0.1443376   0.0000000), wk =   0.0625000
        k(   15) = (  -0.3750000   0.2165064   0.0000000), wk =   0.0625000
        k(   16) = (   0.3750000   0.2165064   0.0000000), wk =   0.0625000
        k(   17) = (   0.5000000  -0.2886751   0.0000000), wk =   0.0312500
        k(   18) = (  -0.5000000  -0.2886751   0.0000000), wk =   0.0312500
        k(   19) = (  -0.1250000   0.2165064   0.0000000), wk =   0.0625000
        k(   20) = (   0.2500000   0.0000000   0.0000000), wk =   0.0625000
        k(   21) = (  -0.1250000   0.3608439   0.0000000), wk =   0.0625000
        k(   22) = (  -0.2500000   0.2886751   0.0000000), wk =   0.0625000
        k(   23) = (   0.3750000   0.0721688   0.0000000), wk =   0.0625000
        k(   24) = (  -0.2500000  -0.2886751   0.0000000), wk =   0.0625000
        k(   25) = (   0.3750000  -0.0721688   0.0000000), wk =   0.0625000
        k(   26) = (  -0.1250000   0.5051815   0.0000000), wk =   0.0625000
        k(   27) = (  -0.3750000   0.3608439   0.0000000), wk =   0.0625000
        k(   28) = (   0.5000000   0.1443376   0.0000000), wk =   0.0625000
        k(   29) = (  -0.3750000  -0.3608439   0.0000000), wk =   0.0625000
        k(   30) = (   0.5000000  -0.1443376   0.0000000), wk =   0.0625000
        k(   31) = (  -0.2500000   0.4330127   0.0000000), wk =   0.0625000
        k(   32) = (   0.5000000   0.0000000   0.0000000), wk =   0.0625000
        k(   33) = (  -0.3750000   0.5051815   0.0000000), wk =   0.0625000
        k(   34) = (   0.6250000   0.0721688   0.0000000), wk =   0.0625000

                       cryst. coord.
        k(    1) = (   0.0000000   0.0000000   0.0000000), wk =   0.0312500
        k(    2) = (   0.0000000   0.1250000   0.0000000), wk =   0.0625000
        k(    3) = (   0.0000000   0.2500000   0.0000000), wk =   0.0625000
        k(    4) = (   0.0000000   0.3750000   0.0000000), wk =   0.0625000
        k(    5) = (   0.0000000  -0.5000000   0.0000000), wk =   0.0312500
        k(    6) = (   0.1250000   0.1250000   0.0000000), wk =   0.0625000
        k(    7) = (   0.1250000   0.2500000   0.0000000), wk =   0.0625000
        k(    8) = (   0.1250000   0.3750000   0.0000000), wk =   0.0625000
        k(    9) = (   0.2500000   0.2500000   0.0000000), wk =   0.0625000
        k(   10) = (   0.2500000   0.3750000   0.0000000), wk =   0.0625000
        k(   11) = (  -0.1250000   0.1250000   0.0000000), wk =   0.0625000
        k(   12) = (   0.1250000   0.0000000   0.0000000), wk =   0.0625000
        k(   13) = (  -0.2500000   0.2500000   0.0000000), wk =   0.0625000
        k(   14) = (   0.2500000   0.0000000   0.0000000), wk =   0.0625000
        k(   15) = (  -0.3750000   0.3750000   0.0000000), wk =   0.0625000
        k(   16) = (   0.3750000   0.0000000   0.0000000), wk =   0.0625000
        k(   17) = (   0.5000000  -0.5000000   0.0000000), wk =   0.0312500
        k(   18) = (  -0.5000000   0.0000000   0.0000000), wk =   0.0312500
        k(   19) = (  -0.1250000   0.2500000   0.0000000), wk =   0.0625000
        k(   20) = (   0.2500000  -0.1250000   0.0000000), wk =   0.0625000
        k(   21) = (  -0.1250000   0.3750000   0.0000000), wk =   0.0625000
        k(   22) = (  -0.2500000   0.3750000   0.0000000), wk =   0.0625000
        k(   23) = (   0.3750000  -0.1250000   0.0000000), wk =   0.0625000
        k(   24) = (  -0.2500000  -0.1250000   0.0000000), wk =   0.0625000
        k(   25) = (   0.3750000  -0.2500000   0.0000000), wk =   0.0625000
        k(   26) = (  -0.1250000   0.5000000   0.0000000), wk =   0.0625000
        k(   27) = (  -0.3750000   0.5000000   0.0000000), wk =   0.0625000
        k(   28) = (   0.5000000  -0.1250000   0.0000000), wk =   0.0625000
        k(   29) = (  -0.3750000  -0.1250000   0.0000000), wk =   0.0625000
        k(   30) = (   0.5000000  -0.3750000   0.0000000), wk =   0.0625000
        k(   31) = (  -0.2500000   0.5000000   0.0000000), wk =   0.0625000
        k(   32) = (   0.5000000  -0.2500000   0.0000000), wk =   0.0625000
        k(   33) = (  -0.3750000   0.6250000   0.0000000), wk =   0.0625000
        k(   34) = (   0.6250000  -0.2500000   0.0000000), wk =   0.0625000

     Dense  grid:    98371 G-vectors     FFT dimensions: (  32,  32, 225)

     Dynamical RAM for                 wfc:       0.59 MB

     Dynamical RAM for     wfc (w. buffer):      20.51 MB

     Dynamical RAM for           str. fact:       0.56 MB

     Dynamical RAM for           local pot:       0.00 MB

     Dynamical RAM for          nlocal pot:       2.02 MB

     Dynamical RAM for                qrad:       4.31 MB

     Dynamical RAM for          rho,v,vnew:       1.24 MB

     Dynamical RAM for               rhoin:       0.41 MB

     Dynamical RAM for            rho*nmix:       3.00 MB

     Dynamical RAM for           G-vectors:       0.80 MB

     Dynamical RAM for          h,s,v(r/c):       0.11 MB

     Dynamical RAM for          <psi|beta>:       0.03 MB

     Dynamical RAM for                 psi:       1.17 MB

     Dynamical RAM for                hpsi:       1.17 MB

     Dynamical RAM for      wfcinit/wfcrot:       1.62 MB

     Estimated static dynamical RAM per process >      31.73 MB

     Estimated max dynamical RAM per process >      37.22 MB

     Estimated total dynamical RAM >     297.75 MB
 ----2D----2D----2D----2D----2D----2D----2D----2D----2D----2D----2D----2D
  The code is running with the 2D cutoff
  Please refer to:
  Sohier, T., Calandra, M., & Mauri, F. (2017), 
  Density functional perturbation theory for gated two-dimensional heterostructures:
  Theoretical developments and application to flexural phonons in graphene.
  Physical Review B, 96(7), 75448. https://doi.org/10.1103/PhysRevB.96.075448
 ----2D----2D----2D----2D----2D----2D----2D----2D----2D----2D----2D----2D

     Initial potential from superposition of free atoms

     starting charge      41.9973, renormalised to      42.0000

     negative rho (up, down):  1.052E-05 0.000E+00


     %%%%%%%%%%%%%%%%%%%%%%%%%%%%%%%%%%%%%%%%%%%%%%%%%%%%%%%%%%%%%%%%%%%%%%%%
     %                                                                      %
     % You are using vdW-DF, which was implemented by the Thonhauser group. %
     % Please cite the following two papers that made this development      %
     % possible and the two reviews that describe the various versions:     %
     %                                                                      %
     %   T. Thonhauser et al., PRL 115, 136402 (2015).                      %
     %   T. Thonhauser et al., PRB 76, 125112 (2007).                       %
     %   K. Berland et al., Rep. Prog. Phys. 78, 066501 (2015).             %
     %   D.C. Langreth et al., J. Phys.: Condens. Matter 21, 084203 (2009). %
     %                                                                      %
     % If you are calculating stress with vdW-DF, please also cite:         %
     %                                                                      %
     %   R. Sabatini et al., J. Phys.: Condens. Matter 24, 424209 (2012).   %
     %                                                                      %
     %%%%%%%%%%%%%%%%%%%%%%%%%%%%%%%%%%%%%%%%%%%%%%%%%%%%%%%%%%%%%%%%%%%%%%%%

     %%%%%%%%%%%%%%%%%%%%%%%%%%%%%%%%%%%%%%%%%%%%%%%%%%%%%%%%%%%%%%%%%%%%%%%%
     %                                                                      %
     %  vdW-DF NEWS:                                                        %
     %                                                                      %
     %  * vdW-DF3 is now available. DOI: 10.1021/acs.jctc.0c00471           %
     %    use with input_dft = 'vdW-DF3-opt1' or 'vdW-DF3-opt2'             %
     %                                                                      %
     %  * Unscreened and range-separated hybrid vdW-DF-cx functionals       %
     %    DOI: 10.1063/1.4986522 and 10.1088/1361-648X/ac2ad2               %
     %    use with input_dft = 'vdW-DF-cx0'    and 'vdW-DF-ahcx'            %
     %  * Unscreened and range-separated hybrid vdW-DF2-b86r functionals    %
     %    DOI: 10.1063/1.4986522 and DOI: 10.1103/PhysRevX.12.041003        %
     %    use with input_dft = 'vdW-DF2-br0' and 'vdW-DF2-ahbr'             %
     %                                                                      %
     %%%%%%%%%%%%%%%%%%%%%%%%%%%%%%%%%%%%%%%%%%%%%%%%%%%%%%%%%%%%%%%%%%%%%%%%


     Carrying out vdW-DF run using the following parameters:
     Nqs    =  20  Npoints =  1024  r_max =  100.000
     q_mesh =  0.00001000  0.04494208  0.09755937  0.15916263
               0.23128650  0.31572767  0.41458969  0.53033537
               0.66584808  0.82450364  1.01025438  1.22772762
               1.48234092  1.78043706  2.12944203  2.53805004
               3.01644009  3.57652955  4.23227104  5.00000000


     -----------------------------------------------
     Non-local corr. energy    =       0.56350592 Ry
     -----------------------------------------------

     Starting wfcs are   34 randomized atomic wfcs

     total cpu time spent up to now is        8.9 secs

     Self-consistent Calculation

     iteration #  1     ecut=    80.00 Ry     beta= 0.40
     Davidson diagonalization with overlap

---- Real-time Memory Report at c_bands before calling an iterative solver
            67 MiB given to the printing process from OS
             0 MiB allocation reported by mallinfo(arena+hblkhd)
         28194 MiB available memory on the node where the printing process lives
------------------
     ethr =  1.00E-02,  avg # of iterations =  2.4


     -----------------------------------------------
     Non-local corr. energy    =       0.59666100 Ry
     -----------------------------------------------


     total cpu time spent up to now is       12.3 secs

     total energy              =    -277.89500239 Ry
     estimated scf accuracy    <       4.70978654 Ry

     iteration #  2     ecut=    80.00 Ry     beta= 0.40
     Davidson diagonalization with overlap

---- Real-time Memory Report at c_bands before calling an iterative solver
            88 MiB given to the printing process from OS
             0 MiB allocation reported by mallinfo(arena+hblkhd)
         27984 MiB available memory on the node where the printing process lives
------------------
     ethr =  1.00E-02,  avg # of iterations =  2.7


     -----------------------------------------------
     Non-local corr. energy    =       0.59803810 Ry
     -----------------------------------------------


     total cpu time spent up to now is       15.6 secs

     total energy              =    -275.76396463 Ry
     estimated scf accuracy    <      33.20734406 Ry

     iteration #  3     ecut=    80.00 Ry     beta= 0.40
     Davidson diagonalization with overlap

---- Real-time Memory Report at c_bands before calling an iterative solver
            89 MiB given to the printing process from OS
             0 MiB allocation reported by mallinfo(arena+hblkhd)
         27927 MiB available memory on the node where the printing process lives
------------------
     ethr =  1.00E-02,  avg # of iterations =  5.0


     -----------------------------------------------
     Non-local corr. energy    =       0.59644892 Ry
     -----------------------------------------------


     total cpu time spent up to now is       18.9 secs

     total energy              =    -279.05000542 Ry
     estimated scf accuracy    <       7.50130816 Ry

     iteration #  4     ecut=    80.00 Ry     beta= 0.40
     Davidson diagonalization with overlap

---- Real-time Memory Report at c_bands before calling an iterative solver
            89 MiB given to the printing process from OS
             0 MiB allocation reported by mallinfo(arena+hblkhd)
         27883 MiB available memory on the node where the printing process lives
------------------
     ethr =  1.00E-02,  avg # of iterations =  1.1


     -----------------------------------------------
     Non-local corr. energy    =       0.59827752 Ry
     -----------------------------------------------


     total cpu time spent up to now is       21.2 secs

     total energy              =    -279.47972942 Ry
     estimated scf accuracy    <       0.39184824 Ry

     iteration #  5     ecut=    80.00 Ry     beta= 0.40
     Davidson diagonalization with overlap

---- Real-time Memory Report at c_bands before calling an iterative solver
            89 MiB given to the printing process from OS
             0 MiB allocation reported by mallinfo(arena+hblkhd)
         27845 MiB available memory on the node where the printing process lives
------------------
     ethr =  9.33E-04,  avg # of iterations =  3.8


     -----------------------------------------------
     Non-local corr. energy    =       0.60167257 Ry
     -----------------------------------------------


     total cpu time spent up to now is       24.1 secs

     total energy              =    -279.48246000 Ry
     estimated scf accuracy    <       0.14108684 Ry

     iteration #  6     ecut=    80.00 Ry     beta= 0.40
     Davidson diagonalization with overlap

---- Real-time Memory Report at c_bands before calling an iterative solver
            90 MiB given to the printing process from OS
             0 MiB allocation reported by mallinfo(arena+hblkhd)
         27798 MiB available memory on the node where the printing process lives
------------------
     ethr =  3.36E-04,  avg # of iterations =  5.8


     -----------------------------------------------
     Non-local corr. energy    =       0.60283039 Ry
     -----------------------------------------------


     total cpu time spent up to now is       27.6 secs

     total energy              =    -279.49893427 Ry
     estimated scf accuracy    <       0.06387558 Ry

     iteration #  7     ecut=    80.00 Ry     beta= 0.40
     Davidson diagonalization with overlap

---- Real-time Memory Report at c_bands before calling an iterative solver
            90 MiB given to the printing process from OS
             0 MiB allocation reported by mallinfo(arena+hblkhd)
         27730 MiB available memory on the node where the printing process lives
------------------
     ethr =  1.52E-04,  avg # of iterations =  3.7


     -----------------------------------------------
     Non-local corr. energy    =       0.60455690 Ry
     -----------------------------------------------


     total cpu time spent up to now is       30.4 secs

     total energy              =    -279.50620476 Ry
     estimated scf accuracy    <       0.00924946 Ry

     iteration #  8     ecut=    80.00 Ry     beta= 0.40
     Davidson diagonalization with overlap

---- Real-time Memory Report at c_bands before calling an iterative solver
            90 MiB given to the printing process from OS
             0 MiB allocation reported by mallinfo(arena+hblkhd)
         27703 MiB available memory on the node where the printing process lives
------------------
     ethr =  2.20E-05,  avg # of iterations =  4.5


     -----------------------------------------------
     Non-local corr. energy    =       0.60481342 Ry
     -----------------------------------------------


     total cpu time spent up to now is       34.0 secs

     total energy              =    -279.50768838 Ry
     estimated scf accuracy    <       0.00565503 Ry

     iteration #  9     ecut=    80.00 Ry     beta= 0.40
     Davidson diagonalization with overlap

---- Real-time Memory Report at c_bands before calling an iterative solver
            91 MiB given to the printing process from OS
             0 MiB allocation reported by mallinfo(arena+hblkhd)
         27688 MiB available memory on the node where the printing process lives
------------------
     ethr =  1.35E-05,  avg # of iterations =  2.0

     negative rho (up, down):  4.914E-07 0.000E+00


     -----------------------------------------------
     Non-local corr. energy    =       0.60542565 Ry
     -----------------------------------------------


     total cpu time spent up to now is       36.6 secs

     total energy              =    -279.50728197 Ry
     estimated scf accuracy    <       0.00341850 Ry

     iteration # 10     ecut=    80.00 Ry     beta= 0.40
     Davidson diagonalization with overlap

---- Real-time Memory Report at c_bands before calling an iterative solver
            91 MiB given to the printing process from OS
             0 MiB allocation reported by mallinfo(arena+hblkhd)
         27694 MiB available memory on the node where the printing process lives
------------------
     ethr =  8.14E-06,  avg # of iterations =  2.0


     -----------------------------------------------
     Non-local corr. energy    =       0.60540029 Ry
     -----------------------------------------------


     total cpu time spent up to now is       39.3 secs

     total energy              =    -279.50768238 Ry
     estimated scf accuracy    <       0.00008025 Ry

     iteration # 11     ecut=    80.00 Ry     beta= 0.40
     Davidson diagonalization with overlap

---- Real-time Memory Report at c_bands before calling an iterative solver
            91 MiB given to the printing process from OS
             0 MiB allocation reported by mallinfo(arena+hblkhd)
         27695 MiB available memory on the node where the printing process lives
------------------
     ethr =  1.91E-07,  avg # of iterations =  4.4


     -----------------------------------------------
     Non-local corr. energy    =       0.60541545 Ry
     -----------------------------------------------


     total cpu time spent up to now is       43.3 secs

     total energy              =    -279.50772227 Ry
     estimated scf accuracy    <       0.00002848 Ry

     iteration # 12     ecut=    80.00 Ry     beta= 0.40
     Davidson diagonalization with overlap

---- Real-time Memory Report at c_bands before calling an iterative solver
            91 MiB given to the printing process from OS
             0 MiB allocation reported by mallinfo(arena+hblkhd)
         27696 MiB available memory on the node where the printing process lives
------------------
     ethr =  6.78E-08,  avg # of iterations =  1.9


     -----------------------------------------------
     Non-local corr. energy    =       0.60546123 Ry
     -----------------------------------------------


     total cpu time spent up to now is       45.9 secs

     total energy              =    -279.50772051 Ry
     estimated scf accuracy    <       0.00001749 Ry

     iteration # 13     ecut=    80.00 Ry     beta= 0.40
     Davidson diagonalization with overlap

---- Real-time Memory Report at c_bands before calling an iterative solver
            91 MiB given to the printing process from OS
             0 MiB allocation reported by mallinfo(arena+hblkhd)
         27673 MiB available memory on the node where the printing process lives
------------------
     ethr =  4.16E-08,  avg # of iterations =  2.0


     -----------------------------------------------
     Non-local corr. energy    =       0.60545655 Ry
     -----------------------------------------------


     total cpu time spent up to now is       48.5 secs

     End of self-consistent calculation

          k = 0.0000 0.0000 0.0000 ( 12333 PWs)   bands (ev):

   -77.8839 -49.1613 -49.1612 -49.0858 -24.1965 -24.1333 -21.4095 -20.1767
   -13.5866 -11.2392  -9.3241  -9.3241  -9.2939  -9.2939  -9.2804  -8.6327
    -8.6327  -7.5419  -7.4341  -7.4340  -5.5605  -3.5012  -3.5012  -3.4019
    -3.4019

     occupation numbers 
     1.0000   1.0000   1.0000   1.0000   1.0000   1.0000   1.0000   1.0000
     1.0000   1.0000   1.0000   1.0000   1.0000   1.0000   1.0000   1.0000
     1.0000   1.0000   1.0000   1.0000   0.9996   0.0000   0.0000   0.0000
     0.0000

          k = 0.0000 0.1443 0.0000 ( 12293 PWs)   bands (ev):

   -77.8800 -49.1928 -49.1685 -49.0802 -23.9470 -23.8866 -21.2290 -20.0778
   -13.4012 -11.1608 -10.4035 -10.3725  -9.5646  -9.5399  -9.1379  -8.9422
    -8.4688  -7.8278  -7.6720  -7.3384  -5.7333  -3.6725  -3.5981  -3.5655
    -3.2693

     occupation numbers 
     1.0000   1.0000   1.0000   1.0000   1.0000   1.0000   1.0000   1.0000
     1.0000   1.0000   1.0000   1.0000   1.0000   1.0000   1.0000   1.0000
     1.0000   1.0000   1.0000   1.0000   1.0000   0.0000   0.0000   0.0000
     0.0000

          k = 0.0000 0.2887 0.0000 ( 12259 PWs)   bands (ev):

   -77.8706 -49.2683 -49.1860 -49.0667 -23.2448 -23.1919 -20.7796 -19.8432
   -13.2772 -12.5515 -12.0202 -10.8293 -10.0799 -10.0573  -9.9423  -8.7029
    -8.4528  -8.1752  -8.0368  -7.5555  -6.1970  -3.9468  -3.9063  -3.4410
    -2.8397

     occupation numbers 
     1.0000   1.0000   1.0000   1.0000   1.0000   1.0000   1.0000   1.0000
     1.0000   1.0000   1.0000   1.0000   1.0000   1.0000   1.0000   1.0000
     1.0000   1.0000   1.0000   1.0000   1.0000   0.0000   0.0000   0.0000
     0.0000

          k = 0.0000 0.4330 0.0000 ( 12308 PWs)   bands (ev):

   -77.8611 -49.3432 -49.2034 -49.0531 -22.2883 -22.2454 -20.3535 -19.6700
   -14.6343 -14.4006 -12.0040 -10.9501 -10.5271 -10.5232 -10.4982  -9.1872
    -8.5758  -8.2938  -7.6670  -7.5870  -6.3557  -4.3266  -4.1703  -3.1653
    -2.5200

     occupation numbers 
     1.0000   1.0000   1.0000   1.0000   1.0000   1.0000   1.0000   1.0000
     1.0000   1.0000   1.0000   1.0000   1.0000   1.0000   1.0000   1.0000
     1.0000   1.0000   1.0000   1.0000   1.0000   0.0000   0.0000   0.0000
     0.0000

          k = 0.0000-0.5774 0.0000 ( 12278 PWs)   bands (ev):

   -77.8572 -49.3739 -49.2106 -49.0475 -21.7179 -21.6794 -20.2531 -19.6878
   -15.3883 -15.1740 -11.8149 -11.3123 -10.6966 -10.6647 -10.6163  -9.3556
    -8.7298  -8.0578  -7.6838  -7.3791  -6.3097  -4.4862  -4.3276  -3.1505
    -2.4872

     occupation numbers 
     1.0000   1.0000   1.0000   1.0000   1.0000   1.0000   1.0000   1.0000
     1.0000   1.0000   1.0000   1.0000   1.0000   1.0000   1.0000   1.0000
     1.0000   1.0000   1.0000   1.0000   1.0000   0.0000   0.0000   0.0000
     0.0000

          k = 0.1250 0.2165 0.0000 ( 12244 PWs)   bands (ev):

   -77.8734 -49.2428 -49.1843 -49.0707 -23.4699 -23.4146 -20.9126 -19.9093
   -13.1835 -11.8565 -11.5549 -10.8605 -10.2791 -10.1691  -9.5346  -8.7681
    -8.4039  -8.2268  -7.9293  -7.4079  -6.0780  -3.8790  -3.8018  -3.6016
    -2.9098

     occupation numbers 
     1.0000   1.0000   1.0000   1.0000   1.0000   1.0000   1.0000   1.0000
     1.0000   1.0000   1.0000   1.0000   1.0000   1.0000   1.0000   1.0000
     1.0000   1.0000   1.0000   1.0000   1.0000   0.0000   0.0000   0.0000
     0.0000

          k = 0.1250 0.3608 0.0000 ( 12290 PWs)   bands (ev):

   -77.8639 -49.3103 -49.2095 -49.0571 -22.6241 -22.5775 -20.4652 -19.6953
   -13.8758 -13.5536 -12.0425 -11.1657 -11.0249 -10.5785 -10.1820  -9.2661
    -8.4822  -8.1256  -7.9390  -7.6395  -6.3659  -4.2266  -4.0136  -3.3322
    -2.6087

     occupation numbers 
     1.0000   1.0000   1.0000   1.0000   1.0000   1.0000   1.0000   1.0000
     1.0000   1.0000   1.0000   1.0000   1.0000   1.0000   1.0000   1.0000
     1.0000   1.0000   1.0000   1.0000   1.0000   0.0000   0.0000   0.0000
     0.0000

          k = 0.1250 0.5052 0.0000 ( 12304 PWs)   bands (ev):

   -77.8572 -49.3573 -49.2275 -49.0475 -21.7715 -21.7326 -20.2250 -19.6427
   -15.0304 -14.8112 -11.9168 -11.6314 -11.3131 -10.8491 -10.5211  -9.4997
    -8.6934  -8.0880  -7.9388  -7.5179  -6.2636  -4.5483  -4.1252  -3.0479
    -2.6309

     occupation numbers 
     1.0000   1.0000   1.0000   1.0000   1.0000   1.0000   1.0000   1.0000
     1.0000   1.0000   1.0000   1.0000   1.0000   1.0000   1.0000   1.0000
     1.0000   1.0000   1.0000   1.0000   1.0000   0.0000   0.0000   0.0000
     0.0000

          k = 0.2500 0.4330 0.0000 ( 12310 PWs)   bands (ev):

   -77.8572 -49.3344 -49.2507 -49.0475 -21.8220 -21.7823 -20.2011 -19.6013
   -14.4963 -14.2426 -12.5508 -12.4324 -11.5692 -10.4757 -10.3775  -9.7822
    -8.7388  -8.4330  -7.9824  -7.5159  -6.2516  -4.5740  -3.9800  -3.1597
    -2.6084

     occupation numbers 
     1.0000   1.0000   1.0000   1.0000   1.0000   1.0000   1.0000   1.0000
     1.0000   1.0000   1.0000   1.0000   1.0000   1.0000   1.0000   1.0000
     1.0000   1.0000   1.0000   1.0000   1.0000   0.0000   0.0000   0.0000
     0.0000

          k = 0.2500 0.5774 0.0000 ( 12308 PWs)   bands (ev):

   -77.8544 -49.3370 -49.2752 -49.0436 -21.3825 -21.3413 -20.1509 -19.6144
   -14.7424 -14.4952 -13.1294 -13.0528 -11.2081 -10.7084 -10.5286  -9.4395
    -9.3017  -8.7730  -7.9020  -7.3592  -6.0460  -4.8721  -3.8445  -2.9813
    -2.7644

     occupation numbers 
     1.0000   1.0000   1.0000   1.0000   1.0000   1.0000   1.0000   1.0000
     1.0000   1.0000   1.0000   1.0000   1.0000   1.0000   1.0000   1.0000
     1.0000   1.0000   1.0000   1.0000   1.0000   0.0001   0.0000   0.0000
     0.0000

          k =-0.1250 0.0722 0.0000 ( 12293 PWs)   bands (ev):

   -77.8800 -49.1927 -49.1685 -49.0802 -23.9470 -23.8866 -21.2290 -20.0778
   -13.4012 -11.1608 -10.4034 -10.3725  -9.5647  -9.5399  -9.1379  -8.9422
    -8.4688  -7.8278  -7.6721  -7.3384  -5.7333  -3.6725  -3.5981  -3.5655
    -3.2693

     occupation numbers 
     1.0000   1.0000   1.0000   1.0000   1.0000   1.0000   1.0000   1.0000
     1.0000   1.0000   1.0000   1.0000   1.0000   1.0000   1.0000   1.0000
     1.0000   1.0000   1.0000   1.0000   1.0000   0.0000   0.0000   0.0000
     0.0000

          k = 0.1250 0.0722 0.0000 ( 12293 PWs)   bands (ev):

   -77.8800 -49.1928 -49.1685 -49.0802 -23.9470 -23.8866 -21.2290 -20.0778
   -13.4012 -11.1608 -10.4035 -10.3725  -9.5647  -9.5399  -9.1379  -8.9422
    -8.4688  -7.8278  -7.6720  -7.3384  -5.7333  -3.6725  -3.5981  -3.5655
    -3.2693

     occupation numbers 
     1.0000   1.0000   1.0000   1.0000   1.0000   1.0000   1.0000   1.0000
     1.0000   1.0000   1.0000   1.0000   1.0000   1.0000   1.0000   1.0000
     1.0000   1.0000   1.0000   1.0000   1.0000   0.0000   0.0000   0.0000
     0.0000

          k =-0.2500 0.1443 0.0000 ( 12259 PWs)   bands (ev):

   -77.8706 -49.2683 -49.1860 -49.0667 -23.2448 -23.1919 -20.7796 -19.8432
   -13.2772 -12.5514 -12.0202 -10.8293 -10.0799 -10.0573  -9.9424  -8.7030
    -8.4528  -8.1752  -8.0368  -7.5554  -6.1970  -3.9468  -3.9063  -3.4411
    -2.8396

     occupation numbers 
     1.0000   1.0000   1.0000   1.0000   1.0000   1.0000   1.0000   1.0000
     1.0000   1.0000   1.0000   1.0000   1.0000   1.0000   1.0000   1.0000
     1.0000   1.0000   1.0000   1.0000   1.0000   0.0000   0.0000   0.0000
     0.0000

          k = 0.2500 0.1443 0.0000 ( 12259 PWs)   bands (ev):

   -77.8706 -49.2683 -49.1860 -49.0667 -23.2448 -23.1919 -20.7796 -19.8432
   -13.2772 -12.5515 -12.0202 -10.8293 -10.0799 -10.0573  -9.9423  -8.7030
    -8.4528  -8.1752  -8.0368  -7.5555  -6.1970  -3.9468  -3.9063  -3.4410
    -2.8397

     occupation numbers 
     1.0000   1.0000   1.0000   1.0000   1.0000   1.0000   1.0000   1.0000
     1.0000   1.0000   1.0000   1.0000   1.0000   1.0000   1.0000   1.0000
     1.0000   1.0000   1.0000   1.0000   1.0000   0.0000   0.0000   0.0000
     0.0000

          k =-0.3750 0.2165 0.0000 ( 12308 PWs)   bands (ev):

   -77.8611 -49.3432 -49.2034 -49.0531 -22.2883 -22.2454 -20.3534 -19.6700
   -14.6343 -14.4006 -12.0040 -10.9501 -10.5271 -10.5232 -10.4982  -9.1872
    -8.5758  -8.2938  -7.6670  -7.5870  -6.3556  -4.3266  -4.1703  -3.1654
    -2.5203

     occupation numbers 
     1.0000   1.0000   1.0000   1.0000   1.0000   1.0000   1.0000   1.0000
     1.0000   1.0000   1.0000   1.0000   1.0000   1.0000   1.0000   1.0000
     1.0000   1.0000   1.0000   1.0000   1.0000   0.0000   0.0000   0.0000
     0.0000

          k = 0.3750 0.2165 0.0000 ( 12308 PWs)   bands (ev):

   -77.8611 -49.3432 -49.2034 -49.0531 -22.2883 -22.2454 -20.3534 -19.6700
   -14.6343 -14.4006 -12.0040 -10.9501 -10.5271 -10.5232 -10.4982  -9.1872
    -8.5758  -8.2938  -7.6670  -7.5870  -6.3556  -4.3266  -4.1703  -3.1653
    -2.5203

     occupation numbers 
     1.0000   1.0000   1.0000   1.0000   1.0000   1.0000   1.0000   1.0000
     1.0000   1.0000   1.0000   1.0000   1.0000   1.0000   1.0000   1.0000
     1.0000   1.0000   1.0000   1.0000   1.0000   0.0000   0.0000   0.0000
     0.0000

          k = 0.5000-0.2887 0.0000 ( 12278 PWs)   bands (ev):

   -77.8572 -49.3739 -49.2106 -49.0475 -21.7179 -21.6794 -20.2531 -19.6878
   -15.3883 -15.1740 -11.8149 -11.3123 -10.6966 -10.6647 -10.6163  -9.3556
    -8.7298  -8.0578  -7.6838  -7.3791  -6.3096  -4.4862  -4.3276  -3.1506
    -2.4879

     occupation numbers 
     1.0000   1.0000   1.0000   1.0000   1.0000   1.0000   1.0000   1.0000
     1.0000   1.0000   1.0000   1.0000   1.0000   1.0000   1.0000   1.0000
     1.0000   1.0000   1.0000   1.0000   1.0000   0.0000   0.0000   0.0000
     0.0000

          k =-0.5000-0.2887 0.0000 ( 12278 PWs)   bands (ev):

   -77.8572 -49.3740 -49.2106 -49.0475 -21.7179 -21.6794 -20.2531 -19.6878
   -15.3883 -15.1740 -11.8149 -11.3123 -10.6966 -10.6647 -10.6163  -9.3556
    -8.7298  -8.0577  -7.6838  -7.3791  -6.3096  -4.4862  -4.3277  -3.1502
    -2.4874

     occupation numbers 
     1.0000   1.0000   1.0000   1.0000   1.0000   1.0000   1.0000   1.0000
     1.0000   1.0000   1.0000   1.0000   1.0000   1.0000   1.0000   1.0000
     1.0000   1.0000   1.0000   1.0000   1.0000   0.0000   0.0000   0.0000
     0.0000

          k =-0.1250 0.2165 0.0000 ( 12244 PWs)   bands (ev):

   -77.8734 -49.2428 -49.1844 -49.0707 -23.4699 -23.4146 -20.9126 -19.9093
   -13.1835 -11.8565 -11.5549 -10.8605 -10.2791 -10.1691  -9.5346  -8.7681
    -8.4039  -8.2268  -7.9293  -7.4079  -6.0780  -3.8790  -3.8018  -3.6016
    -2.9098

     occupation numbers 
     1.0000   1.0000   1.0000   1.0000   1.0000   1.0000   1.0000   1.0000
     1.0000   1.0000   1.0000   1.0000   1.0000   1.0000   1.0000   1.0000
     1.0000   1.0000   1.0000   1.0000   1.0000   0.0000   0.0000   0.0000
     0.0000

          k = 0.2500 0.0000 0.0000 ( 12244 PWs)   bands (ev):

   -77.8734 -49.2428 -49.1843 -49.0707 -23.4699 -23.4146 -20.9126 -19.9093
   -13.1835 -11.8565 -11.5549 -10.8605 -10.2791 -10.1691  -9.5346  -8.7681
    -8.4040  -8.2267  -7.9293  -7.4079  -6.0780  -3.8790  -3.8018  -3.6016
    -2.9097

     occupation numbers 
     1.0000   1.0000   1.0000   1.0000   1.0000   1.0000   1.0000   1.0000
     1.0000   1.0000   1.0000   1.0000   1.0000   1.0000   1.0000   1.0000
     1.0000   1.0000   1.0000   1.0000   1.0000   0.0000   0.0000   0.0000
     0.0000

          k =-0.1250 0.3608 0.0000 ( 12290 PWs)   bands (ev):

   -77.8639 -49.3103 -49.2095 -49.0571 -22.6241 -22.5775 -20.4652 -19.6953
   -13.8758 -13.5536 -12.0425 -11.1657 -11.0249 -10.5785 -10.1820  -9.2661
    -8.4822  -8.1256  -7.9390  -7.6395  -6.3659  -4.2265  -4.0136  -3.3322
    -2.6087

     occupation numbers 
     1.0000   1.0000   1.0000   1.0000   1.0000   1.0000   1.0000   1.0000
     1.0000   1.0000   1.0000   1.0000   1.0000   1.0000   1.0000   1.0000
     1.0000   1.0000   1.0000   1.0000   1.0000   0.0000   0.0000   0.0000
     0.0000

          k =-0.2500 0.2887 0.0000 ( 12290 PWs)   bands (ev):

   -77.8639 -49.3103 -49.2095 -49.0571 -22.6241 -22.5775 -20.4652 -19.6952
   -13.8758 -13.5536 -12.0425 -11.1657 -11.0249 -10.5785 -10.1820  -9.2661
    -8.4822  -8.1256  -7.9390  -7.6395  -6.3659  -4.2265  -4.0136  -3.3322
    -2.6087

     occupation numbers 
     1.0000   1.0000   1.0000   1.0000   1.0000   1.0000   1.0000   1.0000
     1.0000   1.0000   1.0000   1.0000   1.0000   1.0000   1.0000   1.0000
     1.0000   1.0000   1.0000   1.0000   1.0000   0.0000   0.0000   0.0000
     0.0000

          k = 0.3750 0.0722 0.0000 ( 12290 PWs)   bands (ev):

   -77.8639 -49.3103 -49.2094 -49.0571 -22.6241 -22.5775 -20.4652 -19.6952
   -13.8758 -13.5536 -12.0425 -11.1657 -11.0249 -10.5785 -10.1820  -9.2661
    -8.4822  -8.1256  -7.9390  -7.6395  -6.3659  -4.2265  -4.0136  -3.3322
    -2.6087

     occupation numbers 
     1.0000   1.0000   1.0000   1.0000   1.0000   1.0000   1.0000   1.0000
     1.0000   1.0000   1.0000   1.0000   1.0000   1.0000   1.0000   1.0000
     1.0000   1.0000   1.0000   1.0000   1.0000   0.0000   0.0000   0.0000
     0.0000

          k =-0.2500-0.2887 0.0000 ( 12290 PWs)   bands (ev):

   -77.8639 -49.3103 -49.2094 -49.0571 -22.6241 -22.5775 -20.4652 -19.6953
   -13.8758 -13.5536 -12.0425 -11.1657 -11.0249 -10.5785 -10.1820  -9.2661
    -8.4822  -8.1256  -7.9390  -7.6395  -6.3659  -4.2265  -4.0136  -3.3322
    -2.6087

     occupation numbers 
     1.0000   1.0000   1.0000   1.0000   1.0000   1.0000   1.0000   1.0000
     1.0000   1.0000   1.0000   1.0000   1.0000   1.0000   1.0000   1.0000
     1.0000   1.0000   1.0000   1.0000   1.0000   0.0000   0.0000   0.0000
     0.0000

          k = 0.3750-0.0722 0.0000 ( 12290 PWs)   bands (ev):

   -77.8639 -49.3103 -49.2095 -49.0571 -22.6241 -22.5775 -20.4652 -19.6952
   -13.8758 -13.5536 -12.0425 -11.1657 -11.0249 -10.5785 -10.1820  -9.2661
    -8.4822  -8.1256  -7.9390  -7.6395  -6.3659  -4.2265  -4.0136  -3.3322
    -2.6087

     occupation numbers 
     1.0000   1.0000   1.0000   1.0000   1.0000   1.0000   1.0000   1.0000
     1.0000   1.0000   1.0000   1.0000   1.0000   1.0000   1.0000   1.0000
     1.0000   1.0000   1.0000   1.0000   1.0000   0.0000   0.0000   0.0000
     0.0000

          k =-0.1250 0.5052 0.0000 ( 12304 PWs)   bands (ev):

   -77.8572 -49.3573 -49.2275 -49.0475 -21.7715 -21.7326 -20.2250 -19.6427
   -15.0304 -14.8112 -11.9168 -11.6314 -11.3131 -10.8491 -10.5211  -9.4997
    -8.6934  -8.0880  -7.9388  -7.5179  -6.2636  -4.5483  -4.1252  -3.0479
    -2.6309

     occupation numbers 
     1.0000   1.0000   1.0000   1.0000   1.0000   1.0000   1.0000   1.0000
     1.0000   1.0000   1.0000   1.0000   1.0000   1.0000   1.0000   1.0000
     1.0000   1.0000   1.0000   1.0000   1.0000   0.0000   0.0000   0.0000
     0.0000

          k =-0.3750 0.3608 0.0000 ( 12304 PWs)   bands (ev):

   -77.8572 -49.3573 -49.2276 -49.0475 -21.7715 -21.7326 -20.2250 -19.6426
   -15.0304 -14.8112 -11.9168 -11.6314 -11.3131 -10.8491 -10.5211  -9.4997
    -8.6934  -8.0879  -7.9387  -7.5179  -6.2636  -4.5483  -4.1252  -3.0479
    -2.6310

     occupation numbers 
     1.0000   1.0000   1.0000   1.0000   1.0000   1.0000   1.0000   1.0000
     1.0000   1.0000   1.0000   1.0000   1.0000   1.0000   1.0000   1.0000
     1.0000   1.0000   1.0000   1.0000   1.0000   0.0000   0.0000   0.0000
     0.0000

          k = 0.5000 0.1443 0.0000 ( 12304 PWs)   bands (ev):

   -77.8572 -49.3573 -49.2275 -49.0475 -21.7715 -21.7326 -20.2250 -19.6427
   -15.0304 -14.8112 -11.9168 -11.6314 -11.3131 -10.8491 -10.5211  -9.4997
    -8.6934  -8.0880  -7.9387  -7.5179  -6.2636  -4.5483  -4.1252  -3.0479
    -2.6309

     occupation numbers 
     1.0000   1.0000   1.0000   1.0000   1.0000   1.0000   1.0000   1.0000
     1.0000   1.0000   1.0000   1.0000   1.0000   1.0000   1.0000   1.0000
     1.0000   1.0000   1.0000   1.0000   1.0000   0.0000   0.0000   0.0000
     0.0000

          k =-0.3750-0.3608 0.0000 ( 12304 PWs)   bands (ev):

   -77.8572 -49.3573 -49.2275 -49.0475 -21.7715 -21.7326 -20.2250 -19.6427
   -15.0304 -14.8112 -11.9168 -11.6314 -11.3131 -10.8491 -10.5211  -9.4997
    -8.6934  -8.0879  -7.9387  -7.5179  -6.2636  -4.5483  -4.1252  -3.0479
    -2.6309

     occupation numbers 
     1.0000   1.0000   1.0000   1.0000   1.0000   1.0000   1.0000   1.0000
     1.0000   1.0000   1.0000   1.0000   1.0000   1.0000   1.0000   1.0000
     1.0000   1.0000   1.0000   1.0000   1.0000   0.0000   0.0000   0.0000
     0.0000

          k = 0.5000-0.1443 0.0000 ( 12304 PWs)   bands (ev):

   -77.8572 -49.3573 -49.2276 -49.0475 -21.7715 -21.7326 -20.2250 -19.6426
   -15.0304 -14.8112 -11.9168 -11.6314 -11.3131 -10.8491 -10.5211  -9.4997
    -8.6934  -8.0879  -7.9387  -7.5179  -6.2636  -4.5483  -4.1252  -3.0480
    -2.6309

     occupation numbers 
     1.0000   1.0000   1.0000   1.0000   1.0000   1.0000   1.0000   1.0000
     1.0000   1.0000   1.0000   1.0000   1.0000   1.0000   1.0000   1.0000
     1.0000   1.0000   1.0000   1.0000   1.0000   0.0000   0.0000   0.0000
     0.0000

          k =-0.2500 0.4330 0.0000 ( 12310 PWs)   bands (ev):

   -77.8572 -49.3344 -49.2507 -49.0475 -21.8220 -21.7823 -20.2011 -19.6013
   -14.4963 -14.2426 -12.5508 -12.4324 -11.5692 -10.4757 -10.3775  -9.7822
    -8.7388  -8.4330  -7.9823  -7.5159  -6.2516  -4.5740  -3.9799  -3.1597
    -2.6084

     occupation numbers 
     1.0000   1.0000   1.0000   1.0000   1.0000   1.0000   1.0000   1.0000
     1.0000   1.0000   1.0000   1.0000   1.0000   1.0000   1.0000   1.0000
     1.0000   1.0000   1.0000   1.0000   1.0000   0.0000   0.0000   0.0000
     0.0000

          k = 0.5000 0.0000 0.0000 ( 12310 PWs)   bands (ev):

   -77.8572 -49.3344 -49.2507 -49.0475 -21.8220 -21.7823 -20.2011 -19.6013
   -14.4963 -14.2426 -12.5508 -12.4324 -11.5692 -10.4757 -10.3775  -9.7822
    -8.7388  -8.4330  -7.9823  -7.5159  -6.2516  -4.5740  -3.9800  -3.1597
    -2.6084

     occupation numbers 
     1.0000   1.0000   1.0000   1.0000   1.0000   1.0000   1.0000   1.0000
     1.0000   1.0000   1.0000   1.0000   1.0000   1.0000   1.0000   1.0000
     1.0000   1.0000   1.0000   1.0000   1.0000   0.0000   0.0000   0.0000
     0.0000

          k =-0.3750 0.5052 0.0000 ( 12308 PWs)   bands (ev):

   -77.8544 -49.3370 -49.2752 -49.0436 -21.3825 -21.3413 -20.1509 -19.6144
   -14.7424 -14.4952 -13.1294 -13.0528 -11.2081 -10.7084 -10.5286  -9.4395
    -9.3017  -8.7730  -7.9020  -7.3592  -6.0460  -4.8721  -3.8445  -2.9812
    -2.7644

     occupation numbers 
     1.0000   1.0000   1.0000   1.0000   1.0000   1.0000   1.0000   1.0000
     1.0000   1.0000   1.0000   1.0000   1.0000   1.0000   1.0000   1.0000
     1.0000   1.0000   1.0000   1.0000   1.0000   0.0001   0.0000   0.0000
     0.0000

          k = 0.6250 0.0722 0.0000 ( 12308 PWs)   bands (ev):

   -77.8544 -49.3370 -49.2752 -49.0436 -21.3825 -21.3413 -20.1509 -19.6144
   -14.7424 -14.4952 -13.1294 -13.0528 -11.2081 -10.7084 -10.5286  -9.4395
    -9.3017  -8.7730  -7.9020  -7.3592  -6.0460  -4.8721  -3.8445  -2.9812
    -2.7644

     occupation numbers 
     1.0000   1.0000   1.0000   1.0000   1.0000   1.0000   1.0000   1.0000
     1.0000   1.0000   1.0000   1.0000   1.0000   1.0000   1.0000   1.0000
     1.0000   1.0000   1.0000   1.0000   1.0000   0.0001   0.0000   0.0000
     0.0000

     the Fermi energy is    -5.2388 ev

!    total energy              =    -279.50772261 Ry
     estimated scf accuracy    <       0.00000031 Ry
     smearing contrib. (-TS)   =      -0.00000070 Ry
     internal energy E=F+TS    =    -279.50772191 Ry

     The total energy is F=E-TS. E is the sum of the following terms:
     one-electron contribution =   -4286.62098211 Ry
     hartree contribution      =    2141.60414333 Ry
     xc contribution           =     -58.52817262 Ry
     ewald contribution        =    1924.03728949 Ry

     convergence has been achieved in  13 iterations

     Writing all to output data dir ./crsi2n4.save/ :
     XML data file, charge density, pseudopotentials, collected wavefunctions

     init_run     :      8.76s CPU      8.83s WALL (       1 calls)
     electrons    :     37.97s CPU     39.53s WALL (       1 calls)

     Called by init_run:
     wfcinit      :      1.23s CPU      1.29s WALL (       1 calls)
     wfcinit:atom :      0.01s CPU      0.01s WALL (      34 calls)
     wfcinit:wfcr :      1.11s CPU      1.17s WALL (      34 calls)
     potinit      :      7.38s CPU      7.39s WALL (       1 calls)
     hinit0       :      0.12s CPU      0.13s WALL (       1 calls)

     Called by electrons:
     c_bands      :     34.43s CPU     35.62s WALL (      13 calls)
     sum_band     :      2.65s CPU      2.87s WALL (      13 calls)
     v_of_rho     :      8.21s CPU      8.36s WALL (      14 calls)
     v_h          :      0.01s CPU      0.01s WALL (      14 calls)
     v_xc         :      8.21s CPU      8.35s WALL (      14 calls)
     mix_rho      :      0.04s CPU      0.05s WALL (      13 calls)
     vdW_kernel   :      7.30s CPU      7.30s WALL (       1 calls)

     Called by c_bands:
     init_us_2    :      1.01s CPU      1.03s WALL (     918 calls)
     cegterg      :     32.56s CPU     33.75s WALL (     442 calls)

     Called by sum_band:
     sum_band:wei :      0.00s CPU      0.00s WALL (      13 calls)
     sum_band:loo :      2.64s CPU      2.85s WALL (      13 calls)
     sum_band:buf :      0.09s CPU      0.10s WALL (     442 calls)
     sum_band:ini :      0.51s CPU      0.52s WALL (     442 calls)

     Called by *egterg:
     cdiaghg      :      1.30s CPU      1.31s WALL (    1848 calls)
     cegterg:over :      3.37s CPU      3.38s WALL (    1406 calls)
     cegterg:upda :      2.04s CPU      2.04s WALL (    1406 calls)
     cegterg:last :      3.89s CPU      3.90s WALL (     904 calls)
     h_psi        :     21.11s CPU     22.32s WALL (    1882 calls)
     g_psi        :      0.08s CPU      0.08s WALL (    1406 calls)

     Called by h_psi:
     h_psi:calbec :      6.04s CPU      6.15s WALL (    1882 calls)
     vloc_psi     :      9.47s CPU     10.56s WALL (    1882 calls)
     add_vuspsi   :      5.44s CPU      5.45s WALL (    1882 calls)

     General routines
     calbec       :      6.04s CPU      6.14s WALL (    1882 calls)
     fft          :      0.35s CPU      0.40s WALL (     840 calls)
     ffts         :      0.00s CPU      0.00s WALL (      13 calls)
     fftw         :      9.47s CPU     10.54s WALL (   67036 calls)

     Parallel routines

     PWSCF        :     46.87s CPU     48.59s WALL


   This run was terminated on:  18:33:41  20Apr2025            

=------------------------------------------------------------------------------=
   JOB DONE.
=------------------------------------------------------------------------------=
