
     Program PWSCF v.7.4.1 starts on 13Mar2026 at  1:51:54 

     This program is part of the open-source Quantum ESPRESSO suite
     for quantum simulation of materials; please cite
         "P. Giannozzi et al., J. Phys.:Condens. Matter 21 395502 (2009);
         "P. Giannozzi et al., J. Phys.:Condens. Matter 29 465901 (2017);
         "P. Giannozzi et al., J. Chem. Phys. 152 154105 (2020);
          URL http://www.quantum-espresso.org", 
     in publications or presentations arising from this work. More details at
     http://www.quantum-espresso.org/quote

     Parallel version (MPI), running on     1 processors

     MPI processes distributed on     1 nodes
     5503 MiB available memory on the printing compute node when the environment starts
 
     Reading input from bands.in

     Current dimensions of program PWSCF are:
     Max number of different atomic species (ntypx) = 10
     Max number of k-points (npk) =  40000
     Max angular momentum in pseudopotentials (lmaxx) =  4

     Atomic positions and unit cell read from directory:
     ./tmp/crsi2n4.save/
 
     Message from routine setup:
     no reason to have ecutrho>4*ecutwfc
 
     Subspace diagonalization in iterative solution of the eigenvalue problem:
     a serial algorithm will be used

 
     G-vector sticks info
     --------------------
     sticks:   dense  smooth     PW     G-vecs:    dense   smooth      PW
     Sum         757     595    187               127257    90781   14755
 
     Using Slab Decomposition
 


     bravais-lattice index     =            4
     lattice parameter (alat)  =       5.2669  a.u.
     unit-cell volume          =     942.7434 (a.u.)^3
     number of atoms/cell      =            7
     number of atomic types    =            3
     number of electrons       =        42.00
     number of Kohn-Sham states=           35
     kinetic-energy cutoff     =      80.0000  Ry
     charge density cutoff     =     400.0000  Ry
     Exchange-correlation= PBE
                           (   1   4   3   4   0   0   0)

     GPU acceleration is ACTIVE.  1 visible GPUs per MPI rank
     GPU-aware MPI enabled


     GPU used by master process:

        Device Number: 0
        Device name: NVIDIA RTX A2000 12GB
        Compute capability : 86
        Ratio of single to double precision performance  : 64
        Memory Clock Rate (KHz): 6001000
        Memory Bus Width (bits): 192
        Peak Memory Bandwidth (GB/s): 288.05

     celldm(1)=   5.266893  celldm(2)=   0.000000  celldm(3)=   7.450738
     celldm(4)=   0.000000  celldm(5)=   0.000000  celldm(6)=   0.000000

     crystal axes: (cart. coord. in units of alat)
               a(1) = (   1.000000   0.000000   0.000000 )  
               a(2) = (  -0.500000   0.866025   0.000000 )  
               a(3) = (   0.000000   0.000000   7.450738 )  

     reciprocal axes: (cart. coord. in units 2 pi/alat)
               b(1) = (  1.000000  0.577350 -0.000000 )  
               b(2) = (  0.000000  1.154701  0.000000 )  
               b(3) = (  0.000000 -0.000000  0.134215 )  


     PseudoPot. # 1 for Cr read from file:
     /home/rao/Desktop/pseudo/ONCVPSP/sg15/Cr_ONCV_PBE_sr.upf
     MD5 check sum: 8c25700f94aee329d8014e8d8708abb4
     Pseudo is Norm-conserving, Zval = 14.0
     Generated using ONCVPSP code by D. R. Hamann
     Using radial grid of 1490 points,  6 beta functions with: 
                l(1) =   0
                l(2) =   0
                l(3) =   1
                l(4) =   1
                l(5) =   2
                l(6) =   2

     PseudoPot. # 2 for Si read from file:
     /home/rao/Desktop/pseudo/ONCVPSP/sg15/Si_ONCV_PBE_sr.upf
     MD5 check sum: 8553c464762ac42b85b1eed164b4d029
     Pseudo is Norm-conserving, Zval =  4.0
     Generated using ONCVPSP code by D. R. Hamann
     Using radial grid of 1510 points,  4 beta functions with: 
                l(1) =   0
                l(2) =   0
                l(3) =   1
                l(4) =   1

     PseudoPot. # 3 for N  read from file:
     /home/rao/Desktop/pseudo/ONCVPSP/sg15/N_ONCV_PBE_sr.upf
     MD5 check sum: 584dff68b02d160f04ff099e3496afa1
     Pseudo is Norm-conserving, Zval =  5.0
     Generated using ONCVPSP code by D. R. Hamann
     Using radial grid of 1058 points,  4 beta functions with: 
                l(1) =   0
                l(2) =   0
                l(3) =   1
                l(4) =   1

     atomic species   valence    mass     pseudopotential
     Cr               14.00    51.99600     Cr( 1.00)
     Si                4.00    28.08600     Si( 1.00)
     N                 5.00    14.00700     N ( 1.00)

     No symmetry found


                                    s                        frac. trans.

      isym =  1     identity                                     

 cryst.   s( 1) = (     1          0          0      )
                  (     0          1          0      )
                  (     0          0          1      )

 cart.    s( 1) = (  1.0000000 -0.0000000  0.0000000 )
                  (  0.0000000  1.0000000  0.0000000 )
                  (  0.0000000  0.0000000  1.0000000 )


     point group C_1 (1)    
     there are  1 classes
     the character table:

       E    
A      1.00

     the symmetry operations in each class and the name of the first element:

     E        1
          identity                                               

   Cartesian axes

     site n.     atom                  positions (alat units)
         1        Cr     tau(   1) = (   0.7857107   0.1237095   3.1876165  )
         2        N      tau(   2) = (   0.2856915   0.4123970   2.7734614  )
         3        N      tau(   3) = (   0.2856784   0.4124021   3.6067772  )
         4        N      tau(   4) = (   0.7857285   0.1236934   4.4422590  )
         5        N      tau(   5) = (  -0.2143006   0.7010706   1.9453468  )
         6        Si     tau(   6) = (   0.2857128   0.4123877   2.1473459  )
         7        Si     tau(   7) = (   0.2857457   0.4123587   4.2372170  )

   Crystallographic axes

     site n.     atom                  positions (cryst. coord.)
         1        Cr     tau(   1) = (  0.8571344  0.1428475  0.4278256  )
         2        N      tau(   2) = (  0.5237890  0.4761951  0.3722398  )
         3        N      tau(   3) = (  0.5237789  0.4762009  0.4840832  )
         4        N      tau(   4) = (  0.8571429  0.1428289  0.5962173  )
         5        N      tau(   5) = (  0.1904627  0.8095266  0.2610945  )
         6        Si     tau(   6) = (  0.5238049  0.4761843  0.2882058  )
         7        Si     tau(   7) = (  0.5238211  0.4761508  0.5686976  )

     number of k points=   261
                       cart. coord. in units 2pi/alat
        k(    1) = (   0.0000000   0.0000000   0.0000000), wk =   0.0076628
        k(    2) = (   0.0033333   0.0057735   0.0000000), wk =   0.0076628
        k(    3) = (   0.0066667   0.0115470   0.0000000), wk =   0.0076628
        k(    4) = (   0.0100000   0.0173205   0.0000000), wk =   0.0076628
        k(    5) = (   0.0133333   0.0230940   0.0000000), wk =   0.0076628
        k(    6) = (   0.0166667   0.0288675   0.0000000), wk =   0.0076628
        k(    7) = (   0.0200000   0.0346410   0.0000000), wk =   0.0076628
        k(    8) = (   0.0233333   0.0404145   0.0000000), wk =   0.0076628
        k(    9) = (   0.0266667   0.0461880   0.0000000), wk =   0.0076628
        k(   10) = (   0.0300000   0.0519615   0.0000000), wk =   0.0076628
        k(   11) = (   0.0333333   0.0577350   0.0000000), wk =   0.0076628
        k(   12) = (   0.0366667   0.0635085   0.0000000), wk =   0.0076628
        k(   13) = (   0.0400000   0.0692820   0.0000000), wk =   0.0076628
        k(   14) = (   0.0433333   0.0750555   0.0000000), wk =   0.0076628
        k(   15) = (   0.0466667   0.0808290   0.0000000), wk =   0.0076628
        k(   16) = (   0.0500000   0.0866025   0.0000000), wk =   0.0076628
        k(   17) = (   0.0533333   0.0923760   0.0000000), wk =   0.0076628
        k(   18) = (   0.0566667   0.0981495   0.0000000), wk =   0.0076628
        k(   19) = (   0.0600000   0.1039230   0.0000000), wk =   0.0076628
        k(   20) = (   0.0633333   0.1096966   0.0000000), wk =   0.0076628
        k(   21) = (   0.0666667   0.1154701   0.0000000), wk =   0.0076628
        k(   22) = (   0.0700000   0.1212436   0.0000000), wk =   0.0076628
        k(   23) = (   0.0733333   0.1270171   0.0000000), wk =   0.0076628
        k(   24) = (   0.0766667   0.1327906   0.0000000), wk =   0.0076628
        k(   25) = (   0.0800000   0.1385641   0.0000000), wk =   0.0076628
        k(   26) = (   0.0833333   0.1443376   0.0000000), wk =   0.0076628
        k(   27) = (   0.0866667   0.1501111   0.0000000), wk =   0.0076628
        k(   28) = (   0.0900000   0.1558846   0.0000000), wk =   0.0076628
        k(   29) = (   0.0933333   0.1616581   0.0000000), wk =   0.0076628
        k(   30) = (   0.0966667   0.1674316   0.0000000), wk =   0.0076628
        k(   31) = (   0.1000000   0.1732051   0.0000000), wk =   0.0076628
        k(   32) = (   0.1033333   0.1789786   0.0000000), wk =   0.0076628
        k(   33) = (   0.1066667   0.1847521   0.0000000), wk =   0.0076628
        k(   34) = (   0.1100000   0.1905256   0.0000000), wk =   0.0076628
        k(   35) = (   0.1133333   0.1962991   0.0000000), wk =   0.0076628
        k(   36) = (   0.1166667   0.2020726   0.0000000), wk =   0.0076628
        k(   37) = (   0.1200000   0.2078461   0.0000000), wk =   0.0076628
        k(   38) = (   0.1233333   0.2136196   0.0000000), wk =   0.0076628
        k(   39) = (   0.1266667   0.2193931   0.0000000), wk =   0.0076628
        k(   40) = (   0.1300000   0.2251666   0.0000000), wk =   0.0076628
        k(   41) = (   0.1333333   0.2309401   0.0000000), wk =   0.0076628
        k(   42) = (   0.1366667   0.2367136   0.0000000), wk =   0.0076628
        k(   43) = (   0.1400000   0.2424871   0.0000000), wk =   0.0076628
        k(   44) = (   0.1433333   0.2482606   0.0000000), wk =   0.0076628
        k(   45) = (   0.1466667   0.2540341   0.0000000), wk =   0.0076628
        k(   46) = (   0.1500000   0.2598076   0.0000000), wk =   0.0076628
        k(   47) = (   0.1533333   0.2655811   0.0000000), wk =   0.0076628
        k(   48) = (   0.1566667   0.2713546   0.0000000), wk =   0.0076628
        k(   49) = (   0.1600000   0.2771281   0.0000000), wk =   0.0076628
        k(   50) = (   0.1633333   0.2829016   0.0000000), wk =   0.0076628
        k(   51) = (   0.1666667   0.2886751   0.0000000), wk =   0.0076628
        k(   52) = (   0.1700000   0.2944486   0.0000000), wk =   0.0076628
        k(   53) = (   0.1733333   0.3002221   0.0000000), wk =   0.0076628
        k(   54) = (   0.1766667   0.3059956   0.0000000), wk =   0.0076628
        k(   55) = (   0.1800000   0.3117691   0.0000000), wk =   0.0076628
        k(   56) = (   0.1833333   0.3175426   0.0000000), wk =   0.0076628
        k(   57) = (   0.1866667   0.3233162   0.0000000), wk =   0.0076628
        k(   58) = (   0.1900000   0.3290897   0.0000000), wk =   0.0076628
        k(   59) = (   0.1933333   0.3348632   0.0000000), wk =   0.0076628
        k(   60) = (   0.1966667   0.3406367   0.0000000), wk =   0.0076628
        k(   61) = (   0.2000000   0.3464102   0.0000000), wk =   0.0076628
        k(   62) = (   0.2033333   0.3521837   0.0000000), wk =   0.0076628
        k(   63) = (   0.2066667   0.3579572   0.0000000), wk =   0.0076628
        k(   64) = (   0.2100000   0.3637307   0.0000000), wk =   0.0076628
        k(   65) = (   0.2133333   0.3695042   0.0000000), wk =   0.0076628
        k(   66) = (   0.2166667   0.3752777   0.0000000), wk =   0.0076628
        k(   67) = (   0.2200000   0.3810512   0.0000000), wk =   0.0076628
        k(   68) = (   0.2233333   0.3868247   0.0000000), wk =   0.0076628
        k(   69) = (   0.2266667   0.3925982   0.0000000), wk =   0.0076628
        k(   70) = (   0.2300000   0.3983717   0.0000000), wk =   0.0076628
        k(   71) = (   0.2333333   0.4041452   0.0000000), wk =   0.0076628
        k(   72) = (   0.2366667   0.4099187   0.0000000), wk =   0.0076628
        k(   73) = (   0.2400000   0.4156922   0.0000000), wk =   0.0076628
        k(   74) = (   0.2433333   0.4214657   0.0000000), wk =   0.0076628
        k(   75) = (   0.2466667   0.4272392   0.0000000), wk =   0.0076628
        k(   76) = (   0.2500000   0.4330127   0.0000000), wk =   0.0076628
        k(   77) = (   0.2533333   0.4387862   0.0000000), wk =   0.0076628
        k(   78) = (   0.2566667   0.4445597   0.0000000), wk =   0.0076628
        k(   79) = (   0.2600000   0.4503332   0.0000000), wk =   0.0076628
        k(   80) = (   0.2633333   0.4561067   0.0000000), wk =   0.0076628
        k(   81) = (   0.2666667   0.4618802   0.0000000), wk =   0.0076628
        k(   82) = (   0.2700000   0.4676537   0.0000000), wk =   0.0076628
        k(   83) = (   0.2733333   0.4734272   0.0000000), wk =   0.0076628
        k(   84) = (   0.2766667   0.4792007   0.0000000), wk =   0.0076628
        k(   85) = (   0.2800000   0.4849742   0.0000000), wk =   0.0076628
        k(   86) = (   0.2833333   0.4907477   0.0000000), wk =   0.0076628
        k(   87) = (   0.2866667   0.4965212   0.0000000), wk =   0.0076628
        k(   88) = (   0.2900000   0.5022947   0.0000000), wk =   0.0076628
        k(   89) = (   0.2933333   0.5080682   0.0000000), wk =   0.0076628
        k(   90) = (   0.2966667   0.5138417   0.0000000), wk =   0.0076628
        k(   91) = (   0.3000000   0.5196152   0.0000000), wk =   0.0076628
        k(   92) = (   0.3033333   0.5253887   0.0000000), wk =   0.0076628
        k(   93) = (   0.3066667   0.5311622   0.0000000), wk =   0.0076628
        k(   94) = (   0.3100000   0.5369358   0.0000000), wk =   0.0076628
        k(   95) = (   0.3133333   0.5427093   0.0000000), wk =   0.0076628
        k(   96) = (   0.3166667   0.5484828   0.0000000), wk =   0.0076628
        k(   97) = (   0.3200000   0.5542563   0.0000000), wk =   0.0076628
        k(   98) = (   0.3233333   0.5600298   0.0000000), wk =   0.0076628
        k(   99) = (   0.3266667   0.5658033   0.0000000), wk =   0.0076628
        k(  100) = (   0.3300000   0.5715768   0.0000000), wk =   0.0076628
        k(  101) = (   0.3333333   0.5773503   0.0000000), wk =   0.0076628
        k(  102) = (   0.3361111   0.5725390   0.0000000), wk =   0.0076628
        k(  103) = (   0.3388889   0.5677278   0.0000000), wk =   0.0076628
        k(  104) = (   0.3416667   0.5629165   0.0000000), wk =   0.0076628
        k(  105) = (   0.3444444   0.5581053   0.0000000), wk =   0.0076628
        k(  106) = (   0.3472222   0.5532940   0.0000000), wk =   0.0076628
        k(  107) = (   0.3500000   0.5484828   0.0000000), wk =   0.0076628
        k(  108) = (   0.3527778   0.5436715   0.0000000), wk =   0.0076628
        k(  109) = (   0.3555556   0.5388603   0.0000000), wk =   0.0076628
        k(  110) = (   0.3583333   0.5340490   0.0000000), wk =   0.0076628
        k(  111) = (   0.3611111   0.5292377   0.0000000), wk =   0.0076628
        k(  112) = (   0.3638889   0.5244265   0.0000000), wk =   0.0076628
        k(  113) = (   0.3666667   0.5196152   0.0000000), wk =   0.0076628
        k(  114) = (   0.3694444   0.5148040   0.0000000), wk =   0.0076628
        k(  115) = (   0.3722222   0.5099927   0.0000000), wk =   0.0076628
        k(  116) = (   0.3750000   0.5051815   0.0000000), wk =   0.0076628
        k(  117) = (   0.3777778   0.5003702   0.0000000), wk =   0.0076628
        k(  118) = (   0.3805556   0.4955590   0.0000000), wk =   0.0076628
        k(  119) = (   0.3833333   0.4907477   0.0000000), wk =   0.0076628
        k(  120) = (   0.3861111   0.4859365   0.0000000), wk =   0.0076628
        k(  121) = (   0.3888889   0.4811252   0.0000000), wk =   0.0076628
        k(  122) = (   0.3916667   0.4763140   0.0000000), wk =   0.0076628
        k(  123) = (   0.3944444   0.4715027   0.0000000), wk =   0.0076628
        k(  124) = (   0.3972222   0.4666915   0.0000000), wk =   0.0076628
        k(  125) = (   0.4000000   0.4618802   0.0000000), wk =   0.0076628
        k(  126) = (   0.4027778   0.4570690   0.0000000), wk =   0.0076628
        k(  127) = (   0.4055556   0.4522577   0.0000000), wk =   0.0076628
        k(  128) = (   0.4083333   0.4474465   0.0000000), wk =   0.0076628
        k(  129) = (   0.4111111   0.4426352   0.0000000), wk =   0.0076628
        k(  130) = (   0.4138889   0.4378240   0.0000000), wk =   0.0076628
        k(  131) = (   0.4166667   0.4330127   0.0000000), wk =   0.0076628
        k(  132) = (   0.4194444   0.4282014   0.0000000), wk =   0.0076628
        k(  133) = (   0.4222222   0.4233902   0.0000000), wk =   0.0076628
        k(  134) = (   0.4250000   0.4185789   0.0000000), wk =   0.0076628
        k(  135) = (   0.4277778   0.4137677   0.0000000), wk =   0.0076628
        k(  136) = (   0.4305556   0.4089564   0.0000000), wk =   0.0076628
        k(  137) = (   0.4333333   0.4041452   0.0000000), wk =   0.0076628
        k(  138) = (   0.4361111   0.3993339   0.0000000), wk =   0.0076628
        k(  139) = (   0.4388889   0.3945227   0.0000000), wk =   0.0076628
        k(  140) = (   0.4416667   0.3897114   0.0000000), wk =   0.0076628
        k(  141) = (   0.4444444   0.3849002   0.0000000), wk =   0.0076628
        k(  142) = (   0.4472222   0.3800889   0.0000000), wk =   0.0076628
        k(  143) = (   0.4500000   0.3752777   0.0000000), wk =   0.0076628
        k(  144) = (   0.4527778   0.3704664   0.0000000), wk =   0.0076628
        k(  145) = (   0.4555556   0.3656552   0.0000000), wk =   0.0076628
        k(  146) = (   0.4583333   0.3608439   0.0000000), wk =   0.0076628
        k(  147) = (   0.4611111   0.3560327   0.0000000), wk =   0.0076628
        k(  148) = (   0.4638889   0.3512214   0.0000000), wk =   0.0076628
        k(  149) = (   0.4666667   0.3464102   0.0000000), wk =   0.0076628
        k(  150) = (   0.4694444   0.3415989   0.0000000), wk =   0.0076628
        k(  151) = (   0.4722222   0.3367877   0.0000000), wk =   0.0076628
        k(  152) = (   0.4750000   0.3319764   0.0000000), wk =   0.0076628
        k(  153) = (   0.4777778   0.3271652   0.0000000), wk =   0.0076628
        k(  154) = (   0.4805556   0.3223539   0.0000000), wk =   0.0076628
        k(  155) = (   0.4833333   0.3175426   0.0000000), wk =   0.0076628
        k(  156) = (   0.4861111   0.3127314   0.0000000), wk =   0.0076628
        k(  157) = (   0.4888889   0.3079201   0.0000000), wk =   0.0076628
        k(  158) = (   0.4916667   0.3031089   0.0000000), wk =   0.0076628
        k(  159) = (   0.4944444   0.2982976   0.0000000), wk =   0.0076628
        k(  160) = (   0.4972222   0.2934864   0.0000000), wk =   0.0076628
        k(  161) = (   0.5000000   0.2886751   0.0000000), wk =   0.0076628
        k(  162) = (   0.4950000   0.2857884   0.0000000), wk =   0.0076628
        k(  163) = (   0.4900000   0.2829016   0.0000000), wk =   0.0076628
        k(  164) = (   0.4850000   0.2800149   0.0000000), wk =   0.0076628
        k(  165) = (   0.4800000   0.2771281   0.0000000), wk =   0.0076628
        k(  166) = (   0.4750000   0.2742414   0.0000000), wk =   0.0076628
        k(  167) = (   0.4700000   0.2713546   0.0000000), wk =   0.0076628
        k(  168) = (   0.4650000   0.2684679   0.0000000), wk =   0.0076628
        k(  169) = (   0.4600000   0.2655811   0.0000000), wk =   0.0076628
        k(  170) = (   0.4550000   0.2626944   0.0000000), wk =   0.0076628
        k(  171) = (   0.4500000   0.2598076   0.0000000), wk =   0.0076628
        k(  172) = (   0.4450000   0.2569209   0.0000000), wk =   0.0076628
        k(  173) = (   0.4400000   0.2540341   0.0000000), wk =   0.0076628
        k(  174) = (   0.4350000   0.2511474   0.0000000), wk =   0.0076628
        k(  175) = (   0.4300000   0.2482606   0.0000000), wk =   0.0076628
        k(  176) = (   0.4250000   0.2453739   0.0000000), wk =   0.0076628
        k(  177) = (   0.4200000   0.2424871   0.0000000), wk =   0.0076628
        k(  178) = (   0.4150000   0.2396004   0.0000000), wk =   0.0076628
        k(  179) = (   0.4100000   0.2367136   0.0000000), wk =   0.0076628
        k(  180) = (   0.4050000   0.2338269   0.0000000), wk =   0.0076628
        k(  181) = (   0.4000000   0.2309401   0.0000000), wk =   0.0076628
        k(  182) = (   0.3950000   0.2280534   0.0000000), wk =   0.0076628
        k(  183) = (   0.3900000   0.2251666   0.0000000), wk =   0.0076628
        k(  184) = (   0.3850000   0.2222799   0.0000000), wk =   0.0076628
        k(  185) = (   0.3800000   0.2193931   0.0000000), wk =   0.0076628
        k(  186) = (   0.3750000   0.2165064   0.0000000), wk =   0.0076628
        k(  187) = (   0.3700000   0.2136196   0.0000000), wk =   0.0076628
        k(  188) = (   0.3650000   0.2107328   0.0000000), wk =   0.0076628
        k(  189) = (   0.3600000   0.2078461   0.0000000), wk =   0.0076628
        k(  190) = (   0.3550000   0.2049593   0.0000000), wk =   0.0076628
        k(  191) = (   0.3500000   0.2020726   0.0000000), wk =   0.0076628
        k(  192) = (   0.3450000   0.1991858   0.0000000), wk =   0.0076628
        k(  193) = (   0.3400000   0.1962991   0.0000000), wk =   0.0076628
        k(  194) = (   0.3350000   0.1934123   0.0000000), wk =   0.0076628
        k(  195) = (   0.3300000   0.1905256   0.0000000), wk =   0.0076628
        k(  196) = (   0.3250000   0.1876388   0.0000000), wk =   0.0076628
        k(  197) = (   0.3200000   0.1847521   0.0000000), wk =   0.0076628
        k(  198) = (   0.3150000   0.1818653   0.0000000), wk =   0.0076628
        k(  199) = (   0.3100000   0.1789786   0.0000000), wk =   0.0076628
        k(  200) = (   0.3050000   0.1760918   0.0000000), wk =   0.0076628
        k(  201) = (   0.3000000   0.1732051   0.0000000), wk =   0.0076628
        k(  202) = (   0.2950000   0.1703183   0.0000000), wk =   0.0076628
        k(  203) = (   0.2900000   0.1674316   0.0000000), wk =   0.0076628
        k(  204) = (   0.2850000   0.1645448   0.0000000), wk =   0.0076628
        k(  205) = (   0.2800000   0.1616581   0.0000000), wk =   0.0076628
        k(  206) = (   0.2750000   0.1587713   0.0000000), wk =   0.0076628
        k(  207) = (   0.2700000   0.1558846   0.0000000), wk =   0.0076628
        k(  208) = (   0.2650000   0.1529978   0.0000000), wk =   0.0076628
        k(  209) = (   0.2600000   0.1501111   0.0000000), wk =   0.0076628
        k(  210) = (   0.2550000   0.1472243   0.0000000), wk =   0.0076628
        k(  211) = (   0.2500000   0.1443376   0.0000000), wk =   0.0076628
        k(  212) = (   0.2450000   0.1414508   0.0000000), wk =   0.0076628
        k(  213) = (   0.2400000   0.1385641   0.0000000), wk =   0.0076628
        k(  214) = (   0.2350000   0.1356773   0.0000000), wk =   0.0076628
        k(  215) = (   0.2300000   0.1327906   0.0000000), wk =   0.0076628
        k(  216) = (   0.2250000   0.1299038   0.0000000), wk =   0.0076628
        k(  217) = (   0.2200000   0.1270171   0.0000000), wk =   0.0076628
        k(  218) = (   0.2150000   0.1241303   0.0000000), wk =   0.0076628
        k(  219) = (   0.2100000   0.1212436   0.0000000), wk =   0.0076628
        k(  220) = (   0.2050000   0.1183568   0.0000000), wk =   0.0076628
        k(  221) = (   0.2000000   0.1154701   0.0000000), wk =   0.0076628
        k(  222) = (   0.1950000   0.1125833   0.0000000), wk =   0.0076628
        k(  223) = (   0.1900000   0.1096966   0.0000000), wk =   0.0076628
        k(  224) = (   0.1850000   0.1068098   0.0000000), wk =   0.0076628
        k(  225) = (   0.1800000   0.1039230   0.0000000), wk =   0.0076628
        k(  226) = (   0.1750000   0.1010363   0.0000000), wk =   0.0076628
        k(  227) = (   0.1700000   0.0981495   0.0000000), wk =   0.0076628
        k(  228) = (   0.1650000   0.0952628   0.0000000), wk =   0.0076628
        k(  229) = (   0.1600000   0.0923760   0.0000000), wk =   0.0076628
        k(  230) = (   0.1550000   0.0894893   0.0000000), wk =   0.0076628
        k(  231) = (   0.1500000   0.0866025   0.0000000), wk =   0.0076628
        k(  232) = (   0.1450000   0.0837158   0.0000000), wk =   0.0076628
        k(  233) = (   0.1400000   0.0808290   0.0000000), wk =   0.0076628
        k(  234) = (   0.1350000   0.0779423   0.0000000), wk =   0.0076628
        k(  235) = (   0.1300000   0.0750555   0.0000000), wk =   0.0076628
        k(  236) = (   0.1250000   0.0721688   0.0000000), wk =   0.0076628
        k(  237) = (   0.1200000   0.0692820   0.0000000), wk =   0.0076628
        k(  238) = (   0.1150000   0.0663953   0.0000000), wk =   0.0076628
        k(  239) = (   0.1100000   0.0635085   0.0000000), wk =   0.0076628
        k(  240) = (   0.1050000   0.0606218   0.0000000), wk =   0.0076628
        k(  241) = (   0.1000000   0.0577350   0.0000000), wk =   0.0076628
        k(  242) = (   0.0950000   0.0548483   0.0000000), wk =   0.0076628
        k(  243) = (   0.0900000   0.0519615   0.0000000), wk =   0.0076628
        k(  244) = (   0.0850000   0.0490748   0.0000000), wk =   0.0076628
        k(  245) = (   0.0800000   0.0461880   0.0000000), wk =   0.0076628
        k(  246) = (   0.0750000   0.0433013   0.0000000), wk =   0.0076628
        k(  247) = (   0.0700000   0.0404145   0.0000000), wk =   0.0076628
        k(  248) = (   0.0650000   0.0375278   0.0000000), wk =   0.0076628
        k(  249) = (   0.0600000   0.0346410   0.0000000), wk =   0.0076628
        k(  250) = (   0.0550000   0.0317543   0.0000000), wk =   0.0076628
        k(  251) = (   0.0500000   0.0288675   0.0000000), wk =   0.0076628
        k(  252) = (   0.0450000   0.0259808   0.0000000), wk =   0.0076628
        k(  253) = (   0.0400000   0.0230940   0.0000000), wk =   0.0076628
        k(  254) = (   0.0350000   0.0202073   0.0000000), wk =   0.0076628
        k(  255) = (   0.0300000   0.0173205   0.0000000), wk =   0.0076628
        k(  256) = (   0.0250000   0.0144338   0.0000000), wk =   0.0076628
        k(  257) = (   0.0200000   0.0115470   0.0000000), wk =   0.0076628
        k(  258) = (   0.0150000   0.0086603   0.0000000), wk =   0.0076628
        k(  259) = (   0.0100000   0.0057735   0.0000000), wk =   0.0076628
        k(  260) = (   0.0050000   0.0028868   0.0000000), wk =   0.0076628
        k(  261) = (   0.0000000   0.0000000   0.0000000), wk =   0.0076628

                       cryst. coord.
        k(    1) = (   0.0000000   0.0000000   0.0000000), wk =   0.0076628
        k(    2) = (   0.0033333   0.0033333   0.0000000), wk =   0.0076628
        k(    3) = (   0.0066667   0.0066667   0.0000000), wk =   0.0076628
        k(    4) = (   0.0100000   0.0100000   0.0000000), wk =   0.0076628
        k(    5) = (   0.0133333   0.0133333   0.0000000), wk =   0.0076628
        k(    6) = (   0.0166667   0.0166667   0.0000000), wk =   0.0076628
        k(    7) = (   0.0200000   0.0200000   0.0000000), wk =   0.0076628
        k(    8) = (   0.0233333   0.0233333   0.0000000), wk =   0.0076628
        k(    9) = (   0.0266667   0.0266667   0.0000000), wk =   0.0076628
        k(   10) = (   0.0300000   0.0300000   0.0000000), wk =   0.0076628
        k(   11) = (   0.0333333   0.0333333   0.0000000), wk =   0.0076628
        k(   12) = (   0.0366667   0.0366667   0.0000000), wk =   0.0076628
        k(   13) = (   0.0400000   0.0400000   0.0000000), wk =   0.0076628
        k(   14) = (   0.0433333   0.0433333   0.0000000), wk =   0.0076628
        k(   15) = (   0.0466667   0.0466667   0.0000000), wk =   0.0076628
        k(   16) = (   0.0500000   0.0500000   0.0000000), wk =   0.0076628
        k(   17) = (   0.0533333   0.0533333   0.0000000), wk =   0.0076628
        k(   18) = (   0.0566667   0.0566667   0.0000000), wk =   0.0076628
        k(   19) = (   0.0600000   0.0600000   0.0000000), wk =   0.0076628
        k(   20) = (   0.0633333   0.0633333   0.0000000), wk =   0.0076628
        k(   21) = (   0.0666667   0.0666667   0.0000000), wk =   0.0076628
        k(   22) = (   0.0700000   0.0700000   0.0000000), wk =   0.0076628
        k(   23) = (   0.0733333   0.0733333   0.0000000), wk =   0.0076628
        k(   24) = (   0.0766667   0.0766667   0.0000000), wk =   0.0076628
        k(   25) = (   0.0800000   0.0800000   0.0000000), wk =   0.0076628
        k(   26) = (   0.0833333   0.0833333   0.0000000), wk =   0.0076628
        k(   27) = (   0.0866667   0.0866667   0.0000000), wk =   0.0076628
        k(   28) = (   0.0900000   0.0900000   0.0000000), wk =   0.0076628
        k(   29) = (   0.0933333   0.0933333   0.0000000), wk =   0.0076628
        k(   30) = (   0.0966667   0.0966667   0.0000000), wk =   0.0076628
        k(   31) = (   0.1000000   0.1000000   0.0000000), wk =   0.0076628
        k(   32) = (   0.1033333   0.1033333   0.0000000), wk =   0.0076628
        k(   33) = (   0.1066667   0.1066667   0.0000000), wk =   0.0076628
        k(   34) = (   0.1100000   0.1100000   0.0000000), wk =   0.0076628
        k(   35) = (   0.1133333   0.1133333   0.0000000), wk =   0.0076628
        k(   36) = (   0.1166667   0.1166667   0.0000000), wk =   0.0076628
        k(   37) = (   0.1200000   0.1200000   0.0000000), wk =   0.0076628
        k(   38) = (   0.1233333   0.1233333   0.0000000), wk =   0.0076628
        k(   39) = (   0.1266667   0.1266667   0.0000000), wk =   0.0076628
        k(   40) = (   0.1300000   0.1300000   0.0000000), wk =   0.0076628
        k(   41) = (   0.1333333   0.1333333   0.0000000), wk =   0.0076628
        k(   42) = (   0.1366667   0.1366667   0.0000000), wk =   0.0076628
        k(   43) = (   0.1400000   0.1400000   0.0000000), wk =   0.0076628
        k(   44) = (   0.1433333   0.1433333   0.0000000), wk =   0.0076628
        k(   45) = (   0.1466667   0.1466667   0.0000000), wk =   0.0076628
        k(   46) = (   0.1500000   0.1500000   0.0000000), wk =   0.0076628
        k(   47) = (   0.1533333   0.1533333   0.0000000), wk =   0.0076628
        k(   48) = (   0.1566667   0.1566667   0.0000000), wk =   0.0076628
        k(   49) = (   0.1600000   0.1600000   0.0000000), wk =   0.0076628
        k(   50) = (   0.1633333   0.1633333   0.0000000), wk =   0.0076628
        k(   51) = (   0.1666667   0.1666667   0.0000000), wk =   0.0076628
        k(   52) = (   0.1700000   0.1700000   0.0000000), wk =   0.0076628
        k(   53) = (   0.1733333   0.1733333   0.0000000), wk =   0.0076628
        k(   54) = (   0.1766667   0.1766667   0.0000000), wk =   0.0076628
        k(   55) = (   0.1800000   0.1800000   0.0000000), wk =   0.0076628
        k(   56) = (   0.1833333   0.1833333   0.0000000), wk =   0.0076628
        k(   57) = (   0.1866667   0.1866667   0.0000000), wk =   0.0076628
        k(   58) = (   0.1900000   0.1900000   0.0000000), wk =   0.0076628
        k(   59) = (   0.1933333   0.1933333   0.0000000), wk =   0.0076628
        k(   60) = (   0.1966667   0.1966667   0.0000000), wk =   0.0076628
        k(   61) = (   0.2000000   0.2000000   0.0000000), wk =   0.0076628
        k(   62) = (   0.2033333   0.2033333   0.0000000), wk =   0.0076628
        k(   63) = (   0.2066667   0.2066667   0.0000000), wk =   0.0076628
        k(   64) = (   0.2100000   0.2100000   0.0000000), wk =   0.0076628
        k(   65) = (   0.2133333   0.2133333   0.0000000), wk =   0.0076628
        k(   66) = (   0.2166667   0.2166667   0.0000000), wk =   0.0076628
        k(   67) = (   0.2200000   0.2200000   0.0000000), wk =   0.0076628
        k(   68) = (   0.2233333   0.2233333   0.0000000), wk =   0.0076628
        k(   69) = (   0.2266667   0.2266667   0.0000000), wk =   0.0076628
        k(   70) = (   0.2300000   0.2300000   0.0000000), wk =   0.0076628
        k(   71) = (   0.2333333   0.2333333   0.0000000), wk =   0.0076628
        k(   72) = (   0.2366667   0.2366667   0.0000000), wk =   0.0076628
        k(   73) = (   0.2400000   0.2400000   0.0000000), wk =   0.0076628
        k(   74) = (   0.2433333   0.2433333   0.0000000), wk =   0.0076628
        k(   75) = (   0.2466667   0.2466667   0.0000000), wk =   0.0076628
        k(   76) = (   0.2500000   0.2500000   0.0000000), wk =   0.0076628
        k(   77) = (   0.2533333   0.2533333   0.0000000), wk =   0.0076628
        k(   78) = (   0.2566667   0.2566667   0.0000000), wk =   0.0076628
        k(   79) = (   0.2600000   0.2600000   0.0000000), wk =   0.0076628
        k(   80) = (   0.2633333   0.2633333   0.0000000), wk =   0.0076628
        k(   81) = (   0.2666667   0.2666667   0.0000000), wk =   0.0076628
        k(   82) = (   0.2700000   0.2700000   0.0000000), wk =   0.0076628
        k(   83) = (   0.2733333   0.2733333   0.0000000), wk =   0.0076628
        k(   84) = (   0.2766667   0.2766667   0.0000000), wk =   0.0076628
        k(   85) = (   0.2800000   0.2800000   0.0000000), wk =   0.0076628
        k(   86) = (   0.2833333   0.2833333   0.0000000), wk =   0.0076628
        k(   87) = (   0.2866667   0.2866667   0.0000000), wk =   0.0076628
        k(   88) = (   0.2900000   0.2900000   0.0000000), wk =   0.0076628
        k(   89) = (   0.2933333   0.2933333   0.0000000), wk =   0.0076628
        k(   90) = (   0.2966667   0.2966667   0.0000000), wk =   0.0076628
        k(   91) = (   0.3000000   0.3000000   0.0000000), wk =   0.0076628
        k(   92) = (   0.3033333   0.3033333   0.0000000), wk =   0.0076628
        k(   93) = (   0.3066667   0.3066667   0.0000000), wk =   0.0076628
        k(   94) = (   0.3100000   0.3100000   0.0000000), wk =   0.0076628
        k(   95) = (   0.3133333   0.3133333   0.0000000), wk =   0.0076628
        k(   96) = (   0.3166667   0.3166667   0.0000000), wk =   0.0076628
        k(   97) = (   0.3200000   0.3200000   0.0000000), wk =   0.0076628
        k(   98) = (   0.3233333   0.3233333   0.0000000), wk =   0.0076628
        k(   99) = (   0.3266667   0.3266667   0.0000000), wk =   0.0076628
        k(  100) = (   0.3300000   0.3300000   0.0000000), wk =   0.0076628
        k(  101) = (   0.3333333   0.3333333   0.0000000), wk =   0.0076628
        k(  102) = (   0.3361111   0.3277778   0.0000000), wk =   0.0076628
        k(  103) = (   0.3388889   0.3222222   0.0000000), wk =   0.0076628
        k(  104) = (   0.3416667   0.3166667   0.0000000), wk =   0.0076628
        k(  105) = (   0.3444444   0.3111111   0.0000000), wk =   0.0076628
        k(  106) = (   0.3472222   0.3055556   0.0000000), wk =   0.0076628
        k(  107) = (   0.3500000   0.3000000   0.0000000), wk =   0.0076628
        k(  108) = (   0.3527778   0.2944444   0.0000000), wk =   0.0076628
        k(  109) = (   0.3555556   0.2888889   0.0000000), wk =   0.0076628
        k(  110) = (   0.3583333   0.2833333   0.0000000), wk =   0.0076628
        k(  111) = (   0.3611111   0.2777778   0.0000000), wk =   0.0076628
        k(  112) = (   0.3638889   0.2722222   0.0000000), wk =   0.0076628
        k(  113) = (   0.3666667   0.2666667   0.0000000), wk =   0.0076628
        k(  114) = (   0.3694444   0.2611111   0.0000000), wk =   0.0076628
        k(  115) = (   0.3722222   0.2555556   0.0000000), wk =   0.0076628
        k(  116) = (   0.3750000   0.2500000   0.0000000), wk =   0.0076628
        k(  117) = (   0.3777778   0.2444444   0.0000000), wk =   0.0076628
        k(  118) = (   0.3805556   0.2388889   0.0000000), wk =   0.0076628
        k(  119) = (   0.3833333   0.2333333   0.0000000), wk =   0.0076628
        k(  120) = (   0.3861111   0.2277778   0.0000000), wk =   0.0076628
        k(  121) = (   0.3888889   0.2222222   0.0000000), wk =   0.0076628
        k(  122) = (   0.3916667   0.2166667   0.0000000), wk =   0.0076628
        k(  123) = (   0.3944444   0.2111111   0.0000000), wk =   0.0076628
        k(  124) = (   0.3972222   0.2055556   0.0000000), wk =   0.0076628
        k(  125) = (   0.4000000   0.2000000   0.0000000), wk =   0.0076628
        k(  126) = (   0.4027778   0.1944444   0.0000000), wk =   0.0076628
        k(  127) = (   0.4055556   0.1888889   0.0000000), wk =   0.0076628
        k(  128) = (   0.4083333   0.1833333   0.0000000), wk =   0.0076628
        k(  129) = (   0.4111111   0.1777778   0.0000000), wk =   0.0076628
        k(  130) = (   0.4138889   0.1722222   0.0000000), wk =   0.0076628
        k(  131) = (   0.4166667   0.1666667   0.0000000), wk =   0.0076628
        k(  132) = (   0.4194444   0.1611111   0.0000000), wk =   0.0076628
        k(  133) = (   0.4222222   0.1555556   0.0000000), wk =   0.0076628
        k(  134) = (   0.4250000   0.1500000   0.0000000), wk =   0.0076628
        k(  135) = (   0.4277778   0.1444444   0.0000000), wk =   0.0076628
        k(  136) = (   0.4305556   0.1388889   0.0000000), wk =   0.0076628
        k(  137) = (   0.4333333   0.1333333   0.0000000), wk =   0.0076628
        k(  138) = (   0.4361111   0.1277778   0.0000000), wk =   0.0076628
        k(  139) = (   0.4388889   0.1222222   0.0000000), wk =   0.0076628
        k(  140) = (   0.4416667   0.1166667   0.0000000), wk =   0.0076628
        k(  141) = (   0.4444444   0.1111111   0.0000000), wk =   0.0076628
        k(  142) = (   0.4472222   0.1055556   0.0000000), wk =   0.0076628
        k(  143) = (   0.4500000   0.1000000   0.0000000), wk =   0.0076628
        k(  144) = (   0.4527778   0.0944444   0.0000000), wk =   0.0076628
        k(  145) = (   0.4555556   0.0888889   0.0000000), wk =   0.0076628
        k(  146) = (   0.4583333   0.0833333   0.0000000), wk =   0.0076628
        k(  147) = (   0.4611111   0.0777778   0.0000000), wk =   0.0076628
        k(  148) = (   0.4638889   0.0722222   0.0000000), wk =   0.0076628
        k(  149) = (   0.4666667   0.0666667   0.0000000), wk =   0.0076628
        k(  150) = (   0.4694444   0.0611111   0.0000000), wk =   0.0076628
        k(  151) = (   0.4722222   0.0555556   0.0000000), wk =   0.0076628
        k(  152) = (   0.4750000   0.0500000   0.0000000), wk =   0.0076628
        k(  153) = (   0.4777778   0.0444444   0.0000000), wk =   0.0076628
        k(  154) = (   0.4805556   0.0388889   0.0000000), wk =   0.0076628
        k(  155) = (   0.4833333   0.0333333   0.0000000), wk =   0.0076628
        k(  156) = (   0.4861111   0.0277778   0.0000000), wk =   0.0076628
        k(  157) = (   0.4888889   0.0222222   0.0000000), wk =   0.0076628
        k(  158) = (   0.4916667   0.0166667   0.0000000), wk =   0.0076628
        k(  159) = (   0.4944444   0.0111111   0.0000000), wk =   0.0076628
        k(  160) = (   0.4972222   0.0055556   0.0000000), wk =   0.0076628
        k(  161) = (   0.5000000  -0.0000000   0.0000000), wk =   0.0076628
        k(  162) = (   0.4950000  -0.0000000   0.0000000), wk =   0.0076628
        k(  163) = (   0.4900000  -0.0000000   0.0000000), wk =   0.0076628
        k(  164) = (   0.4850000  -0.0000000   0.0000000), wk =   0.0076628
        k(  165) = (   0.4800000  -0.0000000   0.0000000), wk =   0.0076628
        k(  166) = (   0.4750000  -0.0000000   0.0000000), wk =   0.0076628
        k(  167) = (   0.4700000  -0.0000000   0.0000000), wk =   0.0076628
        k(  168) = (   0.4650000  -0.0000000   0.0000000), wk =   0.0076628
        k(  169) = (   0.4600000  -0.0000000   0.0000000), wk =   0.0076628
        k(  170) = (   0.4550000  -0.0000000   0.0000000), wk =   0.0076628
        k(  171) = (   0.4500000  -0.0000000   0.0000000), wk =   0.0076628
        k(  172) = (   0.4450000  -0.0000000   0.0000000), wk =   0.0076628
        k(  173) = (   0.4400000  -0.0000000   0.0000000), wk =   0.0076628
        k(  174) = (   0.4350000  -0.0000000   0.0000000), wk =   0.0076628
        k(  175) = (   0.4300000  -0.0000000   0.0000000), wk =   0.0076628
        k(  176) = (   0.4250000  -0.0000000   0.0000000), wk =   0.0076628
        k(  177) = (   0.4200000  -0.0000000   0.0000000), wk =   0.0076628
        k(  178) = (   0.4150000  -0.0000000   0.0000000), wk =   0.0076628
        k(  179) = (   0.4100000  -0.0000000   0.0000000), wk =   0.0076628
        k(  180) = (   0.4050000  -0.0000000   0.0000000), wk =   0.0076628
        k(  181) = (   0.4000000  -0.0000000   0.0000000), wk =   0.0076628
        k(  182) = (   0.3950000  -0.0000000   0.0000000), wk =   0.0076628
        k(  183) = (   0.3900000  -0.0000000   0.0000000), wk =   0.0076628
        k(  184) = (   0.3850000  -0.0000000   0.0000000), wk =   0.0076628
        k(  185) = (   0.3800000  -0.0000000   0.0000000), wk =   0.0076628
        k(  186) = (   0.3750000  -0.0000000   0.0000000), wk =   0.0076628
        k(  187) = (   0.3700000  -0.0000000   0.0000000), wk =   0.0076628
        k(  188) = (   0.3650000  -0.0000000   0.0000000), wk =   0.0076628
        k(  189) = (   0.3600000  -0.0000000   0.0000000), wk =   0.0076628
        k(  190) = (   0.3550000  -0.0000000   0.0000000), wk =   0.0076628
        k(  191) = (   0.3500000  -0.0000000   0.0000000), wk =   0.0076628
        k(  192) = (   0.3450000  -0.0000000   0.0000000), wk =   0.0076628
        k(  193) = (   0.3400000  -0.0000000   0.0000000), wk =   0.0076628
        k(  194) = (   0.3350000  -0.0000000   0.0000000), wk =   0.0076628
        k(  195) = (   0.3300000  -0.0000000   0.0000000), wk =   0.0076628
        k(  196) = (   0.3250000  -0.0000000   0.0000000), wk =   0.0076628
        k(  197) = (   0.3200000  -0.0000000   0.0000000), wk =   0.0076628
        k(  198) = (   0.3150000  -0.0000000   0.0000000), wk =   0.0076628
        k(  199) = (   0.3100000  -0.0000000   0.0000000), wk =   0.0076628
        k(  200) = (   0.3050000  -0.0000000   0.0000000), wk =   0.0076628
        k(  201) = (   0.3000000  -0.0000000   0.0000000), wk =   0.0076628
        k(  202) = (   0.2950000  -0.0000000   0.0000000), wk =   0.0076628
        k(  203) = (   0.2900000  -0.0000000   0.0000000), wk =   0.0076628
        k(  204) = (   0.2850000  -0.0000000   0.0000000), wk =   0.0076628
        k(  205) = (   0.2800000  -0.0000000   0.0000000), wk =   0.0076628
        k(  206) = (   0.2750000  -0.0000000   0.0000000), wk =   0.0076628
        k(  207) = (   0.2700000  -0.0000000   0.0000000), wk =   0.0076628
        k(  208) = (   0.2650000  -0.0000000   0.0000000), wk =   0.0076628
        k(  209) = (   0.2600000  -0.0000000   0.0000000), wk =   0.0076628
        k(  210) = (   0.2550000  -0.0000000   0.0000000), wk =   0.0076628
        k(  211) = (   0.2500000  -0.0000000   0.0000000), wk =   0.0076628
        k(  212) = (   0.2450000  -0.0000000   0.0000000), wk =   0.0076628
        k(  213) = (   0.2400000  -0.0000000   0.0000000), wk =   0.0076628
        k(  214) = (   0.2350000  -0.0000000   0.0000000), wk =   0.0076628
        k(  215) = (   0.2300000  -0.0000000   0.0000000), wk =   0.0076628
        k(  216) = (   0.2250000  -0.0000000   0.0000000), wk =   0.0076628
        k(  217) = (   0.2200000  -0.0000000   0.0000000), wk =   0.0076628
        k(  218) = (   0.2150000  -0.0000000   0.0000000), wk =   0.0076628
        k(  219) = (   0.2100000  -0.0000000   0.0000000), wk =   0.0076628
        k(  220) = (   0.2050000  -0.0000000   0.0000000), wk =   0.0076628
        k(  221) = (   0.2000000  -0.0000000   0.0000000), wk =   0.0076628
        k(  222) = (   0.1950000  -0.0000000   0.0000000), wk =   0.0076628
        k(  223) = (   0.1900000  -0.0000000   0.0000000), wk =   0.0076628
        k(  224) = (   0.1850000  -0.0000000   0.0000000), wk =   0.0076628
        k(  225) = (   0.1800000  -0.0000000   0.0000000), wk =   0.0076628
        k(  226) = (   0.1750000  -0.0000000   0.0000000), wk =   0.0076628
        k(  227) = (   0.1700000  -0.0000000   0.0000000), wk =   0.0076628
        k(  228) = (   0.1650000  -0.0000000   0.0000000), wk =   0.0076628
        k(  229) = (   0.1600000  -0.0000000   0.0000000), wk =   0.0076628
        k(  230) = (   0.1550000  -0.0000000   0.0000000), wk =   0.0076628
        k(  231) = (   0.1500000  -0.0000000   0.0000000), wk =   0.0076628
        k(  232) = (   0.1450000  -0.0000000   0.0000000), wk =   0.0076628
        k(  233) = (   0.1400000  -0.0000000   0.0000000), wk =   0.0076628
        k(  234) = (   0.1350000  -0.0000000   0.0000000), wk =   0.0076628
        k(  235) = (   0.1300000  -0.0000000   0.0000000), wk =   0.0076628
        k(  236) = (   0.1250000  -0.0000000   0.0000000), wk =   0.0076628
        k(  237) = (   0.1200000  -0.0000000   0.0000000), wk =   0.0076628
        k(  238) = (   0.1150000  -0.0000000   0.0000000), wk =   0.0076628
        k(  239) = (   0.1100000  -0.0000000   0.0000000), wk =   0.0076628
        k(  240) = (   0.1050000  -0.0000000   0.0000000), wk =   0.0076628
        k(  241) = (   0.1000000  -0.0000000   0.0000000), wk =   0.0076628
        k(  242) = (   0.0950000  -0.0000000   0.0000000), wk =   0.0076628
        k(  243) = (   0.0900000  -0.0000000   0.0000000), wk =   0.0076628
        k(  244) = (   0.0850000  -0.0000000   0.0000000), wk =   0.0076628
        k(  245) = (   0.0800000  -0.0000000   0.0000000), wk =   0.0076628
        k(  246) = (   0.0750000  -0.0000000   0.0000000), wk =   0.0076628
        k(  247) = (   0.0700000  -0.0000000   0.0000000), wk =   0.0076628
        k(  248) = (   0.0650000  -0.0000000   0.0000000), wk =   0.0076628
        k(  249) = (   0.0600000  -0.0000000   0.0000000), wk =   0.0076628
        k(  250) = (   0.0550000  -0.0000000   0.0000000), wk =   0.0076628
        k(  251) = (   0.0500000  -0.0000000   0.0000000), wk =   0.0076628
        k(  252) = (   0.0450000  -0.0000000   0.0000000), wk =   0.0076628
        k(  253) = (   0.0400000  -0.0000000   0.0000000), wk =   0.0076628
        k(  254) = (   0.0350000  -0.0000000   0.0000000), wk =   0.0076628
        k(  255) = (   0.0300000  -0.0000000   0.0000000), wk =   0.0076628
        k(  256) = (   0.0250000  -0.0000000   0.0000000), wk =   0.0076628
        k(  257) = (   0.0200000  -0.0000000   0.0000000), wk =   0.0076628
        k(  258) = (   0.0150000  -0.0000000   0.0000000), wk =   0.0076628
        k(  259) = (   0.0100000  -0.0000000   0.0000000), wk =   0.0076628
        k(  260) = (   0.0050000  -0.0000000   0.0000000), wk =   0.0076628
        k(  261) = (   0.0000000   0.0000000   0.0000000), wk =   0.0076628

     Dense  grid:   127257 G-vectors     FFT dimensions: (  36,  36, 250)

     Smooth grid:    90781 G-vectors     FFT dimensions: (  30,  30, 225)

     Dynamical RAM for                 wfc:       6.08 MB

     Dynamical RAM for     wfc (w. buffer):       6.08 MB

     Dynamical RAM for           str. fact:       5.83 MB

     Dynamical RAM for           local pot:       0.00 MB

     Dynamical RAM for          nlocal pot:      11.47 MB

     Dynamical RAM for                qrad:       4.82 MB

     Dynamical RAM for          rho,v,vnew:      13.24 MB

     Dynamical RAM for           G-vectors:       7.97 MB

     Dynamical RAM for          h,s,v(r/c):       0.22 MB

     Dynamical RAM for          <psi|beta>:       0.04 MB

     Dynamical RAM for                 psi:      12.17 MB

     Dynamical RAM for                hpsi:      12.17 MB

     Dynamical RAM for      wfcinit/wfcrot:      12.20 MB

     Estimated static dynamical RAM per process >      69.54 MB

     Estimated max dynamical RAM per process >      94.13 MB
 ----2D----2D----2D----2D----2D----2D----2D----2D----2D----2D----2D----2D
  The code is running with the 2D cutoff
  Please refer to:
  Sohier, T., Calandra, M., & Mauri, F. (2017), 
  Density functional perturbation theory for gated two-dimensional heterostructures:
  Theoretical developments and application to flexural phonons in graphene.
  Physical Review B, 96(7), 75448. https://doi.org/10.1103/PhysRevB.96.075448
 ----2D----2D----2D----2D----2D----2D----2D----2D----2D----2D----2D----2D

     The potential is recalculated from file :
     ./tmp/crsi2n4.save/charge-density

     Starting wfcs are   34 randomized atomic wfcs +    1 random wfcs

     Band Structure Calculation
     Davidson diagonalization with overlap

     Computing kpt #:     1  of   261
     total cpu time spent up to now is        3.7 secs

     Computing kpt #:     2  of   261
     total cpu time spent up to now is        5.3 secs

     Computing kpt #:     3  of   261
     total cpu time spent up to now is        7.1 secs

     Computing kpt #:     4  of   261
     total cpu time spent up to now is        9.0 secs

     Computing kpt #:     5  of   261
     total cpu time spent up to now is       10.9 secs

     Computing kpt #:     6  of   261
     total cpu time spent up to now is       12.7 secs

     Computing kpt #:     7  of   261
     total cpu time spent up to now is       14.5 secs

     Computing kpt #:     8  of   261
     total cpu time spent up to now is       16.3 secs

     Computing kpt #:     9  of   261
     total cpu time spent up to now is       18.1 secs

     Computing kpt #:    10  of   261
     total cpu time spent up to now is       20.1 secs

     Computing kpt #:    11  of   261
     total cpu time spent up to now is       22.0 secs

     Computing kpt #:    12  of   261
     total cpu time spent up to now is       24.0 secs

     Computing kpt #:    13  of   261
     total cpu time spent up to now is       25.8 secs

     Computing kpt #:    14  of   261
     total cpu time spent up to now is       27.7 secs

     Computing kpt #:    15  of   261
     total cpu time spent up to now is       29.6 secs

     Computing kpt #:    16  of   261
     total cpu time spent up to now is       31.6 secs

     Computing kpt #:    17  of   261
     total cpu time spent up to now is       33.5 secs

     Computing kpt #:    18  of   261
     total cpu time spent up to now is       35.5 secs

     Computing kpt #:    19  of   261
     total cpu time spent up to now is       37.4 secs

     Computing kpt #:    20  of   261
     total cpu time spent up to now is       39.4 secs

     Computing kpt #:    21  of   261
     total cpu time spent up to now is       41.4 secs

     Computing kpt #:    22  of   261
     total cpu time spent up to now is       43.4 secs

     Computing kpt #:    23  of   261
     total cpu time spent up to now is       45.3 secs

     Computing kpt #:    24  of   261
     total cpu time spent up to now is       47.4 secs

     Computing kpt #:    25  of   261
     total cpu time spent up to now is       49.4 secs

     Computing kpt #:    26  of   261
     total cpu time spent up to now is       51.6 secs

     Computing kpt #:    27  of   261
     total cpu time spent up to now is       53.6 secs

     Computing kpt #:    28  of   261
     total cpu time spent up to now is       55.7 secs

     Computing kpt #:    29  of   261
     total cpu time spent up to now is       57.8 secs

     Computing kpt #:    30  of   261
     total cpu time spent up to now is       59.9 secs

     Computing kpt #:    31  of   261
     total cpu time spent up to now is       62.0 secs

     Computing kpt #:    32  of   261
     total cpu time spent up to now is       64.1 secs

     Computing kpt #:    33  of   261
     total cpu time spent up to now is       66.4 secs

     Computing kpt #:    34  of   261
     total cpu time spent up to now is       69.0 secs

     Computing kpt #:    35  of   261
     total cpu time spent up to now is       71.2 secs

     Computing kpt #:    36  of   261
     total cpu time spent up to now is       73.5 secs

     Computing kpt #:    37  of   261
     total cpu time spent up to now is       75.9 secs

     Computing kpt #:    38  of   261
     total cpu time spent up to now is       78.2 secs

     Computing kpt #:    39  of   261
     total cpu time spent up to now is       80.7 secs

     Computing kpt #:    40  of   261
     total cpu time spent up to now is       83.0 secs

     Computing kpt #:    41  of   261
     total cpu time spent up to now is       85.4 secs

     Computing kpt #:    42  of   261
     c_bands:  1 eigenvalues not converged
     total cpu time spent up to now is       88.4 secs

     Computing kpt #:    43  of   261
     total cpu time spent up to now is       91.4 secs

     Computing kpt #:    44  of   261
     total cpu time spent up to now is       93.9 secs

     Computing kpt #:    45  of   261
     total cpu time spent up to now is       96.3 secs

     Computing kpt #:    46  of   261
     total cpu time spent up to now is       98.7 secs

     Computing kpt #:    47  of   261
     total cpu time spent up to now is      101.3 secs

     Computing kpt #:    48  of   261
     total cpu time spent up to now is      103.9 secs

     Computing kpt #:    49  of   261
     total cpu time spent up to now is      106.5 secs

     Computing kpt #:    50  of   261
     total cpu time spent up to now is      109.1 secs

     Computing kpt #:    51  of   261
     c_bands:  1 eigenvalues not converged
     total cpu time spent up to now is      112.0 secs

     Computing kpt #:    52  of   261
     total cpu time spent up to now is      114.9 secs

     Computing kpt #:    53  of   261
     total cpu time spent up to now is      117.3 secs

     Computing kpt #:    54  of   261
     total cpu time spent up to now is      119.6 secs

     Computing kpt #:    55  of   261
     total cpu time spent up to now is      121.6 secs

     Computing kpt #:    56  of   261
     total cpu time spent up to now is      123.6 secs

     Computing kpt #:    57  of   261
     total cpu time spent up to now is      125.6 secs

     Computing kpt #:    58  of   261
     total cpu time spent up to now is      127.5 secs

     Computing kpt #:    59  of   261
     total cpu time spent up to now is      129.5 secs

     Computing kpt #:    60  of   261
     total cpu time spent up to now is      131.2 secs

     Computing kpt #:    61  of   261
     total cpu time spent up to now is      133.1 secs

     Computing kpt #:    62  of   261
     total cpu time spent up to now is      135.1 secs

     Computing kpt #:    63  of   261
     total cpu time spent up to now is      137.2 secs

     Computing kpt #:    64  of   261
     total cpu time spent up to now is      139.3 secs

     Computing kpt #:    65  of   261
     total cpu time spent up to now is      141.4 secs

     Computing kpt #:    66  of   261
     total cpu time spent up to now is      143.6 secs

     Computing kpt #:    67  of   261
     total cpu time spent up to now is      146.1 secs

     Computing kpt #:    68  of   261
     total cpu time spent up to now is      148.6 secs

     Computing kpt #:    69  of   261
     total cpu time spent up to now is      151.1 secs

     Computing kpt #:    70  of   261
     total cpu time spent up to now is      153.6 secs

     Computing kpt #:    71  of   261
     total cpu time spent up to now is      156.7 secs

     Computing kpt #:    72  of   261
     total cpu time spent up to now is      159.5 secs

     Computing kpt #:    73  of   261
     total cpu time spent up to now is      161.9 secs

     Computing kpt #:    74  of   261
     total cpu time spent up to now is      164.2 secs

     Computing kpt #:    75  of   261
     total cpu time spent up to now is      166.4 secs

     Computing kpt #:    76  of   261
     total cpu time spent up to now is      168.5 secs

     Computing kpt #:    77  of   261
     total cpu time spent up to now is      170.5 secs

     Computing kpt #:    78  of   261
     total cpu time spent up to now is      172.5 secs

     Computing kpt #:    79  of   261
     total cpu time spent up to now is      174.6 secs

     Computing kpt #:    80  of   261
     total cpu time spent up to now is      176.6 secs

     Computing kpt #:    81  of   261
     total cpu time spent up to now is      178.5 secs

     Computing kpt #:    82  of   261
     total cpu time spent up to now is      180.4 secs

     Computing kpt #:    83  of   261
     total cpu time spent up to now is      182.3 secs

     Computing kpt #:    84  of   261
     total cpu time spent up to now is      184.1 secs

     Computing kpt #:    85  of   261
     total cpu time spent up to now is      186.0 secs

     Computing kpt #:    86  of   261
     total cpu time spent up to now is      187.9 secs

     Computing kpt #:    87  of   261
     total cpu time spent up to now is      189.9 secs

     Computing kpt #:    88  of   261
     total cpu time spent up to now is      191.8 secs

     Computing kpt #:    89  of   261
     total cpu time spent up to now is      193.9 secs

     Computing kpt #:    90  of   261
     total cpu time spent up to now is      195.8 secs

     Computing kpt #:    91  of   261
     total cpu time spent up to now is      197.7 secs

     Computing kpt #:    92  of   261
     total cpu time spent up to now is      199.5 secs

     Computing kpt #:    93  of   261
     total cpu time spent up to now is      201.3 secs

     Computing kpt #:    94  of   261
     total cpu time spent up to now is      203.0 secs

     Computing kpt #:    95  of   261
     total cpu time spent up to now is      204.8 secs

     Computing kpt #:    96  of   261
     total cpu time spent up to now is      206.6 secs

     Computing kpt #:    97  of   261
     total cpu time spent up to now is      208.5 secs

     Computing kpt #:    98  of   261
     total cpu time spent up to now is      210.1 secs

     Computing kpt #:    99  of   261
     total cpu time spent up to now is      211.7 secs

     Computing kpt #:   100  of   261
     total cpu time spent up to now is      213.3 secs

     Computing kpt #:   101  of   261
     total cpu time spent up to now is      214.9 secs

     Computing kpt #:   102  of   261
     total cpu time spent up to now is      216.7 secs

     Computing kpt #:   103  of   261
     total cpu time spent up to now is      218.3 secs

     Computing kpt #:   104  of   261
     total cpu time spent up to now is      219.9 secs

     Computing kpt #:   105  of   261
     total cpu time spent up to now is      221.5 secs

     Computing kpt #:   106  of   261
     total cpu time spent up to now is      223.2 secs

     Computing kpt #:   107  of   261
     total cpu time spent up to now is      225.0 secs

     Computing kpt #:   108  of   261
     total cpu time spent up to now is      226.8 secs

     Computing kpt #:   109  of   261
     total cpu time spent up to now is      228.6 secs

     Computing kpt #:   110  of   261
     total cpu time spent up to now is      230.4 secs

     Computing kpt #:   111  of   261
     total cpu time spent up to now is      232.2 secs

     Computing kpt #:   112  of   261
     total cpu time spent up to now is      233.9 secs

     Computing kpt #:   113  of   261
     total cpu time spent up to now is      235.8 secs

     Computing kpt #:   114  of   261
     total cpu time spent up to now is      237.6 secs

     Computing kpt #:   115  of   261
     total cpu time spent up to now is      239.5 secs

     Computing kpt #:   116  of   261
     total cpu time spent up to now is      241.4 secs

     Computing kpt #:   117  of   261
     total cpu time spent up to now is      243.3 secs

     Computing kpt #:   118  of   261
     total cpu time spent up to now is      245.1 secs

     Computing kpt #:   119  of   261
     total cpu time spent up to now is      247.0 secs

     Computing kpt #:   120  of   261
     total cpu time spent up to now is      248.9 secs

     Computing kpt #:   121  of   261
     total cpu time spent up to now is      250.8 secs

     Computing kpt #:   122  of   261
     total cpu time spent up to now is      252.7 secs

     Computing kpt #:   123  of   261
     total cpu time spent up to now is      254.7 secs

     Computing kpt #:   124  of   261
     total cpu time spent up to now is      256.8 secs

     Computing kpt #:   125  of   261
     total cpu time spent up to now is      258.8 secs

     Computing kpt #:   126  of   261
     total cpu time spent up to now is      260.9 secs

     Computing kpt #:   127  of   261
     total cpu time spent up to now is      263.1 secs

     Computing kpt #:   128  of   261
     total cpu time spent up to now is      265.2 secs

     Computing kpt #:   129  of   261
     total cpu time spent up to now is      267.3 secs

     Computing kpt #:   130  of   261
     total cpu time spent up to now is      269.3 secs

     Computing kpt #:   131  of   261
     total cpu time spent up to now is      271.5 secs

     Computing kpt #:   132  of   261
     total cpu time spent up to now is      273.6 secs

     Computing kpt #:   133  of   261
     total cpu time spent up to now is      275.5 secs

     Computing kpt #:   134  of   261
     total cpu time spent up to now is      277.4 secs

     Computing kpt #:   135  of   261
     total cpu time spent up to now is      279.2 secs

     Computing kpt #:   136  of   261
     total cpu time spent up to now is      281.3 secs

     Computing kpt #:   137  of   261
     total cpu time spent up to now is      283.3 secs

     Computing kpt #:   138  of   261
     total cpu time spent up to now is      285.4 secs

     Computing kpt #:   139  of   261
     total cpu time spent up to now is      287.5 secs

     Computing kpt #:   140  of   261
     total cpu time spent up to now is      289.5 secs

     Computing kpt #:   141  of   261
     total cpu time spent up to now is      291.6 secs

     Computing kpt #:   142  of   261
     total cpu time spent up to now is      293.6 secs

     Computing kpt #:   143  of   261
     total cpu time spent up to now is      295.6 secs

     Computing kpt #:   144  of   261
     total cpu time spent up to now is      297.7 secs

     Computing kpt #:   145  of   261
     total cpu time spent up to now is      299.9 secs

     Computing kpt #:   146  of   261
     total cpu time spent up to now is      301.9 secs

     Computing kpt #:   147  of   261
     total cpu time spent up to now is      304.1 secs

     Computing kpt #:   148  of   261
     total cpu time spent up to now is      306.2 secs

     Computing kpt #:   149  of   261
     total cpu time spent up to now is      308.3 secs

     Computing kpt #:   150  of   261
     total cpu time spent up to now is      310.3 secs

     Computing kpt #:   151  of   261
     total cpu time spent up to now is      312.3 secs

     Computing kpt #:   152  of   261
     total cpu time spent up to now is      314.4 secs

     Computing kpt #:   153  of   261
     total cpu time spent up to now is      316.5 secs

     Computing kpt #:   154  of   261
     total cpu time spent up to now is      318.4 secs

     Computing kpt #:   155  of   261
     total cpu time spent up to now is      320.5 secs

     Computing kpt #:   156  of   261
     total cpu time spent up to now is      322.4 secs

     Computing kpt #:   157  of   261
     total cpu time spent up to now is      324.4 secs

     Computing kpt #:   158  of   261
     total cpu time spent up to now is      326.3 secs

     Computing kpt #:   159  of   261
     total cpu time spent up to now is      328.2 secs

     Computing kpt #:   160  of   261
     total cpu time spent up to now is      330.0 secs

     Computing kpt #:   161  of   261
     total cpu time spent up to now is      331.7 secs

     Computing kpt #:   162  of   261
     total cpu time spent up to now is      333.4 secs

     Computing kpt #:   163  of   261
     total cpu time spent up to now is      335.0 secs

     Computing kpt #:   164  of   261
     total cpu time spent up to now is      336.8 secs

     Computing kpt #:   165  of   261
     total cpu time spent up to now is      338.5 secs

     Computing kpt #:   166  of   261
     total cpu time spent up to now is      340.2 secs

     Computing kpt #:   167  of   261
     total cpu time spent up to now is      341.8 secs

     Computing kpt #:   168  of   261
     total cpu time spent up to now is      343.5 secs

     Computing kpt #:   169  of   261
     total cpu time spent up to now is      345.3 secs

     Computing kpt #:   170  of   261
     total cpu time spent up to now is      346.9 secs

     Computing kpt #:   171  of   261
     total cpu time spent up to now is      348.6 secs

     Computing kpt #:   172  of   261
     total cpu time spent up to now is      350.3 secs

     Computing kpt #:   173  of   261
     total cpu time spent up to now is      352.2 secs

     Computing kpt #:   174  of   261
     total cpu time spent up to now is      354.0 secs

     Computing kpt #:   175  of   261
     total cpu time spent up to now is      355.8 secs

     Computing kpt #:   176  of   261
     total cpu time spent up to now is      357.5 secs

     Computing kpt #:   177  of   261
     total cpu time spent up to now is      359.4 secs

     Computing kpt #:   178  of   261
     total cpu time spent up to now is      361.2 secs

     Computing kpt #:   179  of   261
     total cpu time spent up to now is      363.2 secs

     Computing kpt #:   180  of   261
     total cpu time spent up to now is      365.0 secs

     Computing kpt #:   181  of   261
     total cpu time spent up to now is      367.0 secs

     Computing kpt #:   182  of   261
     total cpu time spent up to now is      369.0 secs

     Computing kpt #:   183  of   261
     total cpu time spent up to now is      371.0 secs

     Computing kpt #:   184  of   261
     total cpu time spent up to now is      372.9 secs

     Computing kpt #:   185  of   261
     total cpu time spent up to now is      374.9 secs

     Computing kpt #:   186  of   261
     total cpu time spent up to now is      376.9 secs

     Computing kpt #:   187  of   261
     total cpu time spent up to now is      378.8 secs

     Computing kpt #:   188  of   261
     total cpu time spent up to now is      380.9 secs

     Computing kpt #:   189  of   261
     total cpu time spent up to now is      383.0 secs

     Computing kpt #:   190  of   261
     total cpu time spent up to now is      385.0 secs

     Computing kpt #:   191  of   261
     total cpu time spent up to now is      387.0 secs

     Computing kpt #:   192  of   261
     total cpu time spent up to now is      389.0 secs

     Computing kpt #:   193  of   261
     total cpu time spent up to now is      391.0 secs

     Computing kpt #:   194  of   261
     total cpu time spent up to now is      393.0 secs

     Computing kpt #:   195  of   261
     total cpu time spent up to now is      395.2 secs

     Computing kpt #:   196  of   261
     total cpu time spent up to now is      397.1 secs

     Computing kpt #:   197  of   261
     total cpu time spent up to now is      399.3 secs

     Computing kpt #:   198  of   261
     total cpu time spent up to now is      401.3 secs

     Computing kpt #:   199  of   261
     total cpu time spent up to now is      403.3 secs

     Computing kpt #:   200  of   261
     total cpu time spent up to now is      405.5 secs

     Computing kpt #:   201  of   261
     total cpu time spent up to now is      407.8 secs

     Computing kpt #:   202  of   261
     total cpu time spent up to now is      410.1 secs

     Computing kpt #:   203  of   261
     total cpu time spent up to now is      412.3 secs

     Computing kpt #:   204  of   261
     total cpu time spent up to now is      415.0 secs

     Computing kpt #:   205  of   261
     total cpu time spent up to now is      417.4 secs

     Computing kpt #:   206  of   261
     total cpu time spent up to now is      419.5 secs

     Computing kpt #:   207  of   261
     total cpu time spent up to now is      421.7 secs

     Computing kpt #:   208  of   261
     total cpu time spent up to now is      423.8 secs

     Computing kpt #:   209  of   261
     total cpu time spent up to now is      425.9 secs

     Computing kpt #:   210  of   261
     total cpu time spent up to now is      428.4 secs

     Computing kpt #:   211  of   261
     total cpu time spent up to now is      430.8 secs

     Computing kpt #:   212  of   261
     total cpu time spent up to now is      433.0 secs

     Computing kpt #:   213  of   261
     total cpu time spent up to now is      435.4 secs

     Computing kpt #:   214  of   261
     total cpu time spent up to now is      437.8 secs

     Computing kpt #:   215  of   261
     total cpu time spent up to now is      440.0 secs

     Computing kpt #:   216  of   261
     total cpu time spent up to now is      442.5 secs

     Computing kpt #:   217  of   261
     total cpu time spent up to now is      445.0 secs

     Computing kpt #:   218  of   261
     total cpu time spent up to now is      447.5 secs

     Computing kpt #:   219  of   261
     total cpu time spent up to now is      449.8 secs

     Computing kpt #:   220  of   261
     total cpu time spent up to now is      452.2 secs

     Computing kpt #:   221  of   261
     total cpu time spent up to now is      454.7 secs

     Computing kpt #:   222  of   261
     total cpu time spent up to now is      456.9 secs

     Computing kpt #:   223  of   261
     total cpu time spent up to now is      459.0 secs

     Computing kpt #:   224  of   261
     total cpu time spent up to now is      461.1 secs

     Computing kpt #:   225  of   261
     total cpu time spent up to now is      463.4 secs

     Computing kpt #:   226  of   261
     total cpu time spent up to now is      465.5 secs

     Computing kpt #:   227  of   261
     total cpu time spent up to now is      467.7 secs

     Computing kpt #:   228  of   261
     total cpu time spent up to now is      469.8 secs

     Computing kpt #:   229  of   261
     total cpu time spent up to now is      471.8 secs

     Computing kpt #:   230  of   261
     total cpu time spent up to now is      474.1 secs

     Computing kpt #:   231  of   261
     total cpu time spent up to now is      476.4 secs

     Computing kpt #:   232  of   261
     total cpu time spent up to now is      478.5 secs

     Computing kpt #:   233  of   261
     total cpu time spent up to now is      480.8 secs

     Computing kpt #:   234  of   261
     total cpu time spent up to now is      482.9 secs

     Computing kpt #:   235  of   261
     total cpu time spent up to now is      484.9 secs

     Computing kpt #:   236  of   261
     total cpu time spent up to now is      486.9 secs

     Computing kpt #:   237  of   261
     total cpu time spent up to now is      489.2 secs

     Computing kpt #:   238  of   261
     total cpu time spent up to now is      491.2 secs

     Computing kpt #:   239  of   261
     total cpu time spent up to now is      493.4 secs

     Computing kpt #:   240  of   261
     total cpu time spent up to now is      495.6 secs

     Computing kpt #:   241  of   261
     total cpu time spent up to now is      497.6 secs

     Computing kpt #:   242  of   261
     total cpu time spent up to now is      499.6 secs

     Computing kpt #:   243  of   261
     total cpu time spent up to now is      501.7 secs

     Computing kpt #:   244  of   261
     total cpu time spent up to now is      503.6 secs

     Computing kpt #:   245  of   261
     total cpu time spent up to now is      505.7 secs

     Computing kpt #:   246  of   261
     total cpu time spent up to now is      507.7 secs

     Computing kpt #:   247  of   261
     total cpu time spent up to now is      509.7 secs

     Computing kpt #:   248  of   261
     total cpu time spent up to now is      511.6 secs

     Computing kpt #:   249  of   261
     total cpu time spent up to now is      513.8 secs

     Computing kpt #:   250  of   261
     total cpu time spent up to now is      515.7 secs

     Computing kpt #:   251  of   261
     total cpu time spent up to now is      517.6 secs

     Computing kpt #:   252  of   261
     total cpu time spent up to now is      519.8 secs

     Computing kpt #:   253  of   261
     total cpu time spent up to now is      521.6 secs

     Computing kpt #:   254  of   261
     total cpu time spent up to now is      523.5 secs

     Computing kpt #:   255  of   261
     total cpu time spent up to now is      525.4 secs

     Computing kpt #:   256  of   261
     total cpu time spent up to now is      527.2 secs

     Computing kpt #:   257  of   261
     total cpu time spent up to now is      529.0 secs

     Computing kpt #:   258  of   261
     total cpu time spent up to now is      530.8 secs

     Computing kpt #:   259  of   261
     total cpu time spent up to now is      532.8 secs

     Computing kpt #:   260  of   261
     total cpu time spent up to now is      534.5 secs

     Computing kpt #:   261  of   261
     total cpu time spent up to now is      536.4 secs

     ethr =  2.38E-13,  avg # of iterations = 73.5

     total cpu time spent up to now is      536.4 secs

     End of band structure calculation

          k = 0.0000 0.0000 0.0000 ( 11445 PWs)   bands (ev):

   -77.8552 -49.0487 -49.0403 -49.0403 -24.8889 -24.8156 -22.0538 -20.6580
   -14.2898 -11.6968  -9.7063  -9.2074  -9.2073  -9.1455  -9.1453  -8.8699
    -8.8696  -7.7374  -7.5717  -7.5710  -5.5010  -3.2283  -3.2272  -3.0787
    -3.0785  -0.4966  -0.1718   2.1551   2.1842   2.2940   3.6303   3.6308
     3.6749   3.6752   3.6824

          k = 0.0033 0.0058 0.0000 ( 11433 PWs)   bands (ev):

   -77.8552 -49.0487 -49.0404 -49.0403 -24.8883 -24.8150 -22.0533 -20.6578
   -14.2893 -11.6966  -9.7066  -9.2091  -9.2078  -9.1484  -9.1462  -8.8709
    -8.8696  -7.7391  -7.5717  -7.5701  -5.5014  -3.2278  -3.2277  -3.0797
    -3.0789  -0.4946  -0.1701   2.1562   2.1851   2.2951   3.6093   3.6323
     3.6617   3.6765   3.7125

          k = 0.0067 0.0115 0.0000 ( 11425 PWs)   bands (ev):

   -77.8551 -49.0486 -49.0407 -49.0404 -24.8864 -24.8132 -22.0518 -20.6569
   -14.2877 -11.6958  -9.7073  -9.2144  -9.2093  -9.1577  -9.1481  -8.8748
    -8.8687  -7.7442  -7.5737  -7.5653  -5.5024  -3.2297  -3.2258  -3.0826
    -3.0801  -0.4888  -0.1651   2.1594   2.1877   2.2987   3.5698   3.6369
     3.6488   3.6810   3.7517

          k = 0.0100 0.0173 0.0000 ( 11421 PWs)   bands (ev):

   -77.8550 -49.0485 -49.0413 -49.0405 -24.8834 -24.8102 -22.0494 -20.6556
   -14.2851 -11.6946  -9.7086  -9.2231  -9.2120  -9.1729  -9.1514  -8.8811
    -8.8671  -7.7520  -7.5771  -7.5581  -5.5041  -3.2329  -3.2227  -3.0873
    -3.0821  -0.4792  -0.1568   2.1646   2.1921   2.3047   3.5264   3.6301
     3.6450   3.6886   3.7920

          k = 0.0133 0.0231 0.0000 ( 11425 PWs)   bands (ev):

   -77.8549 -49.0484 -49.0421 -49.0407 -24.8791 -24.8060 -22.0459 -20.6537
   -14.2815 -11.6929  -9.7107  -9.2351  -9.2169  -9.1928  -9.1562  -8.8898
    -8.8651  -7.7621  -7.5818  -7.5490  -5.5066  -3.2372  -3.2183  -3.0939
    -3.0848  -0.4658  -0.1453   2.1716   2.1981   2.3133   3.4813   3.6058
     3.6557   3.6993   3.8322

          k = 0.0167 0.0289 0.0000 ( 11429 PWs)   bands (ev):

   -77.8548 -49.0482 -49.0431 -49.0409 -24.8736 -24.8006 -22.0415 -20.6512
   -14.2768 -11.6907  -9.7139  -9.2499  -9.2304  -9.2108  -9.1626  -8.9007
    -8.8624  -7.7738  -7.5880  -7.5386  -5.5098  -3.2426  -3.2128  -3.1021
    -3.0884  -0.4488  -0.1308   2.1801   2.2057   2.3247   3.4351   3.5759
     3.6697   3.7129   3.8723

          k = 0.0200 0.0346 0.0000 ( 11425 PWs)   bands (ev):

   -77.8546 -49.0479 -49.0443 -49.0412 -24.8669 -24.7940 -22.0361 -20.6482
   -14.2710 -11.6880  -9.7184  -9.2680  -9.2589  -9.2197  -9.1706  -8.9137
    -8.8592  -7.7867  -7.5956  -7.5275  -5.5138  -3.2491  -3.2062  -3.1120
    -3.0926  -0.4285  -0.1133   2.1897   2.2146   2.3391   3.3881   3.5411
     3.6867   3.7296   3.9122

          k = 0.0233 0.0404 0.0000 ( 11433 PWs)   bands (ev):

   -77.8545 -49.0477 -49.0457 -49.0415 -24.8590 -24.7863 -22.0297 -20.6446
   -14.2643 -11.6848  -9.7248  -9.2988  -9.2846  -9.2267  -9.1803  -8.9286
    -8.8554  -7.8006  -7.6047  -7.5160  -5.5186  -3.2565  -3.1984  -3.1232
    -3.0976  -0.4049  -0.0929   2.2001   2.2245   2.3566   3.3405   3.5022
     3.7067   3.7493   3.9520

          k = 0.0267 0.0462 0.0000 ( 11427 PWs)   bands (ev):

   -77.8542 -49.0475 -49.0472 -49.0419 -24.8499 -24.7773 -22.0224 -20.6406
   -14.2565 -11.6812  -9.7338  -9.3415  -9.3054  -9.2342  -9.1917  -8.9451
    -8.8510  -7.8153  -7.6153  -7.5046  -5.5243  -3.2647  -3.1897  -3.1356
    -3.1031  -0.3783  -0.0700   2.2111   2.2353   2.3775   3.2925   3.4600
     3.7296   3.7720   3.9919

          k = 0.0300 0.0520 0.0000 ( 11423 PWs)   bands (ev):

   -77.8540 -49.0492 -49.0470 -49.0423 -24.8396 -24.7671 -22.0141 -20.6360
   -14.2478 -11.6771  -9.7460  -9.3895  -9.3261  -9.2428  -9.2050  -8.9631
    -8.8460  -7.8305  -7.6274  -7.4934  -5.5310  -3.2737  -3.1804  -3.1490
    -3.1090  -0.3490  -0.0447   2.2223   2.2464   2.4018   3.2445   3.4152
     3.7554   3.7978   4.0319

          k = 0.0333 0.0577 0.0000 ( 11423 PWs)   bands (ev):

   -77.8537 -49.0512 -49.0467 -49.0428 -24.8280 -24.7558 -22.0049 -20.6308
   -14.2380 -11.6726  -9.7624  -9.4421  -9.3463  -9.2526  -9.2201  -8.9823
    -8.8402  -7.8462  -7.6412  -7.4826  -5.5386  -3.2833  -3.1718  -3.1623
    -3.1148  -0.3172  -0.0173   2.2334   2.2576   2.4293   3.1967   3.3687
     3.7839   3.8265   4.0722

          k = 0.0367 0.0635 0.0000 ( 11419 PWs)   bands (ev):

   -77.8534 -49.0535 -49.0462 -49.0433 -24.8153 -24.7432 -21.9947 -20.6252
   -14.2273 -11.6676  -9.7838  -9.4990  -9.3649  -9.2636  -9.2370  -9.0027
    -8.8338  -7.8622  -7.6566  -7.4723  -5.5474  -3.2933  -3.1796  -3.1611
    -3.1191  -0.2831   0.0122   2.2441   2.2685   2.4598   3.1497   3.3213
     3.8148   3.8582   4.1131

          k = 0.0400 0.0693 0.0000 ( 11415 PWs)   bands (ev):

   -77.8531 -49.0559 -49.0458 -49.0439 -24.8014 -24.7295 -21.9837 -20.6190
   -14.2157 -11.6623  -9.8110  -9.5598  -9.3813  -9.2760  -9.2556  -9.0239
    -8.8266  -7.8786  -7.6737  -7.4628  -5.5572  -3.3037  -3.1950  -3.1574
    -3.1187  -0.2471   0.0433   2.2539   2.2788   2.4933   3.1039   3.2738
     3.8479   3.8931   4.1548

          k = 0.0433 0.0751 0.0000 ( 11411 PWs)   bands (ev):

   -77.8527 -49.0586 -49.0453 -49.0445 -24.7862 -24.7146 -21.9716 -20.6123
   -14.2031 -11.6565  -9.8446  -9.6243  -9.3949  -9.2900  -9.2758  -9.0459
    -8.8186  -7.8952  -7.6926  -7.4541  -5.5681  -3.3144  -3.2109  -3.1603
    -3.1111  -0.2095   0.0759   2.2623   2.2880   2.5292   3.0600   3.2270
     3.8827   3.9310   4.1976

          k = 0.0467 0.0808 0.0000 ( 11423 PWs)   bands (ev):

   -77.8523 -49.0614 -49.0452 -49.0448 -24.7699 -24.6986 -21.9587 -20.6051
   -14.1896 -11.6503  -9.8846  -9.6921  -9.4058  -9.3058  -9.2969  -9.0686
    -8.8098  -7.9120  -7.7132  -7.4463  -5.5802  -3.3252  -3.2270  -3.1681
    -3.0983  -0.1704   0.1096   2.2687   2.2955   2.5673   3.0188   3.1821
     3.9189   3.9722   4.2418

          k = 0.0500 0.0866 0.0000 ( 11417 PWs)   bands (ev):

   -77.8519 -49.0644 -49.0459 -49.0442 -24.7524 -24.6813 -21.9449 -20.5974
   -14.1752 -11.6437  -9.9308  -9.7630  -9.4146  -9.3242  -9.3177  -9.0919
    -8.8003  -7.9290  -7.7356  -7.4393  -5.5935  -3.3361  -3.2431  -3.1783
    -3.0829  -0.1302   0.1444   2.2725   2.3006   2.6070   2.9812   3.1399
     3.9557   4.0166   4.2877

          k = 0.0533 0.0924 0.0000 ( 11425 PWs)   bands (ev):

   -77.8515 -49.0676 -49.0467 -49.0436 -24.7337 -24.6630 -21.9302 -20.5893
   -14.1600 -11.6368  -9.9829  -9.8368  -9.4232  -9.3443  -9.3373  -9.1156
    -8.7899  -7.9460  -7.7598  -7.4334  -5.6080  -3.3471  -3.2590  -3.1900
    -3.0658  -0.0891   0.1797   2.2731   2.3022   2.6480   2.9485   3.1018
     3.9928   4.0641   4.3357

          k = 0.0567 0.0981 0.0000 ( 11441 PWs)   bands (ev):

   -77.8510 -49.0710 -49.0475 -49.0430 -24.7139 -24.6434 -21.9146 -20.5806
   -14.1439 -11.6296 -10.0402  -9.9132  -9.4351  -9.3616  -9.3574  -9.1399
    -8.7788  -7.9630  -7.7859  -7.4284  -5.6237  -3.3579  -3.2745  -3.2029
    -3.0473  -0.0476   0.2156   2.2698   2.2996   2.6896   2.9215   3.0690
     4.0296   4.1146   4.3863

          k = 0.0600 0.1039 0.0000 ( 11441 PWs)   bands (ev):

   -77.8505 -49.0745 -49.0484 -49.0423 -24.6929 -24.6227 -21.8982 -20.5715
   -14.1271 -11.6221 -10.1021  -9.9920  -9.4540  -9.3793  -9.3711  -9.1646
    -8.7670  -7.9800  -7.8139  -7.4244  -5.6407  -3.3688  -3.2895  -3.2166
    -3.0278  -0.0057   0.2515   2.2619   2.2919   2.7309   2.9014   3.0429
     4.0655   4.1680   4.4398

          k = 0.0633 0.1097 0.0000 ( 11437 PWs)   bands (ev):

   -77.8500 -49.0782 -49.0493 -49.0416 -24.6707 -24.6009 -21.8809 -20.5620
   -14.1095 -11.6143 -10.1681 -10.0730  -9.4807  -9.4021  -9.3734  -9.1897
    -8.7543  -7.9970  -7.8436  -7.4214  -5.6588  -3.3796  -3.3036  -3.2312
    -3.0073   0.0362   0.2874   2.2492   2.2785   2.7707   2.8888   3.0253
     4.1003   4.2238   4.4964

          k = 0.0667 0.1155 0.0000 ( 11441 PWs)   bands (ev):

   -77.8495 -49.0821 -49.0503 -49.0409 -24.6474 -24.5779 -21.8628 -20.5519
   -14.0911 -11.6064 -10.2377 -10.1558  -9.5128  -9.4265  -9.3703  -9.2154
    -8.7410  -8.0137  -7.8752  -7.4194  -5.6782  -3.3903  -3.3169  -3.2466
    -2.9860   0.0778   0.3229   2.2314   2.2594   2.8072   2.8841   3.0178
     4.1334   4.2818   4.5565

          k = 0.0700 0.1212 0.0000 ( 11449 PWs)   bands (ev):

   -77.8489 -49.0861 -49.0513 -49.0401 -24.6229 -24.5539 -21.8439 -20.5415
   -14.0721 -11.5982 -10.3105 -10.2404  -9.5487  -9.4526  -9.3638  -9.2415
    -8.7271  -8.0303  -7.9087  -7.4184  -5.6986  -3.4012  -3.3291  -3.2626
    -2.9638   0.1189   0.3578   2.2088   2.2351   2.8381   2.8871   3.0224
     4.1647   4.3415   4.6201

          k = 0.0733 0.1270 0.0000 ( 11443 PWs)   bands (ev):

   -77.8484 -49.0902 -49.0524 -49.0393 -24.5973 -24.5287 -21.8242 -20.5306
   -14.0524 -11.5900 -10.3859 -10.3264  -9.5872  -9.4802  -9.3549  -9.2682
    -8.7125  -8.0467  -7.9438  -7.4184  -5.7202  -3.4121  -3.3399  -3.2793
    -2.9410   0.1591   0.3917   2.1819   2.2064   2.8622   2.8973   3.0399
     4.1939   4.4024   4.6872

          k = 0.0767 0.1328 0.0000 ( 11451 PWs)   bands (ev):

   -77.8478 -49.0945 -49.0535 -49.0385 -24.5706 -24.5024 -21.8038 -20.5193
   -14.0322 -11.5817 -10.4636 -10.4136  -9.6280  -9.5095  -9.3445  -9.2953
    -8.6973  -8.0628  -7.9806  -7.4194  -5.7429  -3.4233  -3.3494  -3.2965
    -2.9175   0.1982   0.4246   2.1516   2.1744   2.8814   2.9126   3.0685
     4.2210   4.4640   4.7577

          k = 0.0800 0.1386 0.0000 ( 11449 PWs)   bands (ev):

   -77.8471 -49.0989 -49.0547 -49.0376 -24.5428 -24.4749 -21.7826 -20.5077
   -14.0114 -11.5735 -10.5434 -10.5018  -9.6707  -9.5404  -9.3342  -9.3216
    -8.6816  -8.0787  -8.0189  -7.4213  -5.7665  -3.4346  -3.3575  -3.3142
    -2.8933   0.2358   0.4559   2.1188   2.1402   2.8988   2.9315   3.1051
     4.2459   4.5257   4.8314

          k = 0.0833 0.1443 0.0000 ( 11459 PWs)   bands (ev):

   -77.8465 -49.1035 -49.0560 -49.0368 -24.5138 -24.4464 -21.7606 -20.4956
   -13.9901 -11.5656 -10.6248 -10.5907  -9.7151  -9.5730  -9.3530  -9.3183
    -8.6655  -8.0949  -8.0581  -7.4241  -5.7911  -3.4463  -3.3641  -3.3323
    -2.8687   0.2717   0.4856   2.0846   2.1049   2.9160   2.9537   3.1464
     4.2687   4.5868   4.9081

          k = 0.0867 0.1501 0.0000 ( 11455 PWs)   bands (ev):

   -77.8458 -49.1081 -49.0572 -49.0359 -24.4838 -24.4169 -21.7380 -20.4832
   -13.9684 -11.5581 -10.7077 -10.6799  -9.7609  -9.6072  -9.3819  -9.3046
    -8.6490  -8.1147  -8.0947  -7.4279  -5.8165  -3.4581  -3.3694  -3.3506
    -2.8436   0.3055   0.5132   2.0498   2.0694   2.9337   2.9790   3.1904
     4.2893   4.6467   4.9873

          k = 0.0900 0.1559 0.0000 ( 11451 PWs)   bands (ev):

   -77.8452 -49.1129 -49.0586 -49.0349 -24.4527 -24.3862 -21.7147 -20.4704
   -13.9463 -11.5513 -10.7917 -10.7691  -9.8082  -9.6430  -9.4116  -9.2898
    -8.6323  -8.1495  -8.1171  -7.4325  -5.8427  -3.4702  -3.3745  -3.3679
    -2.8181   0.3368   0.5385   2.0154   2.0347   2.9519   3.0072   3.2360
     4.3080   4.7048   5.0688

          k = 0.0933 0.1617 0.0000 ( 11463 PWs)   bands (ev):

   -77.8445 -49.1177 -49.0600 -49.0340 -24.4205 -24.3545 -21.6908 -20.4572
   -13.9240 -11.5458 -10.8766 -10.8576  -9.8568  -9.6805  -9.4421  -9.2742
    -8.6153  -8.1925  -8.1320  -7.4380  -5.8696  -3.4827  -3.3892  -3.3743
    -2.7923   0.3654   0.5612   1.9821   2.0015   2.9707   3.0377   3.2823
     4.3247   4.7607   5.1520

          k = 0.0967 0.1674 0.0000 ( 11467 PWs)   bands (ev):

   -77.8438 -49.1227 -49.0614 -49.0330 -24.3872 -24.3218 -21.6662 -20.4438
   -13.9014 -11.5421 -10.9622 -10.9446  -9.9066  -9.7196  -9.4733  -9.2581
    -8.5984  -8.2376  -8.1452  -7.4444  -5.8971  -3.4955  -3.4075  -3.3757
    -2.7662   0.3909   0.5810   1.9508   1.9706   2.9898   3.0702   3.3290
     4.3396   4.8140   5.2365

          k = 0.1000 0.1732 0.0000 ( 11455 PWs)   bands (ev):

   -77.8431 -49.1277 -49.0629 -49.0320 -24.3529 -24.2880 -21.6410 -20.4300
   -13.8787 -11.5417 -11.0483 -11.0285  -9.9574  -9.7603  -9.5051  -9.2414
    -8.5818  -8.2839  -8.1573  -7.4516  -5.9251  -3.5088  -3.4257  -3.3756
    -2.7399   0.4130   0.5977   1.9220   1.9425   3.0090   3.1044   3.3758
     4.3530   4.8648   5.3217

          k = 0.1033 0.1790 0.0000 ( 11451 PWs)   bands (ev):

   -77.8423 -49.1328 -49.0644 -49.0310 -24.3176 -24.2532 -21.6153 -20.4160
   -13.8561 -11.5464 -11.1349 -11.1074 -10.0094  -9.8026  -9.5375  -9.2243
    -8.5659  -8.3306  -8.1685  -7.4597  -5.9534  -3.5228  -3.4435  -3.3744
    -2.7134   0.4313   0.6109   1.8965   1.9178   3.0280   3.1398   3.4227
     4.3649   4.9132   5.4072

          k = 0.1067 0.1848 0.0000 ( 11459 PWs)   bands (ev):

   -77.8416 -49.1380 -49.0660 -49.0300 -24.2812 -24.2174 -21.5890 -20.4017
   -13.8335 -11.5596 -11.2214 -11.1779 -10.0622  -9.8466  -9.5705  -9.2068
    -8.5520  -8.3767  -8.1788  -7.4686  -5.9821  -3.5377  -3.4605  -3.3721
    -2.6870   0.4456   0.6205   1.8748   1.8967   3.0463   3.1764   3.4696
     4.3756   4.9593   5.4921

          k = 0.1100 0.1905 0.0000 ( 11455 PWs)   bands (ev):

   -77.8408 -49.1432 -49.0676 -49.0290 -24.2438 -24.1806 -21.5621 -20.3871
   -13.8111 -11.5855 -11.3077 -11.2357 -10.1160  -9.8921  -9.6041  -9.1890
    -8.5428  -8.4189  -8.1880  -7.4782  -6.0110  -3.5536  -3.4766  -3.3687
    -2.6605   0.4556   0.6263   1.8572   1.8796   3.0639   3.2138   3.5165
     4.3853   5.0037   5.5760

          k = 0.1133 0.1963 0.0000 ( 11451 PWs)   bands (ev):

   -77.8400 -49.1485 -49.0693 -49.0279 -24.2055 -24.1428 -21.5348 -20.3724
   -13.7891 -11.6279 -11.3934 -11.2770 -10.1707  -9.9391  -9.6381  -9.1710
    -8.5472  -8.4489  -8.1963  -7.4887  -6.0400  -3.5705  -3.4916  -3.3643
    -2.6341   0.4614   0.6284   1.8440   1.8666   3.0803   3.2518   3.5637
     4.3943   5.0465   5.6579

          k = 0.1167 0.2021 0.0000 ( 11451 PWs)   bands (ev):

   -77.8392 -49.1538 -49.0711 -49.0268 -24.1662 -24.1041 -21.5071 -20.3574
   -13.7676 -11.6866 -11.4784 -11.3018 -10.2261  -9.9876  -9.6726  -9.1528
    -8.5747  -8.4568  -8.2035  -7.4999  -6.0690  -3.5885  -3.5056  -3.3590
    -2.6079   0.4628   0.6266   1.8355   1.8578   3.0953   3.2903   3.6112
     4.4028   5.0880   5.7372

          k = 0.1200 0.2078 0.0000 ( 11453 PWs)   bands (ev):

   -77.8385 -49.1591 -49.0729 -49.0257 -24.1259 -24.0644 -21.4789 -20.3422
   -13.7468 -11.7580 -11.5625 -11.3137 -10.2823 -10.0377  -9.7076  -9.1346
    -8.6180  -8.4500  -8.2095  -7.5119  -6.0979  -3.6072  -3.5186  -3.3528
    -2.5820   0.4599   0.6212   1.8316   1.8532   3.1088   3.3290   3.6590
     4.4112   5.1286   5.8130

          k = 0.1233 0.2136 0.0000 ( 11449 PWs)   bands (ev):

   -77.8377 -49.1645 -49.0747 -49.0246 -24.0847 -24.0238 -21.4504 -20.3268
   -13.7269 -11.8375 -11.6452 -11.3172 -10.3392 -10.0891  -9.7429  -9.1165
    -8.6675  -8.4382  -8.2142  -7.5247  -6.1266  -3.6266  -3.5308  -3.3457
    -2.5563   0.4530   0.6123   1.8322   1.8526   3.1207   3.3677   3.7075
     4.4198   5.1682   5.8844

          k = 0.1267 0.2194 0.0000 ( 11461 PWs)   bands (ev):

   -77.8368 -49.1698 -49.0766 -49.0235 -24.0426 -23.9823 -21.4215 -20.3114
   -13.7081 -11.9220 -11.7264 -11.3153 -10.3967 -10.1419  -9.7785  -9.0985
    -8.7195  -8.4250  -8.2175  -7.5382  -6.1549  -3.6465  -3.5425  -3.3379
    -2.5311   0.4424   0.6002   1.8371   1.8558   3.1308   3.4062   3.7566
     4.4289   5.2069   5.9504

          k = 0.1300 0.2252 0.0000 ( 11467 PWs)   bands (ev):

   -77.8360 -49.1752 -49.0785 -49.0224 -23.9996 -23.9400 -21.3923 -20.2957
   -13.6906 -12.0094 -11.8058 -11.3100 -10.4549 -10.1960  -9.8143  -9.0811
    -8.7724  -8.4119  -8.2193  -7.5524  -6.1829  -3.6666  -3.5537  -3.3294
    -2.5063   0.4284   0.5853   1.8459   1.8625   3.1392   3.4443   3.8065
     4.4390   5.2444   6.0101

          k = 0.1333 0.2309 0.0000 ( 11459 PWs)   bands (ev):

   -77.8352 -49.1806 -49.0805 -49.0213 -23.9557 -23.8967 -21.3628 -20.2800
   -13.6749 -12.0985 -11.8830 -11.3026 -10.5137 -10.2514  -9.8503  -9.0646
    -8.8254  -8.3996  -8.2194  -7.5673  -6.2104  -3.6867  -3.5647  -3.3201
    -2.4820   0.4115   0.5679   1.8583   1.8725   3.1460   3.4816   3.8573
     4.4505   5.2805   6.0626

          k = 0.1367 0.2367 0.0000 ( 11465 PWs)   bands (ev):

   -77.8344 -49.1859 -49.0826 -49.0201 -23.9109 -23.8527 -21.3331 -20.2643
   -13.6611 -12.1885 -11.9575 -11.2937 -10.5730 -10.3079  -9.8865  -9.0504
    -8.8767  -8.3884  -8.2178  -7.5830  -6.2372  -3.7067  -3.5755  -3.3102
    -2.4584   0.3920   0.5483   1.8736   1.8854   3.1512   3.5180   3.9090
     4.4639   5.3148   6.1071

          k = 0.1400 0.2425 0.0000 ( 11453 PWs)   bands (ev):

   -77.8335 -49.1913 -49.0847 -49.0190 -23.8653 -23.8078 -21.3031 -20.2485
   -13.6496 -12.2789 -12.0291 -11.2839 -10.6329 -10.3655  -9.9226  -9.0424
    -8.9224  -8.3787  -8.2143  -7.5993  -6.2633  -3.7264  -3.5862  -3.2996
    -2.4354   0.3705   0.5269   1.8915   1.9010   3.1552   3.5532   3.9617
     4.4794   5.3467   6.1431

          k = 0.1433 0.2483 0.0000 ( 11449 PWs)   bands (ev):

   -77.8327 -49.1966 -49.0868 -49.0179 -23.8190 -23.7621 -21.2731 -20.2326
   -13.6410 -12.3692 -12.0972 -11.2736 -10.6932 -10.4240  -9.9588  -9.0515
    -8.9514  -8.3706  -8.2089  -7.6163  -6.2886  -3.7457  -3.5970  -3.2886
    -2.4131   0.3474   0.5041   1.9114   1.9189   3.1580   3.5870   4.0153
     4.4976   5.3756   6.1704

          k = 0.1467 0.2540 0.0000 ( 11433 PWs)   bands (ev):

   -77.8319 -49.2019 -49.0890 -49.0167 -23.7718 -23.7157 -21.2429 -20.2168
   -13.6355 -12.4592 -12.1614 -11.2630 -10.7540 -10.4834  -9.9948  -9.0863
    -8.9551  -8.3642  -8.2019  -7.6340  -6.3129  -3.7646  -3.6078  -3.2769
    -2.3917   0.3230   0.4801   1.9326   1.9391   3.1600   3.6191   4.0698
     4.5189   5.4008   6.1897

          k = 0.1500 0.2598 0.0000 ( 11415 PWs)   bands (ev):

   -77.8310 -49.2071 -49.0913 -49.0156 -23.7239 -23.6685 -21.2126 -20.2010
   -13.6336 -12.5488 -12.2212 -11.2523 -10.8152 -10.5434 -10.0307  -9.1348
    -8.9454  -8.3595  -8.1933  -7.6522  -6.3362  -3.7828  -3.6188  -3.2649
    -2.3712   0.2977   0.4553   1.9547   1.9614   3.1614   3.6494   4.1251
     4.5436   5.4215   6.2021

          k = 0.1533 0.2656 0.0000 ( 11419 PWs)   bands (ev):

   -77.8302 -49.2123 -49.0935 -49.0144 -23.6753 -23.6206 -21.1823 -20.1853
   -13.6358 -12.6377 -12.2761 -11.2420 -10.8768 -10.6037 -10.0663  -9.1879
    -8.9312  -8.3563  -8.1835  -7.6711  -6.3585  -3.8004  -3.6299  -3.2523
    -2.3516   0.2719   0.4298   1.9775   1.9851   3.1626   3.6777   4.1811
     4.5719   5.4372   6.2093

          k = 0.1567 0.2714 0.0000 ( 11423 PWs)   bands (ev):

   -77.8294 -49.2174 -49.0959 -49.0133 -23.6260 -23.5720 -21.1520 -20.1696
   -13.6425 -12.7258 -12.3256 -11.2323 -10.9387 -10.6641 -10.1016  -9.2428
    -8.9155  -8.3546  -8.1726  -7.6906  -6.3794  -3.8173  -3.6413  -3.2394
    -2.3331   0.2458   0.4040   2.0011   2.0097   3.1638   3.7041   4.2377
     4.6041   5.4472   6.2129

          k = 0.1600 0.2771 0.0000 ( 11423 PWs)   bands (ev):

   -77.8285 -49.2224 -49.0983 -49.0121 -23.5760 -23.5228 -21.1218 -20.1541
   -13.6540 -12.8130 -12.3694 -11.2240 -11.0008 -10.7242 -10.1365  -9.2984
    -8.8992  -8.3543  -8.1611  -7.7105  -6.3991  -3.8333  -3.6529  -3.2262
    -2.3155   0.2197   0.3780   2.0252   2.0346   3.1655   3.7285   4.2945
     4.6403   5.4516   6.2137

          k = 0.1633 0.2829 0.0000 ( 11421 PWs)   bands (ev):

   -77.8277 -49.2274 -49.1007 -49.0110 -23.5254 -23.4730 -21.0917 -20.1387
   -13.6706 -12.8991 -12.4072 -11.2180 -11.0626 -10.7830 -10.1711  -9.3541
    -8.8828  -8.3552  -8.1490  -7.7310  -6.4174  -3.8485  -3.6647  -3.2126
    -2.2991   0.1937   0.3520   2.0499   2.0596   3.1679   3.7512   4.3514
     4.6804   5.4506   6.2108

          k = 0.1667 0.2887 0.0000 ( 11421 PWs)   bands (ev):

   -77.8269 -49.2322 -49.1032 -49.0099 -23.4742 -23.4225 -21.0617 -20.1235
   -13.6923 -12.9841 -12.4389 -11.2165 -11.1232 -10.8395 -10.2051  -9.4098
    -8.8664  -8.3575  -8.1366  -7.7518  -6.4341  -3.8629  -3.6768  -3.1988
    -2.2838   0.1681   0.3261   2.0746   2.0845   3.1715   3.7722   4.4079
     4.7243   5.4449   6.1975

          k = 0.1700 0.2944 0.0000 ( 11413 PWs)   bands (ev):

   -77.8261 -49.2370 -49.1057 -49.0087 -23.4224 -23.3716 -21.0319 -20.1085
   -13.7191 -13.0679 -12.4645 -11.2273 -11.1768 -10.8917 -10.2385  -9.4651
    -8.8502  -8.3612  -8.1239  -7.7731  -6.4493  -3.8763  -3.6891  -3.1847
    -2.2697   0.1429   0.3005   2.0988   2.1093   3.1765   3.7919   4.4635
     4.7720   5.4357   6.1577

          k = 0.1733 0.3002 0.0000 ( 11417 PWs)   bands (ev):

   -77.8253 -49.2417 -49.1083 -49.0076 -23.3701 -23.3201 -21.0024 -20.0937
   -13.7506 -13.1503 -12.4843 -11.2687 -11.2079 -10.9367 -10.2714  -9.5201
    -8.8343  -8.3664  -8.1111  -7.7946  -6.4629  -3.8889  -3.7015  -3.1704
    -2.2569   0.1184   0.2752   2.1218   2.1345   3.1832   3.8105   4.5176
     4.8232   5.4243   6.0977

          k = 0.1767 0.3060 0.0000 ( 11409 PWs)   bands (ev):

   -77.8244 -49.2463 -49.1109 -49.0065 -23.3174 -23.2681 -20.9732 -20.0792
   -13.7866 -13.2314 -12.4985 -11.3278 -11.2328 -10.9709 -10.3036  -9.5744
    -8.8188  -8.3731  -8.0983  -7.8162  -6.4747  -3.9006  -3.7140  -3.1560
    -2.2452   0.0945   0.2504   2.1429   2.1603   3.1920   3.8283   4.5693
     4.8775   5.4124   6.0318

          k = 0.1800 0.3118 0.0000 ( 11405 PWs)   bands (ev):

   -77.8236 -49.2507 -49.1135 -49.0054 -23.2642 -23.2158 -20.9443 -20.0650
   -13.8264 -13.3109 -12.5077 -11.3905 -11.2676 -10.9923 -10.3351  -9.6281
    -8.8037  -8.3814  -8.0855  -7.8379  -6.4848  -3.9116  -3.7265  -3.1415
    -2.2349   0.0714   0.2261   2.1620   2.1866   3.2030   3.8455   4.6176
     4.9348   5.4017   5.9646

          k = 0.1833 0.3175 0.0000 ( 11397 PWs)   bands (ev):

   -77.8229 -49.2551 -49.1163 -49.0043 -23.2106 -23.1630 -20.9158 -20.0511
   -13.8695 -13.3888 -12.5124 -11.4544 -11.3134 -11.0024 -10.3658  -9.6810
    -8.7891  -8.3916  -8.0730  -7.8593  -6.4930  -3.9220  -3.7389  -3.1269
    -2.2257   0.0491   0.2025   2.1790   2.2132   3.2164   3.8625   4.6611
     4.9945   5.3942   5.8980

          k = 0.1867 0.3233 0.0000 ( 11395 PWs)   bands (ev):

   -77.8221 -49.2593 -49.1190 -49.0033 -23.1566 -23.1099 -20.8877 -20.0375
   -13.9154 -13.4651 -12.5132 -11.5188 -11.3676 -11.0042 -10.3959  -9.7328
    -8.7751  -8.4036  -8.0611  -7.8801  -6.4994  -3.9318  -3.7510  -3.1122
    -2.2179   0.0276   0.1796   2.1938   2.2401   3.2324   3.8794   4.6985
     5.0562   5.3911   5.8333

          k = 0.1900 0.3291 0.0000 ( 11387 PWs)   bands (ev):

   -77.8213 -49.2634 -49.1218 -49.0022 -23.1024 -23.0566 -20.8601 -20.0244
   -13.9634 -13.5397 -12.5105 -11.5835 -11.4272 -11.0009 -10.4251  -9.7836
    -8.7617  -8.4176  -8.0502  -7.8998  -6.5040  -3.9414  -3.7625  -3.0975
    -2.2113   0.0069   0.1574   2.2065   2.2670   3.2510   3.8966   4.7284
     5.1192   5.3935   5.7722

          k = 0.1933 0.3349 0.0000 ( 11389 PWs)   bands (ev):

   -77.8205 -49.2673 -49.1246 -49.0011 -23.0479 -23.0029 -20.8331 -20.0116
   -14.0130 -13.6124 -12.5050 -11.6482 -11.4905 -10.9946 -10.4535  -9.8330
    -8.7491  -8.4335  -8.0413  -7.9171  -6.5068  -3.9510  -3.7733  -3.0828
    -2.2059  -0.0131   0.1361   2.2171   2.2939   3.2723   3.9141   4.7501
     5.1825   5.4006   5.7175

          k = 0.1967 0.3406 0.0000 ( 11397 PWs)   bands (ev):

   -77.8198 -49.2711 -49.1275 -49.0001 -22.9932 -22.9491 -20.8066 -19.9992
   -14.0636 -13.6833 -12.4971 -11.7130 -11.5560 -10.9866 -10.4810  -9.8810
    -8.7375  -8.4513  -8.0365  -7.9302  -6.5077  -3.9609  -3.7830  -3.0682
    -2.2017  -0.0323   0.1158   2.2257   2.3207   3.2962   3.9323   4.7632
     5.2436   5.4098   5.6744

          k = 0.2000 0.3464 0.0000 ( 11387 PWs)   bands (ev):

   -77.8190 -49.2748 -49.1304 -48.9991 -22.9384 -22.8952 -20.7807 -19.9873
   -14.1149 -13.7522 -12.4874 -11.7775 -11.6230 -10.9778 -10.5078  -9.9273
    -8.7271  -8.4708  -8.0380  -7.9365  -6.5068  -3.9715  -3.7913  -3.0537
    -2.1987  -0.0508   0.0963   2.2324   2.3475   3.3226   3.9511   4.7686
     5.2965   5.4178   5.6508

          k = 0.2033 0.3522 0.0000 ( 11385 PWs)   bands (ev):

   -77.8183 -49.2782 -49.1333 -48.9981 -22.8834 -22.8412 -20.7555 -19.9759
   -14.1663 -13.8191 -12.4762 -11.8416 -11.6912 -10.9689 -10.5336  -9.9716
    -8.7183  -8.4917  -8.0469  -7.9350  -6.5041  -3.9830  -3.7978  -3.0393
    -2.1968  -0.0687   0.0780   2.2372   2.3741   3.3513   3.9707   4.7673
     5.3223   5.4342   5.6535

          k = 0.2067 0.3580 0.0000 ( 11387 PWs)   bands (ev):

   -77.8176 -49.2816 -49.1363 -48.9971 -22.8285 -22.7872 -20.7310 -19.9649
   -14.2175 -13.8838 -12.4642 -11.9051 -11.7600 -10.9603 -10.5586 -10.0138
    -8.7117  -8.5135  -8.0613  -7.9274  -6.4998  -3.9957  -3.8024  -3.0250
    -2.1960  -0.0860   0.0607   2.2404   2.4004   3.3823   3.9912   4.7607
     5.3069   5.4716   5.6804

          k = 0.2100 0.3637 0.0000 ( 11379 PWs)   bands (ev):

   -77.8169 -49.2847 -49.1393 -48.9962 -22.7736 -22.7332 -20.7073 -19.9545
   -14.2682 -13.9464 -12.4520 -11.9674 -11.8294 -10.9524 -10.5826 -10.0536
    -8.7082  -8.5354  -8.0789  -7.9159  -6.4938  -4.0099  -3.8048  -3.0109
    -2.1963  -0.1027   0.0445   2.2422   2.4266   3.4152   4.0127   4.7503
     5.2693   5.5141   5.7241

          k = 0.2133 0.3695 0.0000 ( 11379 PWs)   bands (ev):

   -77.8162 -49.2877 -49.1424 -48.9952 -22.7187 -22.6793 -20.6844 -19.9446
   -14.3182 -14.0067 -12.4405 -12.0278 -11.8990 -10.9457 -10.6058 -10.0906
    -8.7092  -8.5560  -8.0979  -7.9022  -6.4862  -4.0255  -3.8050  -2.9970
    -2.1974  -0.1191   0.0295   2.2428   2.4524   3.4499   4.0352   4.7372
     5.2238   5.5480   5.7792

          k = 0.2167 0.3753 0.0000 ( 11371 PWs)   bands (ev):

   -77.8156 -49.2906 -49.1455 -48.9943 -22.6641 -22.6256 -20.6623 -19.9353
   -14.3670 -14.0647 -12.4311 -12.0849 -11.9689 -10.9406 -10.6280 -10.1245
    -8.7166  -8.5738  -8.1172  -7.8871  -6.4772  -4.0426  -3.8031  -2.9833
    -2.1995  -0.1350   0.0158   2.2422   2.4778   3.4862   4.0586   4.7221
     5.1762   5.5677   5.8423

          k = 0.2200 0.3811 0.0000 ( 11371 PWs)   bands (ev):

   -77.8149 -49.2932 -49.1486 -48.9934 -22.6097 -22.5722 -20.6410 -19.9265
   -14.4146 -14.1203 -12.4264 -12.1364 -12.0389 -10.9375 -10.6492 -10.1549
    -8.7317  -8.5874  -8.1362  -7.8711  -6.4667  -4.0611  -3.7992  -2.9699
    -2.2024  -0.1506   0.0032   2.2409   2.5029   3.5239   4.0830   4.7057
     5.1293   5.5724   5.9112

          k = 0.2233 0.3868 0.0000 ( 11361 PWs)   bands (ev):

   -77.8143 -49.2957 -49.1517 -48.9926 -22.5556 -22.5191 -20.6207 -19.9183
   -14.4607 -14.1735 -12.4305 -12.1780 -12.1089 -10.9368 -10.6694 -10.1816
    -8.7546  -8.5970  -8.1543  -7.8546  -6.4550  -4.0809  -3.7934  -2.9568
    -2.2060  -0.1659  -0.0081   2.2388   2.5274   3.5627   4.1083   4.6882
     5.0844   5.5647   5.9836

          k = 0.2267 0.3926 0.0000 ( 11357 PWs)   bands (ev):

   -77.8137 -49.2980 -49.1549 -48.9917 -22.5019 -22.4664 -20.6012 -19.9106
   -14.5051 -14.2241 -12.4484 -12.2051 -12.1786 -10.9388 -10.6886 -10.2041
    -8.7840  -8.6041  -8.1710  -7.8377  -6.4421  -4.1017  -3.7859  -2.9440
    -2.2103  -0.1809  -0.0182   2.2362   2.5513   3.6026   4.1346   4.6698
     5.0428   5.5479   6.0566

          k = 0.2300 0.3984 0.0000 ( 11353 PWs)   bands (ev):

   -77.8131 -49.3001 -49.1581 -48.9909 -22.4486 -22.4142 -20.5827 -19.9036
   -14.5477 -14.2721 -12.4818 -12.2490 -12.2150 -10.9437 -10.7068 -10.2223
    -8.8183  -8.6105  -8.1860  -7.8205  -6.4281  -4.1236  -3.7768  -2.9316
    -2.2151  -0.1956  -0.0272   2.2332   2.5746   3.6431   4.1616   4.6504
     5.0053   5.5250   6.1251

          k = 0.2333 0.4041 0.0000 ( 11345 PWs)   bands (ev):

   -77.8125 -49.3020 -49.1614 -48.9901 -22.3959 -22.3625 -20.5652 -19.8971
   -14.5883 -14.3175 -12.5277 -12.3185 -12.2122 -10.9517 -10.7240 -10.2359
    -8.8563  -8.6177  -8.1988  -7.8031  -6.4131  -4.1464  -3.7663  -2.9196
    -2.2205  -0.2100  -0.0351   2.2301   2.5970   3.6844   4.1894   4.6299
     4.9726   5.4984   6.1766

          k = 0.2367 0.4099 0.0000 ( 11341 PWs)   bands (ev):

   -77.8119 -49.3037 -49.1646 -48.9893 -22.3439 -22.3115 -20.5486 -19.8912
   -14.6268 -14.3601 -12.5814 -12.3879 -12.2005 -10.9627 -10.7403 -10.2450
    -8.8970  -8.6266  -8.2091  -7.7857  -6.3972  -4.1699  -3.7545  -2.9079
    -2.2263  -0.2241  -0.0418   2.2268   2.6185   3.7260   4.2177   4.6085
     4.9450   5.4694   6.1975

          k = 0.2400 0.4157 0.0000 ( 11355 PWs)   bands (ev):

   -77.8114 -49.3053 -49.1679 -48.9886 -22.2926 -22.2612 -20.5330 -19.8859
   -14.6631 -14.4000 -12.6394 -12.4571 -12.1834 -10.9765 -10.7559 -10.2497
    -8.9400  -8.6380  -8.2167  -7.7684  -6.3806  -4.1940  -3.7416  -2.8968
    -2.2324  -0.2378  -0.0476   2.2236   2.6390   3.7680   4.2462   4.5864
     4.9228   5.4393   6.1973

          k = 0.2433 0.4215 0.0000 ( 11347 PWs)   bands (ev):

   -77.8108 -49.3066 -49.1712 -48.9879 -22.2421 -22.2118 -20.5184 -19.8812
   -14.6969 -14.4370 -12.7000 -12.5260 -12.1629 -10.9928 -10.7708 -10.2500
    -8.9849  -8.6520  -8.2216  -7.7511  -6.3632  -4.2187  -3.7277  -2.8861
    -2.2387  -0.2512  -0.0524   2.2206   2.6583   3.8102   4.2746   4.5642
     4.9058   5.4090   6.1889

          k = 0.2467 0.4272 0.0000 ( 11341 PWs)   bands (ev):

   -77.8103 -49.3078 -49.1745 -48.9872 -22.1925 -22.1632 -20.5048 -19.8770
   -14.7284 -14.4711 -12.7619 -12.5946 -12.1399 -11.0112 -10.7850 -10.2465
    -9.0312  -8.6688  -8.2239  -7.7340  -6.3453  -4.2438  -3.7129  -2.8760
    -2.2452  -0.2642  -0.0563   2.2178   2.6763   3.8524   4.3022   4.5430
     4.8936   5.3791   6.1770

          k = 0.2500 0.4330 0.0000 ( 11349 PWs)   bands (ev):

   -77.8099 -49.3088 -49.1779 -48.9865 -22.1439 -22.1157 -20.4922 -19.8734
   -14.7572 -14.5022 -12.8246 -12.6628 -12.1151 -11.0312 -10.7987 -10.2394
    -9.0789  -8.6883  -8.2237  -7.7172  -6.3269  -4.2692  -3.6972  -2.8664
    -2.2518  -0.2767  -0.0593   2.2153   2.6927   3.8946   4.3276   4.5245
     4.8854   5.3504   6.1633

          k = 0.2533 0.4388 0.0000 ( 11354 PWs)   bands (ev):

   -77.8094 -49.3096 -49.1812 -48.9859 -22.0964 -22.0692 -20.4806 -19.8702
   -14.7834 -14.5303 -12.8876 -12.7307 -12.0889 -11.0526 -10.8117 -10.2292
    -9.1276  -8.7102  -8.2215  -7.7006  -6.3081  -4.2949  -3.6809  -2.8575
    -2.2584  -0.2888  -0.0615   2.2132   2.7075   3.9367   4.3485   4.5117
     4.8805   5.3235   6.1483

          k = 0.2567 0.4446 0.0000 ( 11350 PWs)   bands (ev):

   -77.8089 -49.3102 -49.1846 -48.9853 -22.0501 -22.0240 -20.4699 -19.8676
   -14.8069 -14.5553 -12.9508 -12.7980 -12.0614 -11.0747 -10.8242 -10.2163
    -9.1773  -8.7342  -8.2175  -7.6844  -6.2890  -4.3208  -3.6639  -2.8493
    -2.2649  -0.3003  -0.0630   2.2116   2.7206   3.9786   4.3615   4.5086
     4.8779   5.2992   6.1324

          k = 0.2600 0.4503 0.0000 ( 11354 PWs)   bands (ev):

   -77.8085 -49.3106 -49.1880 -48.9847 -22.0052 -21.9800 -20.4601 -19.8654
   -14.8275 -14.5772 -13.0140 -12.8650 -12.0328 -11.0974 -10.8360 -10.2011
    -9.2276  -8.7602  -8.2120  -7.6685  -6.2697  -4.3467  -3.6464  -2.8418
    -2.2713  -0.3114  -0.0637   2.2104   2.7317   4.0203   4.3641   4.5178
     4.8767   5.2781   6.1157

          k = 0.2633 0.4561 0.0000 ( 11364 PWs)   bands (ev):

   -77.8081 -49.3108 -49.1913 -48.9841 -21.9616 -21.9374 -20.4513 -19.8636
   -14.8453 -14.5960 -13.0769 -12.9314 -12.0034 -11.1203 -10.8470 -10.1841
    -9.2783  -8.7877  -8.2054  -7.6531  -6.2503  -4.3726  -3.6284  -2.8351
    -2.2773  -0.3219  -0.0638   2.2097   2.7408   4.0616   4.3583   4.5377
     4.8759   5.2609   6.0983

          k = 0.2667 0.4619 0.0000 ( 11350 PWs)   bands (ev):

   -77.8077 -49.3108 -49.1947 -48.9836 -21.9195 -21.8963 -20.4433 -19.8622
   -14.8602 -14.6115 -13.1396 -12.9974 -11.9732 -11.1432 -10.8571 -10.1656
    -9.3293  -8.8166  -8.1980  -7.6381  -6.2309  -4.3983  -3.6101  -2.8292
    -2.2831  -0.3318  -0.0632   2.2096   2.7477   4.1025   4.3480   4.5646
     4.8748   5.2484   6.0801

          k = 0.2700 0.4677 0.0000 ( 11346 PWs)   bands (ev):

   -77.8074 -49.3106 -49.1981 -48.9831 -21.8791 -21.8567 -20.4361 -19.8611
   -14.8722 -14.6239 -13.2018 -13.0628 -11.9423 -11.1658 -10.8662 -10.1461
    -9.3803  -8.8465  -8.1900  -7.6237  -6.2115  -4.4238  -3.5914  -2.8242
    -2.2885  -0.3411  -0.0620   2.2100   2.7526   4.1430   4.3362   4.5956
     4.8728   5.2408   6.0611

          k = 0.2733 0.4734 0.0000 ( 11348 PWs)   bands (ev):

   -77.8070 -49.3103 -49.2015 -48.9826 -21.8404 -21.8188 -20.4298 -19.8603
   -14.8812 -14.6329 -13.2636 -13.1277 -11.9109 -11.1879 -10.8741 -10.1262
    -9.4309  -8.8773  -8.1817  -7.6099  -6.1923  -4.4490  -3.5726  -2.8201
    -2.2935  -0.3498  -0.0603   2.2108   2.7552   4.1830   4.3246   4.6289
     4.8696   5.2383   6.0413

          k = 0.2767 0.4792 0.0000 ( 11344 PWs)   bands (ev):

   -77.8067 -49.3098 -49.2049 -48.9822 -21.8035 -21.7825 -20.4241 -19.8598
   -14.8871 -14.6387 -13.3248 -13.1919 -11.8791 -11.2094 -10.8807 -10.1062
    -9.4806  -8.9088  -8.1733  -7.5966  -6.1734  -4.4738  -3.5537  -2.8170
    -2.2979  -0.3578  -0.0580   2.2121   2.7557   4.2223   4.3138   4.6638
     4.8654   5.2406   6.0206

          k = 0.2800 0.4850 0.0000 ( 11336 PWs)   bands (ev):

   -77.8064 -49.3091 -49.2082 -48.9818 -21.7685 -21.7481 -20.4192 -19.8596
   -14.8901 -14.6412 -13.3853 -13.2555 -11.8471 -11.2301 -10.8858 -10.0871
    -9.5289  -8.9408  -8.1648  -7.5840  -6.1548  -4.4980  -3.5347  -2.8148
    -2.3018  -0.3651  -0.0553   2.2138   2.7543   4.2608   4.3043   4.6997
     4.8608   5.2472   5.9989

          k = 0.2833 0.4907 0.0000 ( 11340 PWs)   bands (ev):

   -77.8061 -49.3083 -49.2116 -48.9814 -21.7354 -21.7156 -20.4148 -19.8594
   -14.8901 -14.6404 -13.4451 -13.3185 -11.8152 -11.2500 -10.8892 -10.0698
    -9.5748  -8.9732  -8.1566  -7.5721  -6.1366  -4.5215  -3.5158  -2.8136
    -2.3052  -0.3717  -0.0521   2.2159   2.7509   4.2926   4.3019   4.7361
     4.8567   5.2573   5.9762

          k = 0.2867 0.4965 0.0000 ( 11340 PWs)   bands (ev):

   -77.8058 -49.3073 -49.2149 -48.9810 -21.7045 -21.6850 -20.4111 -19.8595
   -14.8871 -14.6363 -13.5040 -13.3809 -11.7836 -11.2690 -10.8906 -10.0556
    -9.6170  -9.0058  -8.1486  -7.5608  -6.1190  -4.5443  -3.4971  -2.8134
    -2.3079  -0.3776  -0.0485   2.2182   2.7457   4.2875   4.3365   4.7722
     4.8546   5.2698   5.9523

          k = 0.2900 0.5023 0.0000 ( 11346 PWs)   bands (ev):

   -77.8056 -49.3062 -49.2182 -48.9807 -21.6757 -21.6565 -20.4078 -19.8596
   -14.8813 -14.6288 -13.5620 -13.4424 -11.7525 -11.2869 -10.8897 -10.0465
    -9.6537  -9.0385  -8.1410  -7.5503  -6.1020  -4.5661  -3.4787  -2.8141
    -2.3101  -0.3828  -0.0445   2.2207   2.7391   4.2810   4.3722   4.8055
     4.8574   5.2839   5.9272

          k = 0.2933 0.5081 0.0000 ( 11326 PWs)   bands (ev):

   -77.8054 -49.3049 -49.2215 -48.9804 -21.6490 -21.6300 -20.4051 -19.8598
   -14.8726 -14.6181 -13.6189 -13.5033 -11.7222 -11.3037 -10.8862 -10.0449
    -9.6824  -9.0712  -8.1338  -7.5405  -6.0858  -4.5870  -3.4607  -2.8157
    -2.3118  -0.3872  -0.0403   2.2232   2.7312   4.2751   4.4067   4.8285
     4.8735   5.2989   5.9007

          k = 0.2967 0.5138 0.0000 ( 11332 PWs)   bands (ev):

   -77.8052 -49.3035 -49.2247 -48.9801 -21.6246 -21.6056 -20.4027 -19.8600
   -14.8613 -14.6042 -13.6745 -13.5633 -11.6932 -11.3195 -10.8798 -10.0530
    -9.7011  -9.1037  -8.1272  -7.5315  -6.0704  -4.6067  -3.4432  -2.8180
    -2.3129  -0.3908  -0.0358   2.2258   2.7223   4.2697   4.4398   4.8391
     4.9052   5.3138   5.8726

          k = 0.3000 0.5196 0.0000 ( 11340 PWs)   bands (ev):

   -77.8050 -49.3020 -49.2278 -48.9798 -21.6025 -21.5834 -20.4006 -19.8602
   -14.8474 -14.5870 -13.7288 -13.6224 -11.6657 -11.3342 -10.8702 -10.0719
    -9.7088  -9.1360  -8.1211  -7.5233  -6.0560  -4.6251  -3.4264  -2.8210
    -2.3136  -0.3938  -0.0312   2.2283   2.7127   4.2647   4.4712   4.8469
     4.9430   5.3281   5.8429

          k = 0.3033 0.5254 0.0000 ( 11334 PWs)   bands (ev):

   -77.8048 -49.3004 -49.2309 -48.9796 -21.5826 -21.5634 -20.3989 -19.8603
   -14.8312 -14.5668 -13.7813 -13.6806 -11.6400 -11.3477 -10.8570 -10.1006
    -9.7064  -9.1678  -8.1156  -7.5159  -6.0426  -4.6422  -3.4104  -2.8245
    -2.3138  -0.3960  -0.0265   2.2306   2.7027   4.2599   4.5007   4.8560
     4.9828   5.3412   5.8114

          k = 0.3067 0.5312 0.0000 ( 11342 PWs)   bands (ev):

   -77.8047 -49.2987 -49.2339 -48.9794 -21.5651 -21.5457 -20.3974 -19.8605
   -14.8130 -14.5435 -13.8319 -13.7377 -11.6166 -11.3600 -10.8400 -10.1370
    -9.6963  -9.1990  -8.1108  -7.5092  -6.0303  -4.6578  -3.3955  -2.8284
    -2.3137  -0.3976  -0.0218   2.2327   2.6925   4.2553   4.5284   4.8671
     5.0237   5.3529   5.7778

          k = 0.3100 0.5369 0.0000 ( 11336 PWs)   bands (ev):

   -77.8046 -49.2970 -49.2367 -48.9793 -21.5497 -21.5301 -20.3962 -19.8606
   -14.7933 -14.5174 -13.8801 -13.7936 -11.5956 -11.3712 -10.8190 -10.1786
    -9.6809  -9.2294  -8.1066  -7.5034  -6.0193  -4.6717  -3.3817  -2.8325
    -2.3134  -0.3985  -0.0173   2.2344   2.6826   4.2511   4.5539   4.8798
     5.0653   5.3629   5.7421

          k = 0.3133 0.5427 0.0000 ( 11342 PWs)   bands (ev):

   -77.8045 -49.2952 -49.2394 -48.9791 -21.5366 -21.5168 -20.3951 -19.8606
   -14.7724 -14.4888 -13.9254 -13.8479 -11.5772 -11.3812 -10.7940 -10.2236
    -9.6622  -9.2587  -8.1030  -7.4984  -6.0096  -4.6840  -3.3692  -2.8367
    -2.3128  -0.3988  -0.0129   2.2358   2.6731   4.2473   4.5773   4.8936
     5.1073   5.3713   5.7040

          k = 0.3167 0.5485 0.0000 ( 11340 PWs)   bands (ev):

   -77.8044 -49.2936 -49.2419 -48.9790 -21.5257 -21.5057 -20.3942 -19.8606
   -14.7513 -14.4580 -13.9672 -13.9004 -11.5617 -11.3900 -10.7651 -10.2705
    -9.6419  -9.2865  -8.1001  -7.4942  -6.0013  -4.6945  -3.3583  -2.8406
    -2.3122  -0.3987  -0.0089   2.2367   2.6644   4.2441   4.5983   4.9075
     5.1497   5.3785   5.6634

          k = 0.3200 0.5543 0.0000 ( 11346 PWs)   bands (ev):

   -77.8043 -49.2920 -49.2441 -48.9789 -21.5170 -21.4968 -20.3935 -19.8606
   -14.7308 -14.4258 -14.0044 -13.9503 -11.5490 -11.3973 -10.7328 -10.3181
    -9.6215  -9.3122  -8.0977  -7.4908  -5.9944  -4.7031  -3.3491  -2.8441
    -2.3116  -0.3983  -0.0053   2.2373   2.6568   4.2414   4.6168   4.9204
     5.1923   5.3847   5.6204

          k = 0.3233 0.5600 0.0000 ( 11334 PWs)   bands (ev):

   -77.8042 -49.2906 -49.2459 -48.9788 -21.5103 -21.4899 -20.3929 -19.8605
   -14.7122 -14.3934 -14.0360 -13.9962 -11.5393 -11.4033 -10.6979 -10.3650
    -9.6024  -9.3349  -8.0960  -7.4882  -5.9891  -4.7099  -3.3418  -2.8471
    -2.3110  -0.3976  -0.0023   2.2375   2.6504   4.2394   4.6324   4.9312
     5.2350   5.3903   5.5755

          k = 0.3267 0.5658 0.0000 ( 11330 PWs)   bands (ev):

   -77.8042 -49.2896 -49.2474 -48.9788 -21.5057 -21.4852 -20.3925 -19.8604
   -14.6970 -14.3632 -14.0609 -14.0356 -11.5325 -11.4076 -10.6623 -10.4092
    -9.5863  -9.3533  -8.0948  -7.4864  -5.9853  -4.7147  -3.3364  -2.8494
    -2.3105  -0.3968   0.0001   2.2375   2.6456   4.2382   4.6447   4.9390
     5.2773   5.3943   5.5308

          k = 0.3300 0.5716 0.0000 ( 11332 PWs)   bands (ev):

   -77.8042 -49.2888 -49.2483 -48.9787 -21.5029 -21.4824 -20.3923 -19.8604
   -14.6868 -14.3400 -14.0782 -14.0628 -11.5285 -11.4102 -10.6310 -10.4455
    -9.5754  -9.3655  -8.0941  -7.4853  -5.9830  -4.7175  -3.3332  -2.8508
    -2.3101  -0.3962   0.0016   2.2374   2.6426   4.2375   4.6528   4.9434
     5.3188   5.3909   5.4933

          k = 0.3333 0.5774 0.0000 ( 11316 PWs)   bands (ev):

   -77.8042 -49.2886 -49.2486 -48.9787 -21.5021 -21.4814 -20.3922 -19.8603
   -14.6832 -14.3308 -14.0857 -14.0720 -11.5272 -11.4111 -10.6167 -10.4615
    -9.5714  -9.3698  -8.0939  -7.4849  -5.9822  -4.7185  -3.3321  -2.8513
    -2.3100  -0.3959   0.0021   2.2373   2.6416   4.2374   4.6558   4.9447
     5.3503   5.3739   5.4789

          k = 0.3361 0.5725 0.0000 ( 11324 PWs)   bands (ev):

   -77.8042 -49.2888 -49.2484 -48.9787 -21.5026 -21.4821 -20.3922 -19.8604
   -14.6858 -14.3376 -14.0800 -14.0657 -11.5280 -11.4105 -10.6275 -10.4496
    -9.5741  -9.3669  -8.0940  -7.4851  -5.9827  -4.7178  -3.3328  -2.8509
    -2.3101  -0.3962   0.0017   2.2374   2.6423   4.2374   4.6535   4.9441
     5.3194   5.3973   5.4863

          k = 0.3389 0.5677 0.0000 ( 11330 PWs)   bands (ev):

   -77.8042 -49.2893 -49.2477 -48.9787 -21.5044 -21.4839 -20.3924 -19.8605
   -14.6938 -14.3563 -14.0655 -14.0459 -11.5304 -11.4089 -10.6539 -10.4199
    -9.5815  -9.3588  -8.0944  -7.4859  -5.9843  -4.7159  -3.3351  -2.8499
    -2.3104  -0.3970   0.0004   2.2379   2.6447   4.2373   4.6462   4.9427
     5.2704   5.4287   5.5037

          k = 0.3417 0.5629 0.0000 ( 11334 PWs)   bands (ev):

   -77.8042 -49.2902 -49.2466 -48.9788 -21.5073 -21.4868 -20.3928 -19.8606
   -14.7068 -14.3830 -14.0448 -14.0143 -11.5339 -11.4063 -10.6876 -10.3808
    -9.5925  -9.3466  -8.0951  -7.4870  -5.9868  -4.7128  -3.3387  -2.8483
    -2.3109  -0.3985  -0.0018   2.2387   2.6487   4.2367   4.6337   4.9414
     5.2158   5.4593   5.5272

          k = 0.3444 0.5581 0.0000 ( 11338 PWs)   bands (ev):

   -77.8042 -49.2913 -49.2452 -48.9788 -21.5111 -21.4908 -20.3933 -19.8609
   -14.7242 -14.4145 -14.0180 -13.9749 -11.5386 -11.4030 -10.7243 -10.3367
    -9.6059  -9.3317  -8.0959  -7.4886  -5.9902  -4.7084  -3.3438  -2.8460
    -2.3116  -0.4009  -0.0051   2.2402   2.6545   4.2352   4.6160   4.9405
     5.1578   5.4890   5.5550

          k = 0.3472 0.5533 0.0000 ( 11342 PWs)   bands (ev):

   -77.8043 -49.2927 -49.2434 -48.9789 -21.5160 -21.4957 -20.3940 -19.8612
   -14.7452 -14.4486 -13.9854 -13.9303 -11.5442 -11.3989 -10.7623 -10.2895
    -9.6206  -9.3149  -8.0970  -7.4907  -5.9945  -4.7030  -3.3501  -2.8431
    -2.3126  -0.4043  -0.0095   2.2425   2.6621   4.2318   4.5940   4.9392
     5.0983   5.5181   5.5856

          k = 0.3500 0.5485 0.0000 ( 11346 PWs)   bands (ev):

   -77.8043 -49.2943 -49.2413 -48.9790 -21.5218 -21.5017 -20.3948 -19.8617
   -14.7692 -14.4840 -13.9478 -13.8819 -11.5504 -11.3943 -10.8006 -10.2403
    -9.6360  -9.2970  -8.0982  -7.4931  -5.9997  -4.6965  -3.3576  -2.8398
    -2.3137  -0.4090  -0.0152   2.2458   2.6716   4.2257   4.5688   4.9340
     5.0416   5.5468   5.6180

          k = 0.3528 0.5437 0.0000 ( 11348 PWs)   bands (ev):

   -77.8044 -49.2961 -49.2390 -48.9790 -21.5284 -21.5084 -20.3959 -19.8623
   -14.7955 -14.5201 -13.9057 -13.8304 -11.5573 -11.3893 -10.8387 -10.1896
    -9.6514  -9.2784  -8.0995  -7.4959  -6.0056  -4.6890  -3.3662  -2.8360
    -2.3152  -0.4150  -0.0222   2.2502   2.6830   4.2155   4.5425   4.9119
     5.0007   5.5754   5.6512

          k = 0.3556 0.5389 0.0000 ( 11350 PWs)   bands (ev):

   -77.8045 -49.2980 -49.2365 -48.9791 -21.5358 -21.5160 -20.3971 -19.8630
   -14.8235 -14.5565 -13.8598 -13.7764 -11.5647 -11.3839 -10.8765 -10.1380
    -9.6665  -9.2595  -8.1010  -7.4991  -6.0122  -4.6806  -3.3758  -2.8318
    -2.3169  -0.4225  -0.0308   2.2559   2.6962   4.1996   4.5170   4.8613
     4.9876   5.6039   5.6850

          k = 0.3583 0.5340 0.0000 ( 11342 PWs)   bands (ev):

   -77.8045 -49.3000 -49.2338 -48.9792 -21.5440 -21.5243 -20.3986 -19.8639
   -14.8527 -14.5928 -13.8106 -13.7203 -11.5726 -11.3782 -10.9135 -10.0859
    -9.6807  -9.2405  -8.1025  -7.5025  -6.0195  -4.6714  -3.3863  -2.8273
    -2.3188  -0.4317  -0.0409   2.2632   2.7114   4.1765   4.4943   4.7960
     4.9887   5.6323   5.7188

          k = 0.3611 0.5292 0.0000 ( 11346 PWs)   bands (ev):

   -77.8046 -49.3020 -49.2310 -48.9793 -21.5528 -21.5333 -20.4002 -19.8649
   -14.8828 -14.6290 -13.7586 -13.6622 -11.5808 -11.3723 -10.9498 -10.0339
    -9.6936  -9.2215  -8.1041  -7.5064  -6.0273  -4.6614  -3.3976  -2.8226
    -2.3210  -0.4427  -0.0527   2.2722   2.7285   4.1452   4.4757   4.7255
     4.9946   5.6603   5.7526

          k = 0.3639 0.5244 0.0000 ( 11342 PWs)   bands (ev):

   -77.8047 -49.3041 -49.2281 -48.9795 -21.5623 -21.5429 -20.4021 -19.8661
   -14.9135 -14.6648 -13.7041 -13.6024 -11.5894 -11.3663 -10.9850  -9.9829
    -9.7044  -9.2025  -8.1058  -7.5105  -6.0357  -4.6507  -3.4097  -2.8175
    -2.3235  -0.4555  -0.0664   2.2829   2.7475   4.1059   4.4608   4.6537
     5.0027   5.6878   5.7860

          k = 0.3667 0.5196 0.0000 ( 11346 PWs)   bands (ev):

   -77.8048 -49.3063 -49.2251 -48.9796 -21.5723 -21.5530 -20.4041 -19.8675
   -14.9446 -14.7003 -13.6475 -13.5410 -11.5982 -11.3605 -11.0190  -9.9345
    -9.7117  -9.1835  -8.1075  -7.5149  -6.0445  -4.6395  -3.4224  -2.8123
    -2.3263  -0.4702  -0.0820   2.2956   2.7683   4.0593   4.4467   4.5839
     5.0120   5.7147   5.8190

          k = 0.3694 0.5148 0.0000 ( 11338 PWs)   bands (ev):

   -77.8049 -49.3084 -49.2220 -48.9797 -21.5828 -21.5637 -20.4064 -19.8690
   -14.9758 -14.7352 -13.5890 -13.4782 -11.6073 -11.3548 -11.0516  -9.8914
    -9.7127  -9.1646  -8.1092  -7.5196  -6.0538  -4.6277  -3.4356  -2.8069
    -2.3294  -0.4870  -0.0997   2.3103   2.7908   4.0069   4.4242   4.5252
     5.0220   5.7406   5.8515

          k = 0.3722 0.5100 0.0000 ( 11350 PWs)   bands (ev):

   -77.8050 -49.3106 -49.2188 -48.9799 -21.5937 -21.5748 -20.4089 -19.8707
   -15.0070 -14.7697 -13.5289 -13.4142 -11.6166 -11.3495 -11.0826  -9.8586
    -9.7027  -9.1457  -8.1109  -7.5245  -6.0633  -4.6154  -3.4493  -2.8013
    -2.3328  -0.5059  -0.1196   2.3269   2.8151   3.9501   4.3766   4.4937
     5.0326   5.7654   5.8834

          k = 0.3750 0.5052 0.0000 ( 11358 PWs)   bands (ev):

   -77.8051 -49.3128 -49.2156 -48.9800 -21.6051 -21.5862 -20.4116 -19.8726
   -15.0381 -14.8037 -13.4674 -13.3489 -11.6261 -11.3450 -11.1115  -9.8401
    -9.6779  -9.1266  -8.1126  -7.5296  -6.0732  -4.6028  -3.4635  -2.7955
    -2.3365  -0.5268  -0.1416   2.3456   2.8409   3.8901   4.3085   4.4843
     5.0435   5.7888   5.9146

          k = 0.3778 0.5004 0.0000 ( 11350 PWs)   bands (ev):

   -77.8053 -49.3149 -49.2124 -48.9802 -21.6168 -21.5980 -20.4145 -19.8747
   -15.0691 -14.8370 -13.4047 -13.2826 -11.6358 -11.3417 -11.1380  -9.8340
    -9.6405  -9.1071  -8.1143  -7.5350  -6.0833  -4.5899  -3.4780  -2.7895
    -2.3406  -0.5498  -0.1660   2.3662   2.8682   3.8279   4.2331   4.4838
     5.0547   5.8107   5.9451

          k = 0.3806 0.4956 0.0000 ( 11350 PWs)   bands (ev):

   -77.8054 -49.3171 -49.2091 -48.9804 -21.6288 -21.6101 -20.4176 -19.8769
   -15.0997 -14.8698 -13.3411 -13.2154 -11.6455 -11.3400 -11.1614  -9.8347
    -9.5963  -9.0869  -8.1160  -7.5406  -6.0935  -4.5767  -3.4929  -2.7833
    -2.3450  -0.5749  -0.1927   2.3885   2.8968   3.7646   4.1552   4.4870
     5.0660   5.8309   5.9748

          k = 0.3833 0.4907 0.0000 ( 11348 PWs)   bands (ev):

   -77.8055 -49.3192 -49.2058 -48.9806 -21.6410 -21.6224 -20.4208 -19.8793
   -15.1301 -14.9020 -13.2767 -13.1474 -11.6553 -11.3407 -11.1810  -9.8386
    -9.5495  -9.0658  -8.1177  -7.5464  -6.1040  -4.5633  -3.5080  -2.7769
    -2.3498  -0.6021  -0.2217   2.4122   2.9267   3.7009   4.0766   4.4922
     5.0775   5.8492   6.0037

          k = 0.3861 0.4859 0.0000 ( 11350 PWs)   bands (ev):

   -77.8056 -49.3214 -49.2025 -48.9807 -21.6535 -21.6349 -20.4243 -19.8818
   -15.1600 -14.9335 -13.2118 -13.0788 -11.6651 -11.3444 -11.1960  -9.8436
    -9.5024  -9.0434  -8.1193  -7.5524  -6.1145  -4.5498  -3.5234  -2.7702
    -2.3551  -0.6313  -0.2530   2.4370   2.9574   3.6378   3.9982   4.4988
     5.0889   5.8653   6.0316

          k = 0.3889 0.4811 0.0000 ( 11346 PWs)   bands (ev):

   -77.8058 -49.3235 -49.1992 -48.9809 -21.6661 -21.6476 -20.4279 -19.8845
   -15.1895 -14.9644 -13.1466 -13.0096 -11.6747 -11.3515 -11.2062  -9.8489
    -9.4566  -9.0190  -8.1210  -7.5586  -6.1251  -4.5362  -3.5390  -2.7633
    -2.3608  -0.6625  -0.2867   2.4623   2.9889   3.5762   3.9205   4.5063
     5.1004   5.8792   6.0587

          k = 0.3917 0.4763 0.0000 ( 11338 PWs)   bands (ev):

   -77.8059 -49.3256 -49.1958 -48.9811 -21.6788 -21.6603 -20.4316 -19.8873
   -15.2185 -14.9946 -13.0813 -12.9401 -11.6841 -11.3615 -11.2119  -9.8538
    -9.4132  -8.9923  -8.1227  -7.5650  -6.1357  -4.5225  -3.5547  -2.7562
    -2.3669  -0.6956  -0.3225   2.4873   3.0207   3.5170   3.8442   4.5147
     5.1118   5.8907   6.0847

          k = 0.3944 0.4715 0.0000 ( 11336 PWs)   bands (ev):

   -77.8061 -49.3276 -49.1925 -48.9813 -21.6916 -21.6732 -20.4355 -19.8903
   -15.2470 -15.0242 -13.0161 -12.8704 -11.6931 -11.3737 -11.2138  -9.8582
    -9.3729  -8.9626  -8.1244  -7.5715  -6.1464  -4.5089  -3.5706  -2.7487
    -2.3736  -0.7307  -0.3605   2.5112   3.0525   3.4615   3.7698   4.5238
     5.1231   5.8998   6.1097

          k = 0.3972 0.4667 0.0000 ( 11328 PWs)   bands (ev):

   -77.8062 -49.3296 -49.1892 -48.9815 -21.7045 -21.6860 -20.4396 -19.8933
   -15.2750 -15.0530 -12.9515 -12.8008 -11.7016 -11.3868 -11.2130  -9.8619
    -9.3365  -8.9297  -8.1261  -7.5782  -6.1571  -4.4954  -3.5866  -2.7409
    -2.3808  -0.7675  -0.4005   2.5325   3.0834   3.4109   3.6980   4.5335
     5.1342   5.9063   6.1337

          k = 0.4000 0.4619 0.0000 ( 11320 PWs)   bands (ev):

   -77.8063 -49.3316 -49.1859 -48.9817 -21.7173 -21.6989 -20.4437 -19.8965
   -15.3024 -15.0812 -12.8877 -12.7313 -11.7091 -11.4001 -11.2103  -9.8647
    -9.3042  -8.8932  -8.1279  -7.5851  -6.1677  -4.4819  -3.6026  -2.7328
    -2.3884  -0.8062  -0.4424   2.5498   3.1125   3.3669   3.6303   4.5440
     5.1452   5.9102   6.1565

          k = 0.4028 0.4571 0.0000 ( 11332 PWs)   bands (ev):

   -77.8065 -49.3336 -49.1826 -48.9819 -21.7301 -21.7117 -20.4479 -19.8998
   -15.3292 -15.1087 -12.8251 -12.6623 -11.7155 -11.4128 -11.2064  -9.8666
    -9.2761  -8.8533  -8.1296  -7.5921  -6.1783  -4.4687  -3.6187  -2.7245
    -2.3967  -0.8465  -0.4859   2.5613   3.1379   3.3312   3.5684   4.5552
     5.1560   5.9116   6.1782

          k = 0.4056 0.4523 0.0000 ( 11332 PWs)   bands (ev):

   -77.8066 -49.3355 -49.1794 -48.9821 -21.7429 -21.7245 -20.4523 -19.9032
   -15.3553 -15.1355 -12.7641 -12.5941 -11.7203 -11.4243 -11.2017  -9.8676
    -9.2521  -8.8102  -8.1314  -7.5993  -6.1888  -4.4555  -3.6349  -2.7158
    -2.4054  -0.8884  -0.5310   2.5651   3.1565   3.3053   3.5158   4.5672
     5.1666   5.9105   6.1987

          k = 0.4083 0.4474 0.0000 ( 11330 PWs)   bands (ev):

   -77.8068 -49.3374 -49.1762 -48.9823 -21.7556 -21.7372 -20.4567 -19.9066
   -15.3809 -15.1616 -12.7052 -12.5270 -11.7231 -11.4344 -11.1964  -9.8677
    -9.2317  -8.7644  -8.1331  -7.6066  -6.1992  -4.4426  -3.6510  -2.7069
    -2.4146  -0.9318  -0.5773   2.5599   3.1633   3.2902   3.4778   4.5802
     5.1771   5.9070   6.2180

          k = 0.4111 0.4426 0.0000 ( 11326 PWs)   bands (ev):

   -77.8069 -49.3392 -49.1730 -48.9825 -21.7682 -21.7497 -20.4611 -19.9101
   -15.4058 -15.1869 -12.6490 -12.4613 -11.7231 -11.4426 -11.1908  -9.8668
    -9.2144  -8.7166  -8.1349  -7.6140  -6.2096  -4.4300  -3.6671  -2.6979
    -2.4244  -0.9767  -0.6248   2.5452   3.1527   3.2866   3.4598   4.5941
     5.1874   5.9012   6.2360

          k = 0.4139 0.4378 0.0000 ( 11326 PWs)   bands (ev):

   -77.8071 -49.3410 -49.1699 -48.9827 -21.7806 -21.7621 -20.4657 -19.9137
   -15.4301 -15.2115 -12.5961 -12.3975 -11.7198 -11.4488 -11.1850  -9.8650
    -9.1999  -8.6672  -8.1365  -7.6216  -6.2199  -4.4176  -3.6831  -2.6888
    -2.4345  -1.0229  -0.6730   2.5215   3.1238   3.2943   3.4622   4.6090
     5.1974   5.8933   6.2528

          k = 0.4167 0.4330 0.0000 ( 11324 PWs)   bands (ev):

   -77.8072 -49.3427 -49.1668 -48.9829 -21.7929 -21.7743 -20.4702 -19.9173
   -15.4537 -15.2354 -12.5472 -12.3361 -11.7125 -11.4526 -11.1789  -9.8623
    -9.1876  -8.6169  -8.1381  -7.6292  -6.2300  -4.4055  -3.6991  -2.6798
    -2.4449  -1.0703  -0.7219   2.4900   3.0816   3.3117   3.4803   4.6252
     5.2074   5.8834   6.2684

          k = 0.4194 0.4282 0.0000 ( 11312 PWs)   bands (ev):

   -77.8074 -49.3444 -49.1638 -48.9831 -21.8049 -21.7863 -20.4747 -19.9209
   -15.4765 -15.2586 -12.5029 -12.2775 -11.7005 -11.4538 -11.1727  -9.8588
    -9.1771  -8.5662  -8.1394  -7.6368  -6.2401  -4.3938  -3.7149  -2.6711
    -2.4553  -1.1189  -0.7711   2.4525   3.0322   3.3361   3.5085   4.6426
     5.2172   5.8718   6.2827

          k = 0.4222 0.4234 0.0000 ( 11308 PWs)   bands (ev):

   -77.8075 -49.3461 -49.1608 -48.9833 -21.8168 -21.7981 -20.4793 -19.9246
   -15.4987 -15.2810 -12.4640 -12.2223 -11.6830 -11.4522 -11.1661  -9.8544
    -9.1682  -8.5157  -8.1404  -7.6445  -6.2502  -4.3823  -3.7307  -2.6630
    -2.4656  -1.1684  -0.8204   2.4107   2.9796   3.3653   3.5435   4.6613
     5.2270   5.8586   6.2958

          k = 0.4250 0.4186 0.0000 ( 11304 PWs)   bands (ev):

   -77.8076 -49.3477 -49.1579 -48.9835 -21.8284 -21.8097 -20.4838 -19.9282
   -15.5202 -15.3027 -12.4308 -12.1710 -11.6600 -11.4473 -11.1593  -9.8493
    -9.1604  -8.4660  -8.1408  -7.6521  -6.2601  -4.3713  -3.7463  -2.6561
    -2.4753  -1.2188  -0.8695   2.3658   2.9261   3.3972   3.5833   4.6814
     5.2367   5.8441   6.3077

          k = 0.4278 0.4138 0.0000 ( 11300 PWs)   bands (ev):

   -77.8078 -49.3492 -49.1551 -48.9836 -21.8397 -21.8210 -20.4883 -19.9319
   -15.5410 -15.3236 -12.4035 -12.1241 -11.6312 -11.4390 -11.1520  -9.8435
    -9.1537  -8.4177  -8.1402  -7.6596  -6.2699  -4.3606  -3.7617  -2.6508
    -2.4838  -1.2698  -0.9183   2.3191   2.8728   3.4301   3.6270   4.7030
     5.2465   5.8284   6.3184

          k = 0.4306 0.4090 0.0000 ( 11302 PWs)   bands (ev):

   -77.8079 -49.3507 -49.1523 -48.9838 -21.8508 -21.8320 -20.4928 -19.9355
   -15.5611 -15.3437 -12.3820 -12.0818 -11.5974 -11.4269 -11.1441  -9.8370
    -9.1477  -8.3719  -8.1379  -7.6670  -6.2797  -4.3503  -3.7769  -2.6481
    -2.4904  -1.3214  -0.9664   2.2716   2.8205   3.4625   3.6742   4.7260
     5.2564   5.8118   6.3279

          k = 0.4333 0.4041 0.0000 ( 11304 PWs)   bands (ev):

   -77.8081 -49.3522 -49.1496 -48.9840 -21.8615 -21.8427 -20.4972 -19.9391
   -15.5804 -15.3631 -12.3660 -12.0444 -11.5593 -11.4108 -11.1352  -9.8300
    -9.1424  -8.3299  -8.1329  -7.6741  -6.2894  -4.3404  -3.7918  -2.6487
    -2.4944  -1.3732  -1.0137   2.2238   2.7695   3.4938   3.7243   4.7505
     5.2665   5.7946   6.3363

          k = 0.4361 0.3993 0.0000 ( 11318 PWs)   bands (ev):

   -77.8082 -49.3536 -49.1470 -48.9842 -21.8720 -21.8531 -20.5015 -19.9426
   -15.5990 -15.3818 -12.3549 -12.0119 -11.5184 -11.3904 -11.1252  -9.8225
    -9.1376  -8.2937  -8.1235  -7.6807  -6.2990  -4.3309  -3.8066  -2.6532
    -2.4951  -1.4251  -1.0600   2.1763   2.7203   3.5232   3.7768   4.7764
     5.2768   5.7769   6.3436

          k = 0.4389 0.3945 0.0000 ( 11326 PWs)   bands (ev):

   -77.8083 -49.3549 -49.1444 -48.9844 -21.8821 -21.8631 -20.5057 -19.9461
   -15.6168 -15.3996 -12.3480 -11.9841 -11.4766 -11.3652 -11.1136  -9.8146
    -9.1332  -8.2657  -8.1076  -7.6868  -6.3085  -4.3218  -3.8210  -2.6615
    -2.4928  -1.4768  -1.1051   2.1296   2.6728   3.5506   3.8311   4.8036
     5.2875   5.7590   6.3498

          k = 0.4417 0.3897 0.0000 ( 11338 PWs)   bands (ev):

   -77.8084 -49.3562 -49.1420 -48.9845 -21.8918 -21.8728 -20.5099 -19.9495
   -15.6339 -15.4167 -12.3445 -11.9608 -11.4364 -11.3345 -11.0999  -9.8064
    -9.1291  -8.2468  -8.0845  -7.6921  -6.3180  -4.3132  -3.8351  -2.6732
    -2.4877  -1.5281  -1.1489   2.0839   2.6273   3.5758   3.8867   4.8321
     5.2987   5.7410   6.3550

          k = 0.4444 0.3849 0.0000 ( 11334 PWs)   bands (ev):

   -77.8086 -49.3575 -49.1396 -48.9847 -21.9012 -21.8822 -20.5139 -19.9528
   -15.6502 -15.4331 -12.3437 -11.9416 -11.4001 -11.2979 -11.0838  -9.7979
    -9.1252  -8.2359  -8.0559  -7.6961  -6.3274  -4.3050  -3.8489  -2.6879
    -2.4806  -1.5785  -1.1912   2.0395   2.5839   3.5988   3.9429   4.8617
     5.3104   5.7233   6.3592

          k = 0.4472 0.3801 0.0000 ( 11336 PWs)   bands (ev):

   -77.8087 -49.3587 -49.1374 -48.9849 -21.9103 -21.8911 -20.5178 -19.9560
   -15.6658 -15.4486 -12.3451 -11.9260 -11.3691 -11.2557 -11.0646  -9.7893
    -9.1214  -8.2306  -8.0247  -7.6986  -6.3367  -4.2972  -3.8624  -2.7047
    -2.4721  -1.6278  -1.2320   1.9966   2.5425   3.6197   3.9992   4.8922
     5.3226   5.7061   6.3625

          k = 0.4500 0.3753 0.0000 ( 11336 PWs)   bands (ev):

   -77.8088 -49.3598 -49.1352 -48.9850 -21.9189 -21.8997 -20.5216 -19.9591
   -15.6806 -15.4634 -12.3482 -11.9134 -11.3433 -11.2096 -11.0423  -9.7807
    -9.1178  -8.2287  -7.9936  -7.6990  -6.3460  -4.2899  -3.8754  -2.7231
    -2.4629  -1.6757  -1.2712   1.9553   2.5033   3.6387   4.0550   4.9235
     5.3356   5.6895   6.3649

          k = 0.4528 0.3705 0.0000 ( 11322 PWs)   bands (ev):

   -77.8089 -49.3609 -49.1331 -48.9852 -21.9271 -21.9079 -20.5253 -19.9621
   -15.6946 -15.4774 -12.3525 -11.9035 -11.3222 -11.1613 -11.0169  -9.7721
    -9.1142  -8.2290  -7.9647  -7.6965  -6.3551  -4.2830  -3.8880  -2.7426
    -2.4536  -1.7217  -1.3086   1.9158   2.4662   3.6558   4.1097   4.9553
     5.3492   5.6740   6.3665

          k = 0.4556 0.3657 0.0000 ( 11332 PWs)   bands (ev):

   -77.8090 -49.3619 -49.1312 -48.9853 -21.9349 -21.9157 -20.5288 -19.9650
   -15.7078 -15.4906 -12.3576 -11.8957 -11.3050 -11.1124 -10.9885  -9.7635
    -9.1106  -8.2307  -7.9396  -7.6904  -6.3642  -4.2765  -3.9002  -2.7630
    -2.4445  -1.7654  -1.3443   1.8781   2.4312   3.6711   4.1629   4.9873
     5.3634   5.6599   6.3673

          k = 0.4583 0.3608 0.0000 ( 11332 PWs)   bands (ev):

   -77.8091 -49.3628 -49.1293 -48.9854 -21.9423 -21.9230 -20.5321 -19.9678
   -15.7203 -15.5030 -12.3633 -11.8896 -11.2911 -11.0638 -10.9579  -9.7552
    -9.1070  -8.2332  -7.9192  -7.6803  -6.3731  -4.2704  -3.9119  -2.7837
    -2.4361  -1.8065  -1.3783   1.8425   2.3984   3.6848   4.2141   5.0193
     5.3781   5.6474   6.3675

          k = 0.4611 0.3560 0.0000 ( 11332 PWs)   bands (ev):

   -77.8092 -49.3637 -49.1276 -48.9856 -21.9492 -21.9299 -20.5353 -19.9704
   -15.7320 -15.5146 -12.3693 -11.8849 -11.2800 -11.0164 -10.9258  -9.7471
    -9.1035  -8.2363  -7.9041  -7.6660  -6.3818  -4.2648  -3.9231  -2.8046
    -2.4287  -1.8445  -1.4104   1.8088   2.3678   3.6970   4.2629   5.0510
     5.3931   5.6371   6.3669

          k = 0.4639 0.3512 0.0000 ( 11332 PWs)   bands (ev):

   -77.8093 -49.3646 -49.1259 -48.9857 -21.9558 -21.9364 -20.5382 -19.9729
   -15.7428 -15.5254 -12.3755 -11.8813 -11.2711 -10.9706 -10.8928  -9.7394
    -9.0999  -8.2398  -7.8938  -7.6481  -6.3904  -4.2595  -3.9337  -2.8254
    -2.4227  -1.8791  -1.4407   1.7773   2.3393   3.7078   4.3089   5.0819
     5.4080   5.6296   6.3658

          k = 0.4667 0.3464 0.0000 ( 11336 PWs)   bands (ev):

   -77.8094 -49.3653 -49.1244 -48.9858 -21.9618 -21.9424 -20.5410 -19.9752
   -15.7529 -15.5354 -12.3817 -11.8786 -11.2641 -10.9270 -10.8597  -9.7320
    -9.0964  -8.2435  -7.8877  -7.6275  -6.3987  -4.2547  -3.9438  -2.8458
    -2.4184  -1.9098  -1.4692   1.7479   2.3130   3.7173   4.3518   5.1117
     5.4223   5.6253   6.3642

          k = 0.4694 0.3416 0.0000 ( 11340 PWs)   bands (ev):

   -77.8094 -49.3661 -49.1230 -48.9859 -21.9674 -21.9480 -20.5436 -19.9774
   -15.7622 -15.5447 -12.3877 -11.8766 -11.2585 -10.8860 -10.8270  -9.7251
    -9.0929  -8.2473  -7.8846  -7.6056  -6.4068  -4.2503  -3.9533  -2.8655
    -2.4160  -1.9364  -1.4959   1.7207   2.2888   3.7257   4.3914   5.1401
     5.4355   5.6250   6.3621

          k = 0.4722 0.3368 0.0000 ( 11344 PWs)   bands (ev):

   -77.8095 -49.3667 -49.1217 -48.9860 -21.9726 -21.9531 -20.5460 -19.9794
   -15.7707 -15.5531 -12.3935 -11.8752 -11.2540 -10.8478 -10.7954  -9.7186
    -9.0895  -8.2511  -7.8836  -7.5832  -6.4145  -4.2462  -3.9621  -2.8844
    -2.4155  -1.9587  -1.5206   1.6958   2.2667   3.7330   4.4274   5.1666
     5.4470   5.6289   6.3597

          k = 0.4750 0.3320 0.0000 ( 11344 PWs)   bands (ev):

   -77.8096 -49.3673 -49.1205 -48.9861 -21.9772 -21.9577 -20.5482 -19.9812
   -15.7784 -15.5608 -12.3989 -11.8741 -11.2504 -10.8127 -10.7653  -9.7127
    -9.0862  -8.2548  -7.8841  -7.5612  -6.4218  -4.2426  -3.9703  -2.9022
    -2.4171  -1.9767  -1.5434   1.6731   2.2468   3.7393   4.4597   5.1907
     5.4567   5.6371   6.3570

          k = 0.4778 0.3272 0.0000 ( 11340 PWs)   bands (ev):

   -77.8096 -49.3678 -49.1194 -48.9862 -21.9814 -21.9619 -20.5501 -19.9828
   -15.7853 -15.5676 -12.4039 -11.8734 -11.2476 -10.7809 -10.7371  -9.7074
    -9.0830  -8.2583  -7.8854  -7.5403  -6.4286  -4.2393  -3.9777  -2.9188
    -2.4204  -1.9906  -1.5642   1.6528   2.2290   3.7448   4.4883   5.2122
     5.4647   5.6491   6.3541

          k = 0.4806 0.3224 0.0000 ( 11328 PWs)   bands (ev):

   -77.8097 -49.3683 -49.1185 -48.9862 -21.9851 -21.9655 -20.5519 -19.9843
   -15.7914 -15.5736 -12.4085 -11.8729 -11.2453 -10.7527 -10.7112  -9.7026
    -9.0801  -8.2616  -7.8872  -7.5210  -6.4348  -4.2364  -3.9844  -2.9339
    -2.4250  -2.0010  -1.5830   1.6347   2.2133   3.7494   4.5132   5.2307
     5.4716   5.6637   6.3513

          k = 0.4833 0.3175 0.0000 ( 11328 PWs)   bands (ev):

   -77.8097 -49.3687 -49.1177 -48.9863 -21.9883 -21.9687 -20.5534 -19.9856
   -15.7966 -15.5789 -12.4125 -11.8726 -11.2435 -10.7280 -10.6879  -9.6985
    -9.0774  -8.2646  -7.8892  -7.5036  -6.4405  -4.2339  -3.9903  -2.9473
    -2.4305  -2.0081  -1.5997   1.6191   2.1997   3.7533   4.5345   5.2461
     5.4776   5.6798   6.3484

          k = 0.4861 0.3127 0.0000 ( 11336 PWs)   bands (ev):

   -77.8098 -49.3691 -49.1170 -48.9863 -21.9911 -21.9715 -20.5547 -19.9866
   -15.8011 -15.5833 -12.4160 -11.8725 -11.2421 -10.7071 -10.6677  -9.6949
    -9.0751  -8.2672  -7.8912  -7.4884  -6.4454  -4.2318  -3.9954  -2.9589
    -2.4363  -2.0128  -1.6141   1.6058   2.1882   3.7565   4.5523   5.2584
     5.4832   5.6960   6.3458

          k = 0.4889 0.3079 0.0000 ( 11328 PWs)   bands (ev):

   -77.8098 -49.3694 -49.1164 -48.9864 -21.9933 -21.9737 -20.5558 -19.9875
   -15.8048 -15.5869 -12.4189 -11.8724 -11.2411 -10.6899 -10.6508  -9.6920
    -9.0731  -8.2695  -7.8930  -7.4757  -6.4496  -4.2300  -3.9996  -2.9687
    -2.4418  -2.0157  -1.6261   1.5949   2.1788   3.7591   4.5666   5.2678
     5.4883   5.7111   6.3434

          k = 0.4917 0.3031 0.0000 ( 11316 PWs)   bands (ev):

   -77.8098 -49.3696 -49.1160 -48.9864 -21.9950 -21.9754 -20.5566 -19.9882
   -15.8076 -15.5897 -12.4211 -11.8723 -11.2403 -10.6765 -10.6373  -9.6898
    -9.0715  -8.2713  -7.8945  -7.4656  -6.4529  -4.2287  -4.0029  -2.9763
    -2.4466  -2.0172  -1.6356   1.5864   2.1716   3.7610   4.5776   5.2747
     5.4928   5.7241   6.3415

          k = 0.4944 0.2983 0.0000 ( 11310 PWs)   bands (ev):

   -77.8098 -49.3697 -49.1156 -48.9864 -21.9963 -21.9767 -20.5572 -19.9887
   -15.8096 -15.5918 -12.4228 -11.8723 -11.2398 -10.6668 -10.6276  -9.6882
    -9.0703  -8.2726  -7.8956  -7.4584  -6.4553  -4.2277  -4.0052  -2.9819
    -2.4504  -2.0179  -1.6426   1.5803   2.1663   3.7624   4.5854   5.2793
     5.4962   5.7341   6.3400

          k = 0.4972 0.2935 0.0000 ( 11318 PWs)   bands (ev):

   -77.8098 -49.3698 -49.1154 -48.9865 -21.9970 -21.9774 -20.5576 -19.9890
   -15.8109 -15.5930 -12.4238 -11.8723 -11.2394 -10.6611 -10.6217  -9.6872
    -9.0696  -8.2734  -7.8963  -7.4540  -6.4568  -4.2271  -4.0067  -2.9852
    -2.4527  -2.0181  -1.6468   1.5767   2.1632   3.7632   4.5900   5.2819
     5.4985   5.7403   6.3391

          k = 0.5000 0.2887 0.0000 ( 11328 PWs)   bands (ev):

   -77.8098 -49.3699 -49.1154 -48.9865 -21.9973 -21.9777 -20.5577 -19.9891
   -15.8113 -15.5934 -12.4241 -11.8723 -11.2393 -10.6591 -10.6198  -9.6869
    -9.0694  -8.2736  -7.8965  -7.4525  -6.4573  -4.2269  -4.0072  -2.9864
    -2.4535  -2.0182  -1.6482   1.5755   2.1622   3.7635   4.5915   5.2827
     5.4992   5.7425   6.3387

          k = 0.4950 0.2858 0.0000 ( 11328 PWs)   bands (ev):

   -77.8099 -49.3698 -49.1154 -48.9865 -21.9987 -21.9790 -20.5577 -19.9889
   -15.8097 -15.5918 -12.4245 -11.8714 -11.2390 -10.6588 -10.6195  -9.6867
    -9.0691  -8.2743  -7.8965  -7.4529  -6.4574  -4.2266  -4.0069  -2.9859
    -2.4524  -2.0184  -1.6479   1.5760   2.1628   3.7631   4.5902   5.2821
     5.4996   5.7428   6.3388

          k = 0.4900 0.2829 0.0000 ( 11331 PWs)   bands (ev):

   -77.8099 -49.3695 -49.1153 -48.9865 -22.0031 -21.9832 -20.5580 -19.9884
   -15.8051 -15.5873 -12.4257 -11.8688 -11.2380 -10.6579 -10.6186  -9.6862
    -9.0682  -8.2764  -7.8964  -7.4541  -6.4578  -4.2259  -4.0063  -2.9846
    -2.4489  -2.0189  -1.6471   1.5776   2.1646   3.7620   4.5861   5.2801
     5.5006   5.7436   6.3389

          k = 0.4850 0.2800 0.0000 ( 11341 PWs)   bands (ev):

   -77.8099 -49.3691 -49.1152 -48.9866 -22.0102 -21.9902 -20.5583 -19.9875
   -15.7975 -15.5796 -12.4277 -11.8644 -11.2363 -10.6564 -10.6171  -9.6854
    -9.0668  -8.2797  -7.8962  -7.4561  -6.4585  -4.2246  -4.0052  -2.9824
    -2.4432  -2.0198  -1.6457   1.5803   2.1675   3.7603   4.5793   5.2767
     5.5023   5.7450   6.3390

          k = 0.4800 0.2771 0.0000 ( 11347 PWs)   bands (ev):

   -77.8100 -49.3686 -49.1151 -48.9867 -22.0202 -21.9998 -20.5589 -19.9862
   -15.7868 -15.5690 -12.4304 -11.8583 -11.2339 -10.6543 -10.6151  -9.6842
    -9.0647  -8.2844  -7.8959  -7.4589  -6.4595  -4.2228  -4.0036  -2.9793
    -2.4352  -2.0211  -1.6437   1.5841   2.1717   3.7578   4.5699   5.2720
     5.5047   5.7470   6.3392

          k = 0.4750 0.2742 0.0000 ( 11363 PWs)   bands (ev):

   -77.8101 -49.3679 -49.1149 -48.9869 -22.0329 -22.0121 -20.5596 -19.9847
   -15.7730 -15.5553 -12.4338 -11.8506 -11.2309 -10.6516 -10.6125  -9.6826
    -9.0621  -8.2904  -7.8956  -7.4625  -6.4607  -4.2206  -4.0016  -2.9755
    -2.4249  -2.0227  -1.6411   1.5890   2.1769   3.7545   4.5578   5.2659
     5.5078   5.7496   6.3395

          k = 0.4700 0.2714 0.0000 ( 11367 PWs)   bands (ev):

   -77.8102 -49.3670 -49.1147 -48.9870 -22.0482 -22.0270 -20.5607 -19.9830
   -15.7563 -15.5387 -12.4380 -11.8412 -11.2273 -10.6483 -10.6093  -9.6806
    -9.0590  -8.2975  -7.8952  -7.4668  -6.4621  -4.2178  -3.9992  -2.9709
    -2.4124  -2.0247  -1.6379   1.5950   2.1834   3.7505   4.5432   5.2586
     5.5116   5.7526   6.3398

          k = 0.4650 0.2685 0.0000 ( 11363 PWs)   bands (ev):

   -77.8104 -49.3660 -49.1145 -48.9872 -22.0662 -22.0444 -20.5621 -19.9810
   -15.7367 -15.5190 -12.4428 -11.8304 -11.2230 -10.6444 -10.6055  -9.6783
    -9.0552  -8.3058  -7.8948  -7.4720  -6.4639  -4.2146  -3.9964  -2.9656
    -2.3976  -2.0271  -1.6340   1.6020   2.1910   3.7457   4.5261   5.2501
     5.5161   5.7562   6.3401

          k = 0.4600 0.2656 0.0000 ( 11363 PWs)   bands (ev):

   -77.8106 -49.3648 -49.1142 -48.9874 -22.0866 -22.0641 -20.5639 -19.9790
   -15.7141 -15.4965 -12.4481 -11.8180 -11.2182 -10.6399 -10.6011  -9.6755
    -9.0509  -8.3152  -7.8944  -7.4779  -6.4658  -4.2108  -3.9932  -2.9597
    -2.3807  -2.0298  -1.6294   1.6101   2.1997   3.7401   4.5065   5.2404
     5.5212   5.7603   6.3404

          k = 0.4550 0.2627 0.0000 ( 11357 PWs)   bands (ev):

   -77.8107 -49.3634 -49.1139 -48.9877 -22.1093 -22.0862 -20.5661 -19.9768
   -15.6886 -15.4710 -12.4541 -11.8043 -11.2127 -10.6347 -10.5962  -9.6723
    -9.0460  -8.3256  -7.8941  -7.4846  -6.4680  -4.2065  -3.9895  -2.9533
    -2.3616  -2.0329  -1.6239   1.6192   2.2095   3.7336   4.4846   5.2298
     5.5269   5.7649   6.3407

          k = 0.4500 0.2598 0.0000 ( 11361 PWs)   bands (ev):

   -77.8110 -49.3619 -49.1136 -48.9880 -22.1343 -22.1104 -20.5689 -19.9747
   -15.6603 -15.4426 -12.4606 -11.7893 -11.2068 -10.6290 -10.5907  -9.6685
    -9.0406  -8.3368  -7.8937  -7.4921  -6.4704  -4.2018  -3.9855  -2.9465
    -2.3403  -2.0363  -1.6176   1.6294   2.2204   3.7263   4.4604   5.2182
     5.5331   5.7699   6.3410

          k = 0.4450 0.2569 0.0000 ( 11373 PWs)   bands (ev):

   -77.8112 -49.3603 -49.1132 -48.9883 -22.1613 -22.1366 -20.5722 -19.9727
   -15.6292 -15.4114 -12.4675 -11.7730 -11.2003 -10.6228 -10.5847  -9.6643
    -9.0346  -8.3490  -7.8933  -7.5003  -6.4730  -4.1966  -3.9810  -2.9394
    -2.3169  -2.0401  -1.6104   1.6406   2.2323   3.7180   4.4339   5.2059
     5.5398   5.7754   6.3412

          k = 0.4400 0.2540 0.0000 ( 11375 PWs)   bands (ev):

   -77.8114 -49.3585 -49.1128 -48.9887 -22.1904 -22.1648 -20.5762 -19.9708
   -15.5954 -15.3774 -12.4749 -11.7556 -11.1933 -10.6159 -10.5780  -9.6595
    -9.0280  -8.3618  -7.8930  -7.5092  -6.4757  -4.1908  -3.9762  -2.9321
    -2.2915  -2.0443  -1.6021   1.6529   2.2452   3.7088   4.4054   5.1930
     5.5469   5.7813   6.3414

          k = 0.4350 0.2511 0.0000 ( 11375 PWs)   bands (ev):

   -77.8117 -49.3566 -49.1123 -48.9890 -22.2213 -22.1949 -20.5809 -19.9692
   -15.5589 -15.3407 -12.4828 -11.7372 -11.1859 -10.6084 -10.5708  -9.6541
    -9.0208  -8.3754  -7.8926  -7.5188  -6.4786  -4.1846  -3.9710  -2.9247
    -2.2641  -2.0489  -1.5928   1.6661   2.2590   3.6987   4.3748   5.1798
     5.5543   5.7875   6.3415

          k = 0.4300 0.2483 0.0000 ( 11383 PWs)   bands (ev):

   -77.8120 -49.3545 -49.1118 -48.9894 -22.2539 -22.2266 -20.5864 -19.9678
   -15.5199 -15.3012 -12.4910 -11.7177 -11.1781 -10.6004 -10.5631  -9.6481
    -9.0132  -8.3896  -7.8923  -7.5292  -6.4816  -4.1780  -3.9655  -2.9173
    -2.2347  -2.0538  -1.5824   1.6804   2.2738   3.6875   4.3422   5.1663
     5.5620   5.7940   6.3415

          k = 0.4250 0.2454 0.0000 ( 11385 PWs)   bands (ev):

   -77.8123 -49.3522 -49.1113 -48.9899 -22.2882 -22.2598 -20.5926 -19.9667
   -15.4784 -15.2592 -12.4996 -11.6973 -11.1698 -10.5918 -10.5548  -9.6413
    -9.0049  -8.4043  -7.8920  -7.5402  -6.4847  -4.1708  -3.9596  -2.9100
    -2.2034  -2.0591  -1.5707   1.6956   2.2895   3.6754   4.3079   5.1527
     5.5699   5.8009   6.3413

          k = 0.4200 0.2425 0.0000 ( 11385 PWs)   bands (ev):

   -77.8127 -49.3499 -49.1108 -48.9903 -22.3239 -22.2946 -20.5997 -19.9660
   -15.4344 -15.2145 -12.5086 -11.6761 -11.1612 -10.5826 -10.5459  -9.6339
    -8.9961  -8.4195  -7.8917  -7.5520  -6.4878  -4.1632  -3.9534  -2.9030
    -2.1702  -2.0647  -1.5576   1.7117   2.3060   3.6622   4.2718   5.1392
     5.5780   5.8079   6.3409

          k = 0.4150 0.2396 0.0000 ( 11389 PWs)   bands (ev):

   -77.8130 -49.3473 -49.1102 -48.9908 -22.3609 -22.3307 -20.6076 -19.9657
   -15.3881 -15.1673 -12.5179 -11.6542 -11.1522 -10.5729 -10.5365  -9.6257
    -8.9868  -8.4351  -7.8914  -7.5644  -6.4909  -4.1551  -3.9469  -2.8963
    -2.1353  -2.0708  -1.5432   1.7288   2.3232   3.6480   4.2340   5.1260
     5.5862   5.8152   6.3402

          k = 0.4100 0.2367 0.0000 ( 11387 PWs)   bands (ev):

   -77.8134 -49.3447 -49.1096 -48.9913 -22.3992 -22.3680 -20.6164 -19.9659
   -15.3395 -15.1177 -12.5275 -11.6317 -11.1429 -10.5626 -10.5266  -9.6167
    -8.9769  -8.4510  -7.8910  -7.5774  -6.4940  -4.1466  -3.9401  -2.8902
    -2.0986  -2.0772  -1.5272   1.7467   2.3411   3.6328   4.1948   5.1132
     5.5945   5.8226   6.3393

          k = 0.4050 0.2338 0.0000 ( 11389 PWs)   bands (ev):

   -77.8138 -49.3419 -49.1089 -48.9919 -22.4386 -22.4064 -20.6261 -19.9666
   -15.2888 -15.0656 -12.5374 -11.6086 -11.1332 -10.5517 -10.5161  -9.6069
    -8.9665  -8.4672  -7.8906  -7.5911  -6.4971  -4.1376  -3.9330  -2.8846
    -2.0840  -2.0602  -1.5097   1.7655   2.3596   3.6165   4.1542   5.1009
     5.6029   5.8300   6.3381

          k = 0.4000 0.2309 0.0000 ( 11395 PWs)   bands (ev):

   -77.8142 -49.3389 -49.1083 -48.9924 -22.4791 -22.4459 -20.6367 -19.9678
   -15.2360 -15.0113 -12.5476 -11.5851 -11.1232 -10.5403 -10.5051  -9.5961
    -8.9556  -8.4835  -7.8902  -7.6054  -6.5000  -4.1282  -3.9256  -2.8797
    -2.0911  -2.0202  -1.4906   1.7851   2.3786   3.5994   4.1123   5.0892
     5.6113   5.8375   6.3365

          k = 0.3950 0.2281 0.0000 ( 11391 PWs)   bands (ev):

   -77.8146 -49.3359 -49.1075 -48.9930 -22.5204 -22.4863 -20.6482 -19.9695
   -15.1813 -14.9546 -12.5580 -11.5613 -11.1128 -10.5283 -10.4936  -9.5844
    -8.9442  -8.5001  -7.8896  -7.6203  -6.5027  -4.1183  -3.9180  -2.8757
    -2.0987  -1.9786  -1.4698   1.8054   2.3980   3.5813   4.0693   5.0782
     5.6198   5.8449   6.3345

          k = 0.3900 0.2252 0.0000 ( 11391 PWs)   bands (ev):

   -77.8151 -49.3327 -49.1068 -48.9936 -22.5626 -22.5275 -20.6606 -19.9719
   -15.1247 -14.8958 -12.5686 -11.5374 -11.1020 -10.5158 -10.4815  -9.5718
    -8.9322  -8.5168  -7.8890  -7.6357  -6.5053  -4.1080  -3.9102  -2.8724
    -2.1066  -1.9356  -1.4472   1.8264   2.4178   3.5624   4.0253   5.0679
     5.6283   5.8522   6.3320

          k = 0.3850 0.2223 0.0000 ( 11393 PWs)   bands (ev):

   -77.8155 -49.3294 -49.1061 -48.9943 -22.6055 -22.5695 -20.6739 -19.9748
   -15.0664 -14.8349 -12.5794 -11.5134 -11.0908 -10.5028 -10.4690  -9.5581
    -8.9197  -8.5335  -7.8882  -7.6517  -6.5075  -4.0973  -3.9022  -2.8702
    -2.1149  -1.8911  -1.4229   1.8480   2.4376   3.5428   3.9805   5.0585
     5.6369   5.8593   6.3290

          k = 0.3800 0.2194 0.0000 ( 11391 PWs)   bands (ev):

   -77.8160 -49.3260 -49.1053 -48.9949 -22.6490 -22.6121 -20.6881 -19.9783
   -15.0064 -14.7718 -12.5904 -11.4896 -11.0790 -10.4893 -10.4559  -9.5434
    -8.9068  -8.5503  -7.8873  -7.6683  -6.5094  -4.0862  -3.8940  -2.8689
    -2.1236  -1.8453  -1.3967   1.8702   2.4575   3.5225   3.9349   5.0499
     5.6454   5.8661   6.3253

          k = 0.3750 0.2165 0.0000 ( 11387 PWs)   bands (ev):

   -77.8165 -49.3224 -49.1044 -48.9956 -22.6931 -22.6553 -20.7032 -19.9823
   -14.9450 -14.7068 -12.6014 -11.4661 -11.0665 -10.4752 -10.4424  -9.5277
    -8.8933  -8.5671  -7.8862  -7.6853  -6.5110  -4.0746  -3.8856  -2.8686
    -2.1327  -1.7982  -1.3688   1.8928   2.4773   3.5019   3.8888   5.0422
     5.6540   5.8725   6.3210

          k = 0.3700 0.2136 0.0000 ( 11385 PWs)   bands (ev):

   -77.8170 -49.3187 -49.1036 -48.9963 -22.7377 -22.6990 -20.7191 -19.9870
   -14.8822 -14.6399 -12.6125 -11.4432 -11.0532 -10.4607 -10.4284  -9.5109
    -8.8794  -8.5839  -7.8849  -7.7029  -6.5121  -4.0627  -3.8771  -2.8694
    -2.1421  -1.7499  -1.3390   1.9158   2.4966   3.4809   3.8422   5.0353
     5.6626   5.8784   6.3159

          k = 0.3650 0.2107 0.0000 ( 11391 PWs)   bands (ev):

   -77.8175 -49.3150 -49.1027 -48.9970 -22.7826 -22.7430 -20.7358 -19.9922
   -14.8182 -14.5712 -12.6236 -11.4210 -11.0391 -10.4456 -10.4139  -9.4930
    -8.8649  -8.6006  -7.8834  -7.7209  -6.5127  -4.0504  -3.8684  -2.8713
    -2.1519  -1.7004  -1.3074   1.9391   2.5154   3.4599   3.7953   5.0292
     5.6711   5.8838   6.3099

          k = 0.3600 0.2078 0.0000 ( 11395 PWs)   bands (ev):

   -77.8181 -49.3111 -49.1018 -48.9978 -22.8280 -22.7875 -20.7534 -19.9981
   -14.7532 -14.5006 -12.6345 -11.3998 -11.0238 -10.4300 -10.3989  -9.4740
    -8.8500  -8.6173  -7.8816  -7.7394  -6.5127  -4.0377  -3.8596  -2.8743
    -2.1621  -1.6498  -1.2740   1.9625   2.5333   3.4391   3.7483   5.0238
     5.6796   5.8886   6.3031

          k = 0.3550 0.2050 0.0000 ( 11399 PWs)   bands (ev):

   -77.8186 -49.3071 -49.1009 -48.9985 -22.8735 -22.8322 -20.7716 -20.0044
   -14.6873 -14.4284 -12.6452 -11.3799 -11.0073 -10.4140 -10.3835  -9.4540
    -8.8347  -8.6339  -7.8796  -7.7583  -6.5122  -4.0246  -3.8507  -2.8784
    -2.1727  -1.5981  -1.2389   1.9860   2.5501   3.4187   3.7013   5.0191
     5.6880   5.8925   6.2952

          k = 0.3500 0.2021 0.0000 ( 11407 PWs)   bands (ev):

   -77.8192 -49.3030 -49.1000 -48.9993 -22.9193 -22.8771 -20.7907 -20.0114
   -14.6206 -14.3546 -12.6556 -11.3613 -10.9893 -10.3975 -10.3676  -9.4329
    -8.8188  -8.6503  -7.8774  -7.7776  -6.5110  -4.0111  -3.8418  -2.8835
    -2.1837  -1.5455  -1.2021   2.0093   2.5655   3.3991   3.6545   5.0149
     5.6962   5.8956   6.2863

          k = 0.3450 0.1992 0.0000 ( 11403 PWs)   bands (ev):

   -77.8198 -49.2988 -49.0990 -49.0001 -22.9652 -22.9222 -20.8104 -20.0188
   -14.5535 -14.2792 -12.6656 -11.3445 -10.9698 -10.3806 -10.3513  -9.4107
    -8.8026  -8.6667  -7.8748  -7.7973  -6.5090  -3.9974  -3.8327  -2.8897
    -2.1951  -1.4919  -1.1636   2.0324   2.5791   3.3805   3.6081   5.0111
     5.7043   5.8977   6.2761

          k = 0.3400 0.1963 0.0000 ( 11409 PWs)   bands (ev):

   -77.8204 -49.2945 -49.0980 -49.0010 -23.0113 -22.9674 -20.8307 -20.0268
   -14.4862 -14.2023 -12.6748 -11.3294 -10.9485 -10.3631 -10.3345  -9.3875
    -8.7859  -8.6829  -7.8719  -7.8173  -6.5063  -3.9832  -3.8236  -2.8969
    -2.2068  -1.4375  -1.1235   2.0550   2.5906   3.3631   3.5624   5.0077
     5.7120   5.8986   6.2647

          k = 0.3350 0.1934 0.0000 ( 11421 PWs)   bands (ev):

   -77.8210 -49.2902 -49.0970 -49.0018 -23.0573 -23.0127 -20.8517 -20.0353
   -14.4189 -14.1240 -12.6833 -11.3161 -10.9256 -10.3453 -10.3174  -9.3634
    -8.7688  -8.6990  -7.8687  -7.8376  -6.5029  -3.9688  -3.8144  -2.9051
    -2.2189  -1.3823  -1.0819   2.0770   2.5996   3.3473   3.5177   5.0043
     5.7193   5.8983   6.2519

          k = 0.3300 0.1905 0.0000 ( 11417 PWs)   bands (ev):

   -77.8216 -49.2857 -49.0960 -49.0026 -23.1033 -23.0579 -20.8733 -20.0442
   -14.3519 -14.0443 -12.6906 -11.3048 -10.9008 -10.3270 -10.2998  -9.3383
    -8.7512  -8.7149  -7.8652  -7.8583  -6.4985  -3.9540  -3.8052  -2.9142
    -2.2314  -1.3263  -1.0388   2.0981   2.6058   3.3330   3.4744   5.0009
     5.7260   5.8966   6.2376

          k = 0.3250 0.1876 0.0000 ( 11417 PWs)   bands (ev):

   -77.8223 -49.2812 -49.0950 -49.0035 -23.1493 -23.1031 -20.8955 -20.0536
   -14.2855 -13.9634 -12.6966 -11.2954 -10.8744 -10.3083 -10.2819  -9.3124
    -8.7333  -8.7306  -7.8792  -7.8613  -6.4933  -3.9389  -3.7960  -2.9242
    -2.2443  -1.2697  -0.9943   2.1180   2.6089   3.3201   3.4333   4.9971
     5.7319   5.8935   6.2218

          k = 0.3200 0.1848 0.0000 ( 11417 PWs)   bands (ev):

   -77.8229 -49.2766 -49.0939 -49.0044 -23.1952 -23.1482 -20.9181 -20.0634
   -14.2202 -13.8812 -12.7010 -11.2878 -10.8463 -10.2892 -10.2635  -9.2857
    -8.7461  -8.7150  -7.9004  -7.8570  -6.4871  -3.9235  -3.7868  -2.9350
    -2.2575  -1.2124  -0.9485   2.1366   2.6088   3.3073   3.3958   4.9928
     5.7368   5.8887   6.2043

          k = 0.3150 0.1819 0.0000 ( 11417 PWs)   bands (ev):

   -77.8235 -49.2719 -49.0929 -49.0053 -23.2409 -23.1932 -20.9412 -20.0737
   -14.1563 -13.7980 -12.7032 -11.2820 -10.8166 -10.2697 -10.2448  -9.2583
    -8.7613  -8.6963  -7.9219  -7.8523  -6.4800  -3.9079  -3.7776  -2.9466
    -2.2711  -1.1545  -0.9015   2.1534   2.6052   3.2919   3.3652   4.9876
     5.7404   5.8821   6.1850

          k = 0.3100 0.1790 0.0000 ( 11427 PWs)   bands (ev):

   -77.8242 -49.2671 -49.0918 -49.0062 -23.2864 -23.2380 -20.9647 -20.0843
   -14.0944 -13.7136 -12.7029 -11.2777 -10.7856 -10.2498 -10.2258  -9.2304
    -8.7762  -8.6772  -7.9435  -7.8473  -6.4718  -3.8920  -3.7684  -2.9589
    -2.2851  -1.0961  -0.8534   2.1682   2.5983   3.2701   3.3453   4.9814
     5.7423   5.8736   6.1638

          k = 0.3050 0.1761 0.0000 ( 11415 PWs)   bands (ev):

   -77.8249 -49.2623 -49.0907 -49.0071 -23.3318 -23.2825 -20.9887 -20.0952
   -14.0349 -13.6283 -12.6996 -11.2750 -10.7533 -10.2296 -10.2063  -9.2022
    -8.7906  -8.6578  -7.9653  -7.8418  -6.4627  -3.8758  -3.7592  -2.9718
    -2.2995  -1.0372  -0.8043   2.1807   2.5882   3.2421   3.3362   4.9737
     5.7421   5.8632   6.1408

          k = 0.3000 0.1732 0.0000 ( 11423 PWs)   bands (ev):

   -77.8255 -49.2575 -49.0896 -49.0080 -23.3768 -23.3268 -21.0129 -20.1065
   -13.9786 -13.5420 -12.6927 -11.2736 -10.7198 -10.2090 -10.1866  -9.1737
    -8.8045  -8.6381  -7.9872  -7.8359  -6.4526  -3.8594  -3.7500  -2.9853
    -2.3142  -0.9780  -0.7542   2.1906   2.5751   3.2116   3.3341   4.9642
     5.7393   5.8506   6.1157

          k = 0.2950 0.1703 0.0000 ( 11427 PWs)   bands (ev):

   -77.8262 -49.2526 -49.0884 -49.0090 -23.4215 -23.3709 -21.0375 -20.1181
   -13.9259 -13.4549 -12.6817 -11.2735 -10.6853 -10.1881 -10.1666  -9.1455
    -8.8176  -8.6181  -8.0093  -7.8295  -6.4414  -3.8428  -3.7408  -2.9993
    -2.3292  -0.9184  -0.7034   2.1974   2.5592   3.1814   3.3360   4.9526
     5.7335   5.8359   6.0885

          k = 0.2900 0.1674 0.0000 ( 11423 PWs)   bands (ev):

   -77.8269 -49.2476 -49.0873 -49.0099 -23.4660 -23.4146 -21.0624 -20.1299
   -13.8775 -13.3670 -12.6660 -11.2744 -10.6498 -10.1669 -10.1462  -9.1178
    -8.8295  -8.5977  -8.0315  -7.8227  -6.4292  -3.8259  -3.7317  -3.0138
    -2.3446  -0.8585  -0.6518   2.2011   2.5408   3.1530   3.3404   4.9386
     5.7240   5.8188   6.0593

          k = 0.2850 0.1645 0.0000 ( 11429 PWs)   bands (ev):

   -77.8276 -49.2426 -49.0861 -49.0108 -23.5100 -23.4580 -21.0875 -20.1420
   -13.8340 -13.2784 -12.6451 -11.2763 -10.6136 -10.1453 -10.1256  -9.0913
    -8.8396  -8.5771  -8.0537  -7.8155  -6.4160  -3.8089  -3.7226  -3.0287
    -2.3603  -0.7985  -0.5996   2.2013   2.5203   3.1269   3.3464   4.9218
     5.7104   5.7993   6.0279

          k = 0.2800 0.1617 0.0000 ( 11423 PWs)   bands (ev):

   -77.8283 -49.2375 -49.0850 -49.0118 -23.5537 -23.5010 -21.1128 -20.1544
   -13.7959 -13.1891 -12.6184 -11.2792 -10.5766 -10.1235 -10.1047  -9.0672
    -8.8471  -8.5563  -8.0759  -7.8078  -6.4018  -3.7917  -3.7135  -3.0438
    -2.3764  -0.7384  -0.5469   2.1981   2.4979   3.1038   3.3534   4.9019
     5.6924   5.7774   5.9943

          k = 0.2750 0.1588 0.0000 ( 11435 PWs)   bands (ev):

   -77.8290 -49.2325 -49.0838 -49.0128 -23.5969 -23.5435 -21.1383 -20.1669
   -13.7634 -13.0992 -12.5858 -11.2828 -10.5390 -10.1014 -10.0836  -9.0467
    -8.8505  -8.5352  -8.0981  -7.7997  -6.3865  -3.7743  -3.7044  -3.0593
    -2.3928  -0.6782  -0.4938   2.1913   2.4738   3.0836   3.3607   4.8788
     5.6698   5.7530   5.9585

          k = 0.2700 0.1559 0.0000 ( 11419 PWs)   bands (ev):

   -77.8297 -49.2273 -49.0827 -49.0137 -23.6398 -23.5857 -21.1639 -20.1796
   -13.7367 -13.0088 -12.5471 -11.2871 -10.5008 -10.0790 -10.0622  -9.0316
    -8.8482  -8.5140  -8.1203  -7.7911  -6.3703  -3.7567  -3.6954  -3.0749
    -2.4095  -0.6181  -0.4405   2.1813   2.4482   3.0664   3.3679   4.8521
     5.6426   5.7260   5.9206

          k = 0.2650 0.1530 0.0000 ( 11415 PWs)   bands (ev):

   -77.8304 -49.2222 -49.0815 -49.0147 -23.6821 -23.6274 -21.1896 -20.1925
   -13.7157 -12.9181 -12.5024 -11.2919 -10.4621 -10.0564 -10.0406  -9.0233
    -8.8390  -8.4926  -8.1423  -7.7820  -6.3531  -3.7391  -3.6864  -3.0906
    -2.4265  -0.5582  -0.3871   2.1682   2.4214   3.0521   3.3746   4.8218
     5.6112   5.6966   5.8805

          k = 0.2600 0.1501 0.0000 ( 11423 PWs)   bands (ev):

   -77.8311 -49.2171 -49.0803 -49.0157 -23.7240 -23.6686 -21.2153 -20.2055
   -13.7002 -12.8269 -12.4520 -11.2973 -10.4230 -10.0336 -10.0188  -9.0218
    -8.8228  -8.4712  -8.1642  -7.7725  -6.3350  -3.7213  -3.6774  -3.1064
    -2.4438  -0.4987  -0.3337   2.1524   2.3935   3.0404   3.3804   4.7878
     5.5761   5.6646   5.8383

          k = 0.2550 0.1472 0.0000 ( 11429 PWs)   bands (ev):

   -77.8318 -49.2119 -49.0791 -49.0167 -23.7653 -23.7093 -21.2411 -20.2186
   -13.6899 -12.7356 -12.3963 -11.3031 -10.3836 -10.0106  -9.9968  -9.0258
    -8.8011  -8.4498  -8.1857  -7.7625  -6.3160  -3.7034  -3.6684  -3.1221
    -2.4614  -0.4395  -0.2805   2.1344   2.3648   3.0310   3.3850   4.7501
     5.5378   5.6302   5.7942

          k = 0.2500 0.1443 0.0000 ( 11441 PWs)   bands (ev):

   -77.8326 -49.2067 -49.0780 -49.0176 -23.8061 -23.7495 -21.2669 -20.2318
   -13.6842 -12.6441 -12.3357 -11.3091 -10.3438  -9.9874  -9.9747  -9.0338
    -8.7754  -8.4287  -8.2067  -7.7521  -6.2962  -3.6855  -3.6595  -3.1378
    -2.4792  -0.3810  -0.2277   2.1147   2.3353   3.0235   3.3881   4.7088
     5.4970   5.5934   5.7480

          k = 0.2450 0.1415 0.0000 ( 11441 PWs)   bands (ev):

   -77.8333 -49.2015 -49.0768 -49.0186 -23.8464 -23.7891 -21.2926 -20.2450
   -13.6826 -12.5526 -12.2709 -11.3154 -10.3037  -9.9641  -9.9524  -9.0443
    -8.7473  -8.4081  -8.2270  -7.7413  -6.2755  -3.6674  -3.6505  -3.1534
    -2.4974  -0.3232  -0.1754   2.0938   2.3055   3.0175   3.3896   4.6641
     5.4545   5.5542   5.7000

          k = 0.2400 0.1386 0.0000 ( 11443 PWs)   bands (ev):

   -77.8340 -49.1964 -49.0756 -49.0196 -23.8860 -23.8282 -21.3183 -20.2583
   -13.6847 -12.4611 -12.2023 -11.3218 -10.2635  -9.9406  -9.9300  -9.0565
    -8.7175  -8.3887  -8.2458  -7.7300  -6.2542  -3.6494  -3.6415  -3.1687
    -2.5158  -0.2665  -0.1238   2.0721   2.2755   3.0125   3.3891   4.6161
     5.4106   5.5129   5.6503

          k = 0.2350 0.1357 0.0000 ( 11449 PWs)   bands (ev):

   -77.8347 -49.1912 -49.0744 -49.0206 -23.9251 -23.8667 -21.3439 -20.2716
   -13.6899 -12.3700 -12.1305 -11.3281 -10.2230  -9.9170  -9.9075  -9.0698
    -8.6869  -8.3718  -8.2617  -7.7184  -6.2321  -3.6324  -3.6313  -3.1838
    -2.5344  -0.2109  -0.0732   2.0502   2.2457   3.0082   3.3866   4.5651
     5.3661   5.4694   5.5990

          k = 0.2300 0.1328 0.0000 ( 11449 PWs)   bands (ev):

   -77.8354 -49.1861 -49.0733 -49.0215 -23.9636 -23.9046 -21.3693 -20.2849
   -13.6978 -12.2792 -12.0560 -11.3341 -10.1825  -9.8934  -9.8849  -9.0839
    -8.6557  -8.3608  -8.2715  -7.7064  -6.2094  -3.6233  -3.6132  -3.1985
    -2.5532  -0.1567  -0.0238   2.0286   2.2164   3.0041   3.3819   4.5113
     5.3212   5.4240   5.5461

          k = 0.2250 0.1299 0.0000 ( 11453 PWs)   bands (ev):

   -77.8361 -49.1809 -49.0721 -49.0225 -24.0014 -23.9418 -21.3946 -20.2982
   -13.7079 -12.1892 -11.9791 -11.3397 -10.1419  -9.8697  -9.8622  -9.0985
    -8.6243  -8.3598  -8.2710  -7.6940  -6.1862  -3.6142  -3.5951  -3.2128
    -2.5722  -0.1043   0.0243   2.0076   2.1878   3.0000   3.3749   4.4551
     5.2763   5.3767   5.4919

          k = 0.2200 0.1270 0.0000 ( 11459 PWs)   bands (ev):

   -77.8368 -49.1758 -49.0709 -49.0235 -24.0386 -23.9785 -21.4197 -20.3115
   -13.7199 -12.1002 -11.9004 -11.3446 -10.1012  -9.8460  -9.8395  -9.1134
    -8.5929  -8.3690  -8.2601  -7.6813  -6.1624  -3.6050  -3.5770  -3.2267
    -2.5915  -0.0540   0.0707   1.9879   2.1603   2.9955   3.3655   4.3968
     5.2318   5.3278   5.4366

          k = 0.2150 0.1241 0.0000 ( 11455 PWs)   bands (ev):

   -77.8375 -49.1707 -49.0698 -49.0244 -24.0752 -24.0145 -21.4446 -20.3247
   -13.7336 -12.0128 -11.8200 -11.3482 -10.0605  -9.8223  -9.8167  -9.1286
    -8.5616  -8.3841  -8.2430  -7.6684  -6.1383  -3.5957  -3.5590  -3.2400
    -2.6109  -0.0060   0.1152   1.9697   2.1342   2.9905   3.3538   4.3366
     5.1878   5.2774   5.3801

          k = 0.2100 0.1212 0.0000 ( 11459 PWs)   bands (ev):

   -77.8382 -49.1657 -49.0686 -49.0254 -24.1110 -24.0498 -21.4693 -20.3378
   -13.7485 -11.9276 -11.7384 -11.3498 -10.0199  -9.7987  -9.7938  -9.1438
    -8.5305  -8.4017  -8.2231  -7.6553  -6.1137  -3.5862  -3.5410  -3.2528
    -2.6304   0.0390   0.1576   1.9537   2.1099   2.9848   3.3398   4.2748
     5.1446   5.2256   5.3228

          k = 0.2050 0.1184 0.0000 ( 11467 PWs)   bands (ev):

   -77.8389 -49.1606 -49.0675 -49.0263 -24.1462 -24.0844 -21.4937 -20.3508
   -13.7646 -11.8459 -11.6558 -11.3484  -9.9793  -9.7753  -9.7708  -9.1591
    -8.4998  -8.4204  -8.2018  -7.6420  -6.0889  -3.5767  -3.5232  -3.2649
    -2.6501   0.0808   0.1975   1.9401   2.0878   2.9783   3.3235   4.2118
     5.1021   5.1727   5.2647

          k = 0.2000 0.1155 0.0000 ( 11463 PWs)   bands (ev):

   -77.8396 -49.1557 -49.0664 -49.0272 -24.1807 -24.1184 -21.5178 -20.3637
   -13.7815 -11.7694 -11.5725 -11.3422  -9.9389  -9.7522  -9.7476  -9.1743
    -8.4696  -8.4396  -8.1798  -7.6286  -6.0639  -3.5670  -3.5054  -3.2763
    -2.6699   0.1189   0.2349   1.9295   2.0681   2.9709   3.3051   4.1477
     5.0605   5.1188   5.2061

          k = 0.1950 0.1126 0.0000 ( 11467 PWs)   bands (ev):

   -77.8402 -49.1507 -49.0652 -49.0282 -24.2144 -24.1516 -21.5416 -20.3765
   -13.7991 -11.7011 -11.4886 -11.3283  -9.8987  -9.7293  -9.7244  -9.1895
    -8.4590  -8.4398  -8.1574  -7.6151  -6.0388  -3.5572  -3.4878  -3.2870
    -2.6898   0.1527   0.2692   1.9221   2.0513   2.9625   3.2847   4.0829
     5.0199   5.0641   5.1470

          k = 0.1900 0.1097 0.0000 ( 11457 PWs)   bands (ev):

   -77.8409 -49.1459 -49.0641 -49.0291 -24.2475 -24.1842 -21.5651 -20.3892
   -13.8173 -11.6444 -11.4044 -11.3032  -9.8587  -9.7067  -9.7011  -9.2044
    -8.4783  -8.4105  -8.1347  -7.6017  -6.0136  -3.5472  -3.4703  -3.2969
    -2.7097   0.1819   0.3005   1.9182   2.0376   2.9531   3.2624   4.0177
     4.9802   5.0087   5.0877

          k = 0.1850 0.1068 0.0000 ( 11463 PWs)   bands (ev):

   -77.8415 -49.1410 -49.0630 -49.0300 -24.2798 -24.2160 -21.5883 -20.4017
   -13.8360 -11.6027 -11.3203 -11.2636  -9.8190  -9.6843  -9.6778  -9.2192
    -8.4974  -8.3818  -8.1120  -7.5884  -5.9884  -3.5370  -3.4530  -3.3059
    -2.7297   0.2061   0.3282   1.9182   2.0275   2.9428   3.2385   3.9522
     4.9414   4.9529   5.0282

          k = 0.1800 0.1039 0.0000 ( 11467 PWs)   bands (ev):

   -77.8422 -49.1363 -49.0620 -49.0309 -24.3113 -24.2471 -21.6110 -20.4140
   -13.8549 -11.5758 -11.2367 -11.2091  -9.7796  -9.6622  -9.6545  -9.2338
    -8.5163  -8.3537  -8.0892  -7.5752  -5.9633  -3.5267  -3.4358  -3.3140
    -2.7497   0.2250   0.3523   1.9220   2.0212   2.9317   3.2131   3.8868
     4.8968   4.9034   4.9688

          k = 0.1750 0.1010 0.0000 ( 11463 PWs)   bands (ev):

   -77.8428 -49.1316 -49.0609 -49.0317 -24.3421 -24.2774 -21.6334 -20.4261
   -13.8740 -11.5608 -11.1561 -11.1406  -9.7406  -9.6404  -9.6315  -9.2480
    -8.5350  -8.3262  -8.0665  -7.5623  -5.9384  -3.5162  -3.4189  -3.3211
    -2.7697   0.2386   0.3723   1.9299   2.0189   2.9198   3.1866   3.8216
     4.8406   4.8663   4.9095

          k = 0.1700 0.0981 0.0000 ( 11457 PWs)   bands (ev):

   -77.8435 -49.1270 -49.0599 -49.0326 -24.3722 -24.3070 -21.6553 -20.4381
   -13.8932 -11.5538 -11.0797 -11.0610  -9.7020  -9.6188  -9.6085  -9.2618
    -8.5533  -8.2993  -8.0439  -7.5497  -5.9138  -3.5054  -3.4022  -3.3272
    -2.7896   0.2467   0.3882   1.9415   2.0209   2.9073   3.1592   3.7570
     4.7844   4.8298   4.8505

          k = 0.1650 0.0953 0.0000 ( 11453 PWs)   bands (ev):

   -77.8441 -49.1224 -49.0588 -49.0335 -24.4014 -24.3358 -21.6768 -20.4498
   -13.9124 -11.5519 -11.0030 -10.9778  -9.6640  -9.5975  -9.5858  -9.2751
    -8.5713  -8.2730  -8.0214  -7.5375  -5.8894  -3.4945  -3.3857  -3.3323
    -2.8095   0.2495   0.3997   1.9568   2.0272   2.8942   3.1312   3.6931
     4.7283   4.7919   4.7939

          k = 0.1600 0.0924 0.0000 ( 11453 PWs)   bands (ev):

   -77.8447 -49.1180 -49.0578 -49.0343 -24.4299 -24.3638 -21.6979 -20.4613
   -13.9316 -11.5533 -10.9250 -10.8942  -9.6266  -9.5765  -9.5634  -9.2878
    -8.5889  -8.2473  -7.9991  -7.5258  -5.8655  -3.4835  -3.3695  -3.3363
    -2.8293   0.2473   0.4067   1.9753   2.0378   2.8808   3.1030   3.6303
     4.6726   4.7339   4.7586

          k = 0.1550 0.0895 0.0000 ( 11449 PWs)   bands (ev):

   -77.8453 -49.1136 -49.0568 -49.0351 -24.4575 -24.3910 -21.7185 -20.4725
   -13.9507 -11.5567 -10.8465 -10.8107  -9.5899  -9.5558  -9.5412  -9.2999
    -8.6061  -8.2223  -7.9770  -7.5147  -5.8420  -3.4723  -3.3536  -3.3391
    -2.8490   0.2402   0.4093   1.9965   2.0525   2.8671   3.0749   3.5688
     4.6174   4.6766   4.7238

          k = 0.1500 0.0866 0.0000 ( 11449 PWs)   bands (ev):

   -77.8459 -49.1093 -49.0559 -49.0359 -24.4844 -24.4175 -21.7386 -20.4836
   -13.9696 -11.5615 -10.7681 -10.7276  -9.5543  -9.5354  -9.5193  -9.3109
    -8.6229  -8.1979  -7.9551  -7.5043  -5.8190  -3.4610  -3.3407  -3.3380
    -2.8685   0.2288   0.4076   2.0199   2.0710   2.8534   3.0473   3.5091
     4.5627   4.6201   4.6893

          k = 0.1450 0.0837 0.0000 ( 11447 PWs)   bands (ev):

   -77.8464 -49.1051 -49.0549 -49.0367 -24.5105 -24.4431 -21.7582 -20.4943
   -13.9883 -11.5672 -10.6905 -10.6451  -9.5200  -9.5155  -9.4978  -9.3207
    -8.6392  -8.1742  -7.9335  -7.4946  -5.7966  -3.4496  -3.3410  -3.3227
    -2.8878   0.2132   0.4017   2.0449   2.0927   2.8397   3.0206   3.4514
     4.5087   4.5644   4.6551

          k = 0.1400 0.0808 0.0000 ( 11449 PWs)   bands (ev):

   -77.8470 -49.1010 -49.0540 -49.0374 -24.5357 -24.4680 -21.7773 -20.5048
   -14.0066 -11.5734 -10.6139 -10.5633  -9.4959  -9.4877  -9.4766  -9.3285
    -8.6550  -8.1510  -7.9123  -7.4856  -5.7749  -3.4383  -3.3400  -3.3078
    -2.9070   0.1941   0.3920   2.0710   2.1170   2.8260   2.9955   3.3963
     4.4556   4.5098   4.6212

          k = 0.1350 0.0779 0.0000 ( 11443 PWs)   bands (ev):

   -77.8475 -49.0971 -49.0531 -49.0382 -24.5601 -24.4920 -21.7958 -20.5150
   -14.0247 -11.5800 -10.5388 -10.4824  -9.4768  -9.4585  -9.4559  -9.3331
    -8.6704  -8.1285  -7.8913  -7.4776  -5.7538  -3.4271  -3.3375  -3.2932
    -2.9258   0.1718   0.3787   2.0977   2.1427   2.8124   2.9725   3.3443
     4.4034   4.4563   4.5874

          k = 0.1300 0.0751 0.0000 ( 11439 PWs)   bands (ev):

   -77.8480 -49.0932 -49.0522 -49.0389 -24.5837 -24.5152 -21.8138 -20.5249
   -14.0424 -11.5868 -10.4653 -10.4024  -9.4582  -9.4356  -9.4349  -9.3321
    -8.6853  -8.1065  -7.8708  -7.4705  -5.7336  -3.4161  -3.3336  -3.2790
    -2.9444   0.1467   0.3621   2.1244   2.1690   2.7985   2.9525   3.2962
     4.3523   4.4039   4.5537

          k = 0.1250 0.0722 0.0000 ( 11439 PWs)   bands (ev):

   -77.8486 -49.0894 -49.0514 -49.0396 -24.6064 -24.5376 -21.8312 -20.5345
   -14.0596 -11.5937 -10.3938 -10.3236  -9.4400  -9.4198  -9.4157  -9.3224
    -8.6996  -8.0851  -7.8507  -7.4643  -5.7141  -3.4054  -3.3281  -3.2652
    -2.9626   0.1192   0.3428   2.1504   2.1946   2.7839   2.9363   3.2528
     4.3023   4.3529   4.5202

          k = 0.1200 0.0693 0.0000 ( 11443 PWs)   bands (ev):

   -77.8491 -49.0858 -49.0505 -49.0403 -24.6283 -24.5592 -21.8481 -20.5438
   -14.0765 -11.6006 -10.3245 -10.2461  -9.4224  -9.4135  -9.3963  -9.3038
    -8.7134  -8.0642  -7.8310  -7.4592  -5.6954  -3.3951  -3.3211  -3.2518
    -2.9805   0.0897   0.3211   2.1751   2.2187   2.7679   2.9250   3.2152
     4.2536   4.3032   4.4866

          k = 0.1150 0.0664 0.0000 ( 11453 PWs)   bands (ev):

   -77.8495 -49.0822 -49.0497 -49.0409 -24.6493 -24.5799 -21.8643 -20.5528
   -14.0928 -11.6075 -10.2576 -10.1700  -9.4128  -9.4053  -9.3775  -9.2794
    -8.7267  -8.0439  -7.8118  -7.4552  -5.6776  -3.3852  -3.3126  -3.2389
    -2.9979   0.0586   0.2972   2.1978   2.2402   2.7498   2.9193   3.1846
     4.2062   4.2550   4.4531

          k = 0.1100 0.0635 0.0000 ( 11457 PWs)   bands (ev):

   -77.8500 -49.0788 -49.0490 -49.0416 -24.6695 -24.5997 -21.8800 -20.5615
   -14.1086 -11.6143 -10.1934 -10.0954  -9.4142  -9.3888  -9.3592  -9.2524
    -8.7394  -8.0242  -7.7932  -7.4522  -5.6607  -3.3757  -3.3026  -3.2265
    -3.0149   0.0263   0.2718   2.2177   2.2584   2.7290   2.9197   3.1620
     4.1602   4.2083   4.4196

          k = 0.1050 0.0606 0.0000 ( 11453 PWs)   bands (ev):

   -77.8504 -49.0755 -49.0482 -49.0422 -24.6888 -24.6188 -21.8950 -20.5698
   -14.1240 -11.6209 -10.1322 -10.0225  -9.4162  -9.3729  -9.3415  -9.2244
    -8.7515  -8.0050  -7.7750  -7.4504  -5.6446  -3.3664  -3.2915  -3.2146
    -3.0314  -0.0071   0.2449   2.2343   2.2728   2.7054   2.9262   3.1485
     4.1158   4.1633   4.3861

          k = 0.1000 0.0577 0.0000 ( 11447 PWs)   bands (ev):

   -77.8509 -49.0724 -49.0475 -49.0428 -24.7073 -24.6369 -21.9094 -20.5778
   -14.1387 -11.6274 -10.0743  -9.9515  -9.4175  -9.3576  -9.3244  -9.1964
    -8.7631  -7.9863  -7.7575  -7.4497  -5.6296  -3.3574  -3.2794  -3.2032
    -3.0473  -0.0410   0.2171   2.2471   2.2832   2.6791   2.9385   3.1445
     4.0729   4.1198   4.3525

          k = 0.0950 0.0548 0.0000 ( 11447 PWs)   bands (ev):

   -77.8513 -49.0693 -49.0468 -49.0433 -24.7249 -24.6542 -21.9232 -20.5854
   -14.1529 -11.6337 -10.0202  -9.8824  -9.4175  -9.3430  -9.3079  -9.1687
    -8.7741  -7.9681  -7.7405  -7.4501  -5.6154  -3.3484  -3.2665  -3.1924
    -3.0626  -0.0754   0.1887   2.2561   2.2897   2.6505   2.9562   3.1498
     4.0317   4.0782   4.3190

          k = 0.0900 0.0520 0.0000 ( 11439 PWs)   bands (ev):

   -77.8517 -49.0664 -49.0462 -49.0439 -24.7416 -24.6707 -21.9363 -20.5927
   -14.1664 -11.6398  -9.9701  -9.8154  -9.4158  -9.3290  -9.2921  -9.1416
    -8.7844  -7.9504  -7.7242  -7.4516  -5.6022  -3.3395  -3.2531  -3.1824
    -3.0771  -0.1098   0.1598   2.2613   2.2925   2.6202   2.9786   3.1637
     3.9922   4.0383   4.2854

          k = 0.0850 0.0491 0.0000 ( 11439 PWs)   bands (ev):

   -77.8520 -49.0637 -49.0456 -49.0444 -24.7574 -24.6862 -21.9488 -20.5996
   -14.1793 -11.6457  -9.9244  -9.7507  -9.4120  -9.3158  -9.2769  -9.1154
    -8.7942  -7.9332  -7.7086  -7.4543  -5.5899  -3.3306  -3.2393  -3.1733
    -3.0906  -0.1441   0.1309   2.2630   2.2921   2.5890   3.0052   3.1849
     3.9545   4.0002   4.2519

          k = 0.0800 0.0462 0.0000 ( 11425 PWs)   bands (ev):

   -77.8524 -49.0611 -49.0450 -49.0448 -24.7723 -24.7009 -21.9606 -20.6062
   -14.1916 -11.6512  -9.8836  -9.6883  -9.4058  -9.3033  -9.2625  -9.0900
    -8.8033  -7.9165  -7.6937  -7.4579  -5.5786  -3.3216  -3.2252  -3.1654
    -3.1027  -0.1779   0.1021   2.2617   2.2891   2.5576   3.0354   3.2121
     3.9187   3.9641   4.2183

          k = 0.0750 0.0433 0.0000 ( 11425 PWs)   bands (ev):

   -77.8527 -49.0586 -49.0453 -49.0444 -24.7864 -24.7148 -21.9718 -20.6124
   -14.2032 -11.6566  -9.8479  -9.6285  -9.3969  -9.2915  -9.2489  -9.0657
    -8.8118  -7.9002  -7.6795  -7.4627  -5.5681  -3.3127  -3.2111  -3.1596
    -3.1127  -0.2111   0.0738   2.2580   2.2839   2.5265   3.0687   3.2439
     3.8848   3.9299   4.1847

          k = 0.0700 0.0404 0.0000 ( 11421 PWs)   bands (ev):

   -77.8530 -49.0563 -49.0457 -49.0439 -24.7995 -24.7277 -21.9822 -20.6182
   -14.2142 -11.6616  -9.8173  -9.5715  -9.3853  -9.2805  -9.2359  -9.0424
    -8.8197  -7.8844  -7.6660  -7.4683  -5.5585  -3.3039  -3.1971  -3.1575
    -3.1187  -0.2434   0.0461   2.2522   2.2772   2.4964   3.1044   3.2790
     3.8528   3.8977   4.1511

          k = 0.0650 0.0375 0.0000 ( 11413 PWs)   bands (ev):

   -77.8533 -49.0541 -49.0461 -49.0434 -24.8118 -24.7398 -21.9920 -20.6236
   -14.2244 -11.6663  -9.7918  -9.5174  -9.3712  -9.2703  -9.2238  -9.0203
    -8.8270  -7.8691  -7.6534  -7.4749  -5.5498  -3.2951  -3.1834  -3.1605
    -3.1195  -0.2745   0.0193   2.2449   2.2693   2.4676   3.1421   3.3163
     3.8228   3.8676   4.1174

          k = 0.0600 0.0346 0.0000 ( 11411 PWs)   bands (ev):

   -77.8536 -49.0521 -49.0465 -49.0430 -24.8232 -24.7510 -22.0010 -20.6287
   -14.2340 -11.6707  -9.7711  -9.4663  -9.3550  -9.2608  -9.2125  -8.9994
    -8.8336  -7.8543  -7.6416  -7.4823  -5.5420  -3.2866  -3.1700  -3.1672
    -3.1165  -0.3044  -0.0064   2.2365   2.2607   2.4407   3.1813   3.3549
     3.7948   3.8395   4.0838

          k = 0.0550 0.0318 0.0000 ( 11415 PWs)   bands (ev):

   -77.8538 -49.0502 -49.0468 -49.0426 -24.8336 -24.7613 -22.0094 -20.6333
   -14.2428 -11.6748  -9.7546  -9.4186  -9.3371  -9.2521  -9.2020  -8.9798
    -8.8397  -7.8399  -7.6306  -7.4904  -5.5349  -3.2784  -3.1753  -3.1570
    -3.1118  -0.3327  -0.0308   2.2275   2.2515   2.4158   3.2214   3.3938
     3.7690   3.8136   4.0501

          k = 0.0500 0.0289 0.0000 ( 11413 PWs)   bands (ev):

   -77.8541 -49.0485 -49.0472 -49.0422 -24.8432 -24.7707 -22.0171 -20.6376
   -14.2509 -11.6786  -9.7417  -9.3744  -9.3182  -9.2442  -9.1923  -8.9616
    -8.8451  -7.8260  -7.6205  -7.4991  -5.5286  -3.2704  -3.1836  -3.1447
    -3.1067  -0.3594  -0.0537   2.2181   2.2421   2.3932   3.2622   3.4323
     3.7453   3.7898   4.0163

          k = 0.0450 0.0260 0.0000 ( 11417 PWs)   bands (ev):

   -77.8543 -49.0475 -49.0470 -49.0418 -24.8519 -24.7792 -22.0240 -20.6414
   -14.2582 -11.6820  -9.7318  -9.3344  -9.2985  -9.2371  -9.1835  -8.9448
    -8.8500  -7.8126  -7.6113  -7.5082  -5.5231  -3.2630  -3.1915  -3.1331
    -3.1018  -0.3841  -0.0750   2.2086   2.2328   2.3730   3.3033   3.4698
     3.7237   3.7681   3.9824

          k = 0.0400 0.0231 0.0000 ( 11425 PWs)   bands (ev):

   -77.8545 -49.0477 -49.0456 -49.0415 -24.8596 -24.7869 -22.0302 -20.6449
   -14.2648 -11.6851  -9.7244  -9.3000  -9.2776  -9.2308  -9.1756  -8.9296
    -8.8543  -7.7998  -7.6030  -7.5177  -5.5182  -3.2560  -3.1989  -3.1224
    -3.0971  -0.4067  -0.0945   2.1992   2.2237   2.3553   3.3445   3.5055
     3.7043   3.7487   3.9484

          k = 0.0350 0.0202 0.0000 ( 11427 PWs)   bands (ev):

   -77.8546 -49.0479 -49.0444 -49.0412 -24.8665 -24.7936 -22.0357 -20.6480
   -14.2706 -11.6878  -9.7188  -9.2740  -9.2531  -9.2252  -9.1686  -8.9159
    -8.8580  -7.7877  -7.5956  -7.5272  -5.5140  -3.2497  -3.2055  -3.1127
    -3.0929  -0.4271  -0.1121   2.1903   2.2151   2.3401   3.3855   3.5390
     3.6871   3.7315   3.9142

          k = 0.0300 0.0173 0.0000 ( 11429 PWs)   bands (ev):

   -77.8548 -49.0481 -49.0433 -49.0410 -24.8724 -24.7994 -22.0405 -20.6506
   -14.2757 -11.6902  -9.7146  -9.2554  -9.2269  -9.2204  -9.1625  -8.9039
    -8.8612  -7.7762  -7.5892  -7.5366  -5.5105  -3.2440  -3.2114  -3.1040
    -3.0891  -0.4451  -0.1276   2.1819   2.2073   2.3273   3.4261   3.5695
     3.6722   3.7166   3.8799

          k = 0.0250 0.0144 0.0000 ( 11433 PWs)   bands (ev):

   -77.8549 -49.0483 -49.0424 -49.0408 -24.8774 -24.8044 -22.0446 -20.6529
   -14.2800 -11.6922  -9.7116  -9.2406  -9.2164  -9.2028  -9.1573  -8.8936
    -8.8639  -7.7658  -7.5837  -7.5457  -5.5075  -3.2391  -3.2164  -3.0964
    -3.0859  -0.4606  -0.1409   2.1743   2.2004   2.3167   3.4662   3.5966
     3.6596   3.7039   3.8454

          k = 0.0200 0.0115 0.0000 ( 11421 PWs)   bands (ev):

   -77.8550 -49.0484 -49.0416 -49.0406 -24.8815 -24.8084 -22.0479 -20.6548
   -14.2835 -11.6938  -9.7095  -9.2287  -9.2131  -9.1825  -9.1531  -8.8851
    -8.8660  -7.7564  -7.5792  -7.5540  -5.5052  -3.2350  -3.2205  -3.0901
    -3.0833  -0.4734  -0.1519   2.1677   2.1947   2.3083   3.5057   3.6197
     3.6492   3.6935   3.8106

          k = 0.0150 0.0087 0.0000 ( 11423 PWs)   bands (ev):

   -77.8551 -49.0485 -49.0411 -49.0405 -24.8847 -24.8116 -22.0505 -20.6562
   -14.2863 -11.6951  -9.7080  -9.2194  -9.2106  -9.1663  -9.1497  -8.8784
    -8.8677  -7.7486  -7.5757  -7.5611  -5.5033  -3.2317  -3.2238  -3.0851
    -3.0812  -0.4835  -0.1605   2.1623   2.1901   2.3020   3.5442   3.6384
     3.6411   3.6854   3.7758

          k = 0.0100 0.0058 0.0000 ( 11431 PWs)   bands (ev):

   -77.8551 -49.0486 -49.0406 -49.0404 -24.8870 -24.8138 -22.0523 -20.6572
   -14.2883 -11.6961  -9.7070  -9.2127  -9.2088  -9.1547  -9.1474  -8.8736
    -8.8689  -7.7425  -7.5732  -7.5667  -5.5021  -3.2294  -3.2261  -3.0816
    -3.0797  -0.4907  -0.1668   2.1583   2.1868   2.2975   3.5810   3.6353
     3.6526   3.6796   3.7410

          k = 0.0050 0.0029 0.0000 ( 11431 PWs)   bands (ev):

   -77.8552 -49.0487 -49.0404 -49.0403 -24.8884 -24.8152 -22.0534 -20.6578
   -14.2894 -11.6966  -9.7065  -9.2086  -9.2077  -9.1477  -9.1459  -8.8707
    -8.8696  -7.7387  -7.5717  -7.5702  -5.5013  -3.2283  -3.2272  -3.0794
    -3.0788  -0.4951  -0.1705   2.1559   2.1849   2.2948   3.6139   3.6318
     3.6633   3.6761   3.7075

          k = 0.0000 0.0000 0.0000 ( 11445 PWs)   bands (ev):

   -77.8552 -49.0487 -49.0403 -49.0403 -24.8889 -24.8156 -22.0538 -20.6580
   -14.2898 -11.6968  -9.7063  -9.2074  -9.2073  -9.1455  -9.1453  -8.8699
    -8.8696  -7.7374  -7.5717  -7.5710  -5.5010  -3.2283  -3.2272  -3.0787
    -3.0785  -0.4966  -0.1718   2.1551   2.1842   2.2940   3.6303   3.6308
     3.6749   3.6752   3.6824

     Writing all to output data dir ./tmp/crsi2n4.save/ :
     XML data file, pseudopotentials, collected wavefunctions
 
     init_run     :      1.28s CPU      1.36s WALL (       1 calls)
     electrons    :    531.99s CPU    534.74s WALL (       1 calls)

     Called by init_run:
     wfcinit      :      0.00s CPU      0.00s WALL (       1 calls)
     wfcinit:atom :      0.22s CPU      0.22s WALL (     261 calls)
     wfcinit:wfcr :      9.58s CPU      9.67s WALL (     261 calls)
     potinit      :      0.58s CPU      0.62s WALL (       1 calls)
     hinit0       :      0.29s CPU      0.30s WALL (       1 calls)

     Called by electrons:
     c_bands      :    531.99s CPU    534.73s WALL (       1 calls)
     v_of_rho     :      0.02s CPU      0.06s WALL (       1 calls)
     v_h          :      0.00s CPU      0.01s WALL (       1 calls)
     v_xc         :      0.02s CPU      0.05s WALL (       1 calls)

     Called by c_bands:
     init_us_2    :      0.16s CPU      0.19s WALL (     261 calls)
     cegterg      :    521.20s CPU    523.29s WALL (    1085 calls)

     Called by sum_band:

     Called by *egterg:
     cdiaghg      :     85.93s CPU     86.33s WALL (   19434 calls)
                                       86.20s GPU  (   19434 calls)
     cegterg:over :    110.62s CPU    110.80s WALL (   19173 calls)
     cegterg:upda :     33.14s CPU     33.23s WALL (   19173 calls)
     cegterg:last :     40.25s CPU     40.31s WALL (    8846 calls)
     h_psi        :    241.83s CPU    243.70s WALL (   20519 calls)
                                      243.56s GPU  (   20519 calls)
     g_psi        :      0.17s CPU      2.65s WALL (   19173 calls)
                                        2.56s GPU  (   19173 calls)

     Called by h_psi:
     h_psi:calbec :      1.61s CPU     36.51s WALL (   20519 calls)
                                       36.36s GPU  (   20519 calls)
     vloc_psi     :    173.34s CPU    174.98s WALL (   20519 calls)
                                      174.87s GPU  (   20519 calls)
     add_vuspsi   :      6.00s CPU     30.30s WALL (   20519 calls)
                                       30.16s GPU  (   20519 calls)

     General routines
     calbec       :      1.52s CPU      1.60s WALL (   20519 calls)
     fft          :      0.32s CPU      0.33s WALL (      11 calls)
                                        0.01s GPU  (      10 calls)
     ffts         :      0.23s CPU      0.23s WALL (       1 calls)
     fftw         :      2.04s CPU    149.28s WALL (   66354 calls)
                                      148.92s GPU  (   66354 calls)
     interpolate  :      0.55s CPU      0.55s WALL (       1 calls)
     davcio       :      0.08s CPU      0.79s WALL (     522 calls)
 
     Parallel routines
 
     PWSCF        :   8m54.12s CPU   8m58.64s WALL

 
   This run was terminated on:   2: 0:53  13Mar2026            

=------------------------------------------------------------------------------=
   JOB DONE.
=------------------------------------------------------------------------------=
