
     Program PWSCF v.7.4.1 starts on 13Mar2026 at  1:48:14 

     This program is part of the open-source Quantum ESPRESSO suite
     for quantum simulation of materials; please cite
         "P. Giannozzi et al., J. Phys.:Condens. Matter 21 395502 (2009);
         "P. Giannozzi et al., J. Phys.:Condens. Matter 29 465901 (2017);
         "P. Giannozzi et al., J. Chem. Phys. 152 154105 (2020);
          URL http://www.quantum-espresso.org", 
     in publications or presentations arising from this work. More details at
     http://www.quantum-espresso.org/quote

     Parallel version (MPI), running on     1 processors

     MPI processes distributed on     1 nodes
     6014 MiB available memory on the printing compute node when the environment starts
 
     Reading input from nscf.in

     Current dimensions of program PWSCF are:
     Max number of different atomic species (ntypx) = 10
     Max number of k-points (npk) =  40000
     Max angular momentum in pseudopotentials (lmaxx) =  4

     Atomic positions and unit cell read from directory:
     ./tmp/crsi2n4.save/
 
     Message from routine setup:
     no reason to have ecutrho>4*ecutwfc
 
     Subspace diagonalization in iterative solution of the eigenvalue problem:
     a serial algorithm will be used

 
     G-vector sticks info
     --------------------
     sticks:   dense  smooth     PW     G-vecs:    dense   smooth      PW
     Sum         757     595    187               127257    90781   14623
 
     Using Slab Decomposition
 


     bravais-lattice index     =            4
     lattice parameter (alat)  =       5.2669  a.u.
     unit-cell volume          =     942.7434 (a.u.)^3
     number of atoms/cell      =            7
     number of atomic types    =            3
     number of electrons       =        42.00
     number of Kohn-Sham states=           21
     kinetic-energy cutoff     =      80.0000  Ry
     charge density cutoff     =     400.0000  Ry
     Exchange-correlation= PBE
                           (   1   4   3   4   0   0   0)

     GPU acceleration is ACTIVE.  1 visible GPUs per MPI rank
     GPU-aware MPI enabled


     GPU used by master process:

        Device Number: 0
        Device name: NVIDIA RTX A2000 12GB
        Compute capability : 86
        Ratio of single to double precision performance  : 64
        Memory Clock Rate (KHz): 6001000
        Memory Bus Width (bits): 192
        Peak Memory Bandwidth (GB/s): 288.05

     celldm(1)=   5.266893  celldm(2)=   0.000000  celldm(3)=   7.450738
     celldm(4)=   0.000000  celldm(5)=   0.000000  celldm(6)=   0.000000

     crystal axes: (cart. coord. in units of alat)
               a(1) = (   1.000000   0.000000   0.000000 )  
               a(2) = (  -0.500000   0.866025   0.000000 )  
               a(3) = (   0.000000   0.000000   7.450738 )  

     reciprocal axes: (cart. coord. in units 2 pi/alat)
               b(1) = (  1.000000  0.577350 -0.000000 )  
               b(2) = (  0.000000  1.154701  0.000000 )  
               b(3) = (  0.000000 -0.000000  0.134215 )  


     PseudoPot. # 1 for Cr read from file:
     /home/rao/Desktop/pseudo/ONCVPSP/sg15/Cr_ONCV_PBE_sr.upf
     MD5 check sum: 8c25700f94aee329d8014e8d8708abb4
     Pseudo is Norm-conserving, Zval = 14.0
     Generated using ONCVPSP code by D. R. Hamann
     Using radial grid of 1490 points,  6 beta functions with: 
                l(1) =   0
                l(2) =   0
                l(3) =   1
                l(4) =   1
                l(5) =   2
                l(6) =   2

     PseudoPot. # 2 for Si read from file:
     /home/rao/Desktop/pseudo/ONCVPSP/sg15/Si_ONCV_PBE_sr.upf
     MD5 check sum: 8553c464762ac42b85b1eed164b4d029
     Pseudo is Norm-conserving, Zval =  4.0
     Generated using ONCVPSP code by D. R. Hamann
     Using radial grid of 1510 points,  4 beta functions with: 
                l(1) =   0
                l(2) =   0
                l(3) =   1
                l(4) =   1

     PseudoPot. # 3 for N  read from file:
     /home/rao/Desktop/pseudo/ONCVPSP/sg15/N_ONCV_PBE_sr.upf
     MD5 check sum: 584dff68b02d160f04ff099e3496afa1
     Pseudo is Norm-conserving, Zval =  5.0
     Generated using ONCVPSP code by D. R. Hamann
     Using radial grid of 1058 points,  4 beta functions with: 
                l(1) =   0
                l(2) =   0
                l(3) =   1
                l(4) =   1

     atomic species   valence    mass     pseudopotential
     Cr               14.00    51.99600     Cr( 1.00)
     Si                4.00    28.08600     Si( 1.00)
     N                 5.00    14.00700     N ( 1.00)

     No symmetry found


                                    s                        frac. trans.

      isym =  1     identity                                     

 cryst.   s( 1) = (     1          0          0      )
                  (     0          1          0      )
                  (     0          0          1      )

 cart.    s( 1) = (  1.0000000 -0.0000000  0.0000000 )
                  (  0.0000000  1.0000000  0.0000000 )
                  (  0.0000000  0.0000000  1.0000000 )


     point group C_1 (1)    
     there are  1 classes
     the character table:

       E    
A      1.00

     the symmetry operations in each class and the name of the first element:

     E        1
          identity                                               

   Cartesian axes

     site n.     atom                  positions (alat units)
         1        Cr     tau(   1) = (   0.7857107   0.1237095   3.1876165  )
         2        N      tau(   2) = (   0.2856915   0.4123970   2.7734614  )
         3        N      tau(   3) = (   0.2856784   0.4124021   3.6067772  )
         4        N      tau(   4) = (   0.7857285   0.1236934   4.4422590  )
         5        N      tau(   5) = (  -0.2143006   0.7010706   1.9453468  )
         6        Si     tau(   6) = (   0.2857128   0.4123877   2.1473459  )
         7        Si     tau(   7) = (   0.2857457   0.4123587   4.2372170  )

   Crystallographic axes

     site n.     atom                  positions (cryst. coord.)
         1        Cr     tau(   1) = (  0.8571344  0.1428475  0.4278256  )
         2        N      tau(   2) = (  0.5237890  0.4761951  0.3722398  )
         3        N      tau(   3) = (  0.5237789  0.4762009  0.4840832  )
         4        N      tau(   4) = (  0.8571429  0.1428289  0.5962173  )
         5        N      tau(   5) = (  0.1904627  0.8095266  0.2610945  )
         6        Si     tau(   6) = (  0.5238049  0.4761843  0.2882058  )
         7        Si     tau(   7) = (  0.5238211  0.4761508  0.5686976  )

     number of k points=   100
                       cart. coord. in units 2pi/alat
        k(    1) = (   0.0000000   0.0000000   0.0000000), wk =   0.0102041
        k(    2) = (   0.0000000   0.0824786   0.0000000), wk =   0.0204082
        k(    3) = (   0.0000000   0.1649572   0.0000000), wk =   0.0204082
        k(    4) = (   0.0000000   0.2474358   0.0000000), wk =   0.0204082
        k(    5) = (   0.0000000   0.3299144   0.0000000), wk =   0.0204082
        k(    6) = (   0.0000000   0.4123930   0.0000000), wk =   0.0204082
        k(    7) = (   0.0000000   0.4948717   0.0000000), wk =   0.0204082
        k(    8) = (   0.0000000  -0.5773503   0.0000000), wk =   0.0102041
        k(    9) = (   0.0714286   0.1237179   0.0000000), wk =   0.0204082
        k(   10) = (   0.0714286   0.2061965   0.0000000), wk =   0.0204082
        k(   11) = (   0.0714286   0.2886751   0.0000000), wk =   0.0204082
        k(   12) = (   0.0714286   0.3711537   0.0000000), wk =   0.0204082
        k(   13) = (   0.0714286   0.4536324   0.0000000), wk =   0.0204082
        k(   14) = (   0.0714286   0.5361110   0.0000000), wk =   0.0204082
        k(   15) = (   0.1428571   0.2474358   0.0000000), wk =   0.0204082
        k(   16) = (   0.1428571   0.3299144   0.0000000), wk =   0.0204082
        k(   17) = (   0.1428571   0.4123930   0.0000000), wk =   0.0204082
        k(   18) = (   0.1428571   0.4948717   0.0000000), wk =   0.0204082
        k(   19) = (   0.1428571   0.5773503   0.0000000), wk =   0.0204082
        k(   20) = (   0.2142857   0.3711537   0.0000000), wk =   0.0204082
        k(   21) = (   0.2142857   0.4536324   0.0000000), wk =   0.0204082
        k(   22) = (   0.2142857   0.5361110   0.0000000), wk =   0.0204082
        k(   23) = (   0.2857143   0.4948717   0.0000000), wk =   0.0204082
        k(   24) = (   0.2857143   0.5773503   0.0000000), wk =   0.0204082
        k(   25) = (  -0.0714286   0.0412393   0.0000000), wk =   0.0204082
        k(   26) = (   0.0714286   0.0412393   0.0000000), wk =   0.0204082
        k(   27) = (  -0.1428571   0.0824786   0.0000000), wk =   0.0204082
        k(   28) = (   0.1428571   0.0824786   0.0000000), wk =   0.0204082
        k(   29) = (  -0.2142857   0.1237179   0.0000000), wk =   0.0204082
        k(   30) = (   0.2142857   0.1237179   0.0000000), wk =   0.0204082
        k(   31) = (  -0.2857143   0.1649572   0.0000000), wk =   0.0204082
        k(   32) = (   0.2857143   0.1649572   0.0000000), wk =   0.0204082
        k(   33) = (  -0.3571429   0.2061965   0.0000000), wk =   0.0204082
        k(   34) = (   0.3571429   0.2061965   0.0000000), wk =   0.0204082
        k(   35) = (  -0.4285714   0.2474358   0.0000000), wk =   0.0204082
        k(   36) = (   0.4285714   0.2474358   0.0000000), wk =   0.0204082
        k(   37) = (   0.5000000  -0.2886751   0.0000000), wk =   0.0102041
        k(   38) = (  -0.5000000  -0.2886751   0.0000000), wk =   0.0102041
        k(   39) = (  -0.0714286   0.1237179   0.0000000), wk =   0.0204082
        k(   40) = (   0.1428571  -0.0000000   0.0000000), wk =   0.0204082
        k(   41) = (  -0.0714286   0.2061965   0.0000000), wk =   0.0204082
        k(   42) = (  -0.1428571   0.1649572   0.0000000), wk =   0.0204082
        k(   43) = (   0.2142857   0.0412393   0.0000000), wk =   0.0204082
        k(   44) = (  -0.1428571  -0.1649572   0.0000000), wk =   0.0204082
        k(   45) = (   0.2142857  -0.0412393   0.0000000), wk =   0.0204082
        k(   46) = (  -0.0714286   0.2886751   0.0000000), wk =   0.0204082
        k(   47) = (  -0.2142857   0.2061965   0.0000000), wk =   0.0204082
        k(   48) = (   0.2857143   0.0824786   0.0000000), wk =   0.0204082
        k(   49) = (  -0.2142857  -0.2061965   0.0000000), wk =   0.0204082
        k(   50) = (   0.2857143  -0.0824786   0.0000000), wk =   0.0204082
        k(   51) = (  -0.0714286   0.3711537   0.0000000), wk =   0.0204082
        k(   52) = (  -0.2857143   0.2474358   0.0000000), wk =   0.0204082
        k(   53) = (   0.3571429   0.1237179   0.0000000), wk =   0.0204082
        k(   54) = (  -0.2857143  -0.2474358   0.0000000), wk =   0.0204082
        k(   55) = (   0.3571429  -0.1237179   0.0000000), wk =   0.0204082
        k(   56) = (  -0.0714286   0.4536324   0.0000000), wk =   0.0204082
        k(   57) = (  -0.3571429   0.2886751   0.0000000), wk =   0.0204082
        k(   58) = (   0.4285714   0.1649572   0.0000000), wk =   0.0204082
        k(   59) = (  -0.3571429  -0.2886751   0.0000000), wk =   0.0204082
        k(   60) = (   0.4285714  -0.1649572   0.0000000), wk =   0.0204082
        k(   61) = (  -0.0714286   0.5361110   0.0000000), wk =   0.0204082
        k(   62) = (  -0.4285714   0.3299144   0.0000000), wk =   0.0204082
        k(   63) = (   0.5000000   0.2061965   0.0000000), wk =   0.0204082
        k(   64) = (  -0.4285714  -0.3299144   0.0000000), wk =   0.0204082
        k(   65) = (   0.5000000  -0.2061965   0.0000000), wk =   0.0204082
        k(   66) = (  -0.1428571   0.2474358   0.0000000), wk =   0.0204082
        k(   67) = (   0.2857143  -0.0000000   0.0000000), wk =   0.0204082
        k(   68) = (  -0.1428571   0.3299144   0.0000000), wk =   0.0204082
        k(   69) = (  -0.2142857   0.2886751   0.0000000), wk =   0.0204082
        k(   70) = (   0.3571429   0.0412393   0.0000000), wk =   0.0204082
        k(   71) = (  -0.2142857  -0.2886751   0.0000000), wk =   0.0204082
        k(   72) = (   0.3571429  -0.0412393   0.0000000), wk =   0.0204082
        k(   73) = (  -0.1428571   0.4123930   0.0000000), wk =   0.0204082
        k(   74) = (  -0.2857143   0.3299144   0.0000000), wk =   0.0204082
        k(   75) = (   0.4285714   0.0824786   0.0000000), wk =   0.0204082
        k(   76) = (  -0.2857143  -0.3299144   0.0000000), wk =   0.0204082
        k(   77) = (   0.4285714  -0.0824786   0.0000000), wk =   0.0204082
        k(   78) = (  -0.1428571   0.4948717   0.0000000), wk =   0.0204082
        k(   79) = (  -0.3571429   0.3711537   0.0000000), wk =   0.0204082
        k(   80) = (   0.5000000   0.1237179   0.0000000), wk =   0.0204082
        k(   81) = (  -0.3571429  -0.3711537   0.0000000), wk =   0.0204082
        k(   82) = (   0.5000000  -0.1237179   0.0000000), wk =   0.0204082
        k(   83) = (  -0.4285714   0.4123930   0.0000000), wk =   0.0204082
        k(   84) = (   0.5714286   0.1649572   0.0000000), wk =   0.0204082
        k(   85) = (  -0.2142857   0.3711537   0.0000000), wk =   0.0204082
        k(   86) = (   0.4285714  -0.0000000   0.0000000), wk =   0.0204082
        k(   87) = (  -0.2142857   0.4536324   0.0000000), wk =   0.0204082
        k(   88) = (  -0.2857143   0.4123930   0.0000000), wk =   0.0204082
        k(   89) = (   0.5000000   0.0412393   0.0000000), wk =   0.0204082
        k(   90) = (  -0.2857143  -0.4123930   0.0000000), wk =   0.0204082
        k(   91) = (   0.5000000  -0.0412393   0.0000000), wk =   0.0204082
        k(   92) = (  -0.2142857   0.5361110   0.0000000), wk =   0.0204082
        k(   93) = (  -0.3571429   0.4536324   0.0000000), wk =   0.0204082
        k(   94) = (   0.5714286   0.0824786   0.0000000), wk =   0.0204082
        k(   95) = (  -0.3571429  -0.4536324   0.0000000), wk =   0.0204082
        k(   96) = (   0.5714286  -0.0824786   0.0000000), wk =   0.0204082
        k(   97) = (  -0.2857143   0.4948717   0.0000000), wk =   0.0204082
        k(   98) = (   0.5714286  -0.0000000   0.0000000), wk =   0.0204082
        k(   99) = (  -0.3571429   0.5361110   0.0000000), wk =   0.0204082
        k(  100) = (   0.6428571   0.0412393   0.0000000), wk =   0.0204082

                       cryst. coord.
        k(    1) = (   0.0000000   0.0000000   0.0000000), wk =   0.0102041
        k(    2) = (   0.0000000   0.0714286   0.0000000), wk =   0.0204082
        k(    3) = (   0.0000000   0.1428571   0.0000000), wk =   0.0204082
        k(    4) = (   0.0000000   0.2142857   0.0000000), wk =   0.0204082
        k(    5) = (   0.0000000   0.2857143   0.0000000), wk =   0.0204082
        k(    6) = (   0.0000000   0.3571429   0.0000000), wk =   0.0204082
        k(    7) = (   0.0000000   0.4285714   0.0000000), wk =   0.0204082
        k(    8) = (   0.0000000  -0.5000000   0.0000000), wk =   0.0102041
        k(    9) = (   0.0714286   0.0714286   0.0000000), wk =   0.0204082
        k(   10) = (   0.0714286   0.1428571   0.0000000), wk =   0.0204082
        k(   11) = (   0.0714286   0.2142857   0.0000000), wk =   0.0204082
        k(   12) = (   0.0714286   0.2857143   0.0000000), wk =   0.0204082
        k(   13) = (   0.0714286   0.3571429   0.0000000), wk =   0.0204082
        k(   14) = (   0.0714286   0.4285714   0.0000000), wk =   0.0204082
        k(   15) = (   0.1428571   0.1428571   0.0000000), wk =   0.0204082
        k(   16) = (   0.1428571   0.2142857   0.0000000), wk =   0.0204082
        k(   17) = (   0.1428571   0.2857143   0.0000000), wk =   0.0204082
        k(   18) = (   0.1428571   0.3571429   0.0000000), wk =   0.0204082
        k(   19) = (   0.1428571   0.4285714   0.0000000), wk =   0.0204082
        k(   20) = (   0.2142857   0.2142857   0.0000000), wk =   0.0204082
        k(   21) = (   0.2142857   0.2857143   0.0000000), wk =   0.0204082
        k(   22) = (   0.2142857   0.3571429   0.0000000), wk =   0.0204082
        k(   23) = (   0.2857143   0.2857143   0.0000000), wk =   0.0204082
        k(   24) = (   0.2857143   0.3571429   0.0000000), wk =   0.0204082
        k(   25) = (  -0.0714286   0.0714286   0.0000000), wk =   0.0204082
        k(   26) = (   0.0714286  -0.0000000   0.0000000), wk =   0.0204082
        k(   27) = (  -0.1428571   0.1428571   0.0000000), wk =   0.0204082
        k(   28) = (   0.1428571  -0.0000000   0.0000000), wk =   0.0204082
        k(   29) = (  -0.2142857   0.2142857   0.0000000), wk =   0.0204082
        k(   30) = (   0.2142857  -0.0000000   0.0000000), wk =   0.0204082
        k(   31) = (  -0.2857143   0.2857143   0.0000000), wk =   0.0204082
        k(   32) = (   0.2857143  -0.0000000   0.0000000), wk =   0.0204082
        k(   33) = (  -0.3571429   0.3571429   0.0000000), wk =   0.0204082
        k(   34) = (   0.3571429  -0.0000000   0.0000000), wk =   0.0204082
        k(   35) = (  -0.4285714   0.4285714   0.0000000), wk =   0.0204082
        k(   36) = (   0.4285714  -0.0000000   0.0000000), wk =   0.0204082
        k(   37) = (   0.5000000  -0.5000000   0.0000000), wk =   0.0102041
        k(   38) = (  -0.5000000   0.0000000   0.0000000), wk =   0.0102041
        k(   39) = (  -0.0714286   0.1428571   0.0000000), wk =   0.0204082
        k(   40) = (   0.1428571  -0.0714286   0.0000000), wk =   0.0204082
        k(   41) = (  -0.0714286   0.2142857   0.0000000), wk =   0.0204082
        k(   42) = (  -0.1428571   0.2142857   0.0000000), wk =   0.0204082
        k(   43) = (   0.2142857  -0.0714286   0.0000000), wk =   0.0204082
        k(   44) = (  -0.1428571  -0.0714286   0.0000000), wk =   0.0204082
        k(   45) = (   0.2142857  -0.1428571   0.0000000), wk =   0.0204082
        k(   46) = (  -0.0714286   0.2857143   0.0000000), wk =   0.0204082
        k(   47) = (  -0.2142857   0.2857143   0.0000000), wk =   0.0204082
        k(   48) = (   0.2857143  -0.0714286   0.0000000), wk =   0.0204082
        k(   49) = (  -0.2142857  -0.0714286   0.0000000), wk =   0.0204082
        k(   50) = (   0.2857143  -0.2142857   0.0000000), wk =   0.0204082
        k(   51) = (  -0.0714286   0.3571429   0.0000000), wk =   0.0204082
        k(   52) = (  -0.2857143   0.3571429   0.0000000), wk =   0.0204082
        k(   53) = (   0.3571429  -0.0714286   0.0000000), wk =   0.0204082
        k(   54) = (  -0.2857143  -0.0714286   0.0000000), wk =   0.0204082
        k(   55) = (   0.3571429  -0.2857143   0.0000000), wk =   0.0204082
        k(   56) = (  -0.0714286   0.4285714   0.0000000), wk =   0.0204082
        k(   57) = (  -0.3571429   0.4285714   0.0000000), wk =   0.0204082
        k(   58) = (   0.4285714  -0.0714286   0.0000000), wk =   0.0204082
        k(   59) = (  -0.3571429  -0.0714286   0.0000000), wk =   0.0204082
        k(   60) = (   0.4285714  -0.3571429   0.0000000), wk =   0.0204082
        k(   61) = (  -0.0714286   0.5000000   0.0000000), wk =   0.0204082
        k(   62) = (  -0.4285714   0.5000000   0.0000000), wk =   0.0204082
        k(   63) = (   0.5000000  -0.0714286   0.0000000), wk =   0.0204082
        k(   64) = (  -0.4285714  -0.0714286   0.0000000), wk =   0.0204082
        k(   65) = (   0.5000000  -0.4285714   0.0000000), wk =   0.0204082
        k(   66) = (  -0.1428571   0.2857143   0.0000000), wk =   0.0204082
        k(   67) = (   0.2857143  -0.1428571   0.0000000), wk =   0.0204082
        k(   68) = (  -0.1428571   0.3571429   0.0000000), wk =   0.0204082
        k(   69) = (  -0.2142857   0.3571429   0.0000000), wk =   0.0204082
        k(   70) = (   0.3571429  -0.1428571   0.0000000), wk =   0.0204082
        k(   71) = (  -0.2142857  -0.1428571   0.0000000), wk =   0.0204082
        k(   72) = (   0.3571429  -0.2142857   0.0000000), wk =   0.0204082
        k(   73) = (  -0.1428571   0.4285714   0.0000000), wk =   0.0204082
        k(   74) = (  -0.2857143   0.4285714   0.0000000), wk =   0.0204082
        k(   75) = (   0.4285714  -0.1428571   0.0000000), wk =   0.0204082
        k(   76) = (  -0.2857143  -0.1428571   0.0000000), wk =   0.0204082
        k(   77) = (   0.4285714  -0.2857143   0.0000000), wk =   0.0204082
        k(   78) = (  -0.1428571   0.5000000   0.0000000), wk =   0.0204082
        k(   79) = (  -0.3571429   0.5000000   0.0000000), wk =   0.0204082
        k(   80) = (   0.5000000  -0.1428571   0.0000000), wk =   0.0204082
        k(   81) = (  -0.3571429  -0.1428571   0.0000000), wk =   0.0204082
        k(   82) = (   0.5000000  -0.3571429   0.0000000), wk =   0.0204082
        k(   83) = (  -0.4285714   0.5714286   0.0000000), wk =   0.0204082
        k(   84) = (   0.5714286  -0.1428571   0.0000000), wk =   0.0204082
        k(   85) = (  -0.2142857   0.4285714   0.0000000), wk =   0.0204082
        k(   86) = (   0.4285714  -0.2142857   0.0000000), wk =   0.0204082
        k(   87) = (  -0.2142857   0.5000000   0.0000000), wk =   0.0204082
        k(   88) = (  -0.2857143   0.5000000   0.0000000), wk =   0.0204082
        k(   89) = (   0.5000000  -0.2142857   0.0000000), wk =   0.0204082
        k(   90) = (  -0.2857143  -0.2142857   0.0000000), wk =   0.0204082
        k(   91) = (   0.5000000  -0.2857143   0.0000000), wk =   0.0204082
        k(   92) = (  -0.2142857   0.5714286   0.0000000), wk =   0.0204082
        k(   93) = (  -0.3571429   0.5714286   0.0000000), wk =   0.0204082
        k(   94) = (   0.5714286  -0.2142857   0.0000000), wk =   0.0204082
        k(   95) = (  -0.3571429  -0.2142857   0.0000000), wk =   0.0204082
        k(   96) = (   0.5714286  -0.3571429   0.0000000), wk =   0.0204082
        k(   97) = (  -0.2857143   0.5714286   0.0000000), wk =   0.0204082
        k(   98) = (   0.5714286  -0.2857143   0.0000000), wk =   0.0204082
        k(   99) = (  -0.3571429   0.6428571   0.0000000), wk =   0.0204082
        k(  100) = (   0.6428571  -0.2857143   0.0000000), wk =   0.0204082

     Dense  grid:   127257 G-vectors     FFT dimensions: (  36,  36, 250)

     Smooth grid:    90781 G-vectors     FFT dimensions: (  30,  30, 225)

     Dynamical RAM for                 wfc:       3.65 MB

     Dynamical RAM for     wfc (w. buffer):       3.65 MB

     Dynamical RAM for           str. fact:       5.83 MB

     Dynamical RAM for           local pot:       0.00 MB

     Dynamical RAM for          nlocal pot:      11.47 MB

     Dynamical RAM for                qrad:       4.82 MB

     Dynamical RAM for          rho,v,vnew:      13.24 MB

     Dynamical RAM for           G-vectors:       7.97 MB

     Dynamical RAM for          h,s,v(r/c):       0.08 MB

     Dynamical RAM for          <psi|beta>:       0.02 MB

     Dynamical RAM for                 psi:       7.30 MB

     Dynamical RAM for                hpsi:       7.30 MB

     Dynamical RAM for      wfcinit/wfcrot:       7.31 MB

     Estimated static dynamical RAM per process >      67.11 MB

     Estimated max dynamical RAM per process >      81.81 MB
 ----2D----2D----2D----2D----2D----2D----2D----2D----2D----2D----2D----2D
  The code is running with the 2D cutoff
  Please refer to:
  Sohier, T., Calandra, M., & Mauri, F. (2017), 
  Density functional perturbation theory for gated two-dimensional heterostructures:
  Theoretical developments and application to flexural phonons in graphene.
  Physical Review B, 96(7), 75448. https://doi.org/10.1103/PhysRevB.96.075448
 ----2D----2D----2D----2D----2D----2D----2D----2D----2D----2D----2D----2D

     The potential is recalculated from file :
     ./tmp/crsi2n4.save/charge-density

     Starting wfcs are   34 randomized atomic wfcs

     Band Structure Calculation
     Davidson diagonalization with overlap

     Computing kpt #:     1  of   100
     total cpu time spent up to now is        3.2 secs

     Computing kpt #:     2  of   100
     total cpu time spent up to now is        5.0 secs

     Computing kpt #:     3  of   100
     total cpu time spent up to now is        6.8 secs

     Computing kpt #:     4  of   100
     total cpu time spent up to now is        8.6 secs

     Computing kpt #:     5  of   100
     total cpu time spent up to now is       10.4 secs

     Computing kpt #:     6  of   100
     total cpu time spent up to now is       12.2 secs

     Computing kpt #:     7  of   100
     total cpu time spent up to now is       14.1 secs

     Computing kpt #:     8  of   100
     total cpu time spent up to now is       15.9 secs

     Computing kpt #:     9  of   100
     total cpu time spent up to now is       17.7 secs

     Computing kpt #:    10  of   100
     total cpu time spent up to now is       19.5 secs

     Computing kpt #:    11  of   100
     total cpu time spent up to now is       21.4 secs

     Computing kpt #:    12  of   100
     total cpu time spent up to now is       23.1 secs

     Computing kpt #:    13  of   100
     total cpu time spent up to now is       25.1 secs

     Computing kpt #:    14  of   100
     total cpu time spent up to now is       27.2 secs

     Computing kpt #:    15  of   100
     total cpu time spent up to now is       29.0 secs

     Computing kpt #:    16  of   100
     total cpu time spent up to now is       30.8 secs

     Computing kpt #:    17  of   100
     total cpu time spent up to now is       32.8 secs

     Computing kpt #:    18  of   100
     total cpu time spent up to now is       34.9 secs

     Computing kpt #:    19  of   100
     total cpu time spent up to now is       37.1 secs

     Computing kpt #:    20  of   100
     total cpu time spent up to now is       38.9 secs

     Computing kpt #:    21  of   100
     total cpu time spent up to now is       40.9 secs

     Computing kpt #:    22  of   100
     total cpu time spent up to now is       42.8 secs

     Computing kpt #:    23  of   100
     total cpu time spent up to now is       44.8 secs

     Computing kpt #:    24  of   100
     total cpu time spent up to now is       46.7 secs

     Computing kpt #:    25  of   100
     total cpu time spent up to now is       48.5 secs

     Computing kpt #:    26  of   100
     total cpu time spent up to now is       50.4 secs

     Computing kpt #:    27  of   100
     total cpu time spent up to now is       52.3 secs

     Computing kpt #:    28  of   100
     total cpu time spent up to now is       54.2 secs

     Computing kpt #:    29  of   100
     total cpu time spent up to now is       56.0 secs

     Computing kpt #:    30  of   100
     total cpu time spent up to now is       57.9 secs

     Computing kpt #:    31  of   100
     total cpu time spent up to now is       59.6 secs

     Computing kpt #:    32  of   100
     total cpu time spent up to now is       61.4 secs

     Computing kpt #:    33  of   100
     total cpu time spent up to now is       63.2 secs

     Computing kpt #:    34  of   100
     total cpu time spent up to now is       65.0 secs

     Computing kpt #:    35  of   100
     total cpu time spent up to now is       67.0 secs

     Computing kpt #:    36  of   100
     total cpu time spent up to now is       68.9 secs

     Computing kpt #:    37  of   100
     total cpu time spent up to now is       70.7 secs

     Computing kpt #:    38  of   100
     total cpu time spent up to now is       72.6 secs

     Computing kpt #:    39  of   100
     total cpu time spent up to now is       74.4 secs

     Computing kpt #:    40  of   100
     total cpu time spent up to now is       76.3 secs

     Computing kpt #:    41  of   100
     total cpu time spent up to now is       78.1 secs

     Computing kpt #:    42  of   100
     total cpu time spent up to now is       80.0 secs

     Computing kpt #:    43  of   100
     total cpu time spent up to now is       81.8 secs

     Computing kpt #:    44  of   100
     total cpu time spent up to now is       83.6 secs

     Computing kpt #:    45  of   100
     total cpu time spent up to now is       85.5 secs

     Computing kpt #:    46  of   100
     total cpu time spent up to now is       87.3 secs

     Computing kpt #:    47  of   100
     total cpu time spent up to now is       89.2 secs

     Computing kpt #:    48  of   100
     total cpu time spent up to now is       91.1 secs

     Computing kpt #:    49  of   100
     total cpu time spent up to now is       92.9 secs

     Computing kpt #:    50  of   100
     total cpu time spent up to now is       94.8 secs

     Computing kpt #:    51  of   100
     total cpu time spent up to now is       96.6 secs

     Computing kpt #:    52  of   100
     total cpu time spent up to now is       98.5 secs

     Computing kpt #:    53  of   100
     total cpu time spent up to now is      100.3 secs

     Computing kpt #:    54  of   100
     total cpu time spent up to now is      102.1 secs

     Computing kpt #:    55  of   100
     total cpu time spent up to now is      103.9 secs

     Computing kpt #:    56  of   100
     total cpu time spent up to now is      105.8 secs

     Computing kpt #:    57  of   100
     total cpu time spent up to now is      107.8 secs

     Computing kpt #:    58  of   100
     total cpu time spent up to now is      109.9 secs

     Computing kpt #:    59  of   100
     total cpu time spent up to now is      111.8 secs

     Computing kpt #:    60  of   100
     total cpu time spent up to now is      113.8 secs

     Computing kpt #:    61  of   100
     total cpu time spent up to now is      115.9 secs

     Computing kpt #:    62  of   100
     total cpu time spent up to now is      118.1 secs

     Computing kpt #:    63  of   100
     total cpu time spent up to now is      120.1 secs

     Computing kpt #:    64  of   100
     total cpu time spent up to now is      122.3 secs

     Computing kpt #:    65  of   100
     total cpu time spent up to now is      124.4 secs

     Computing kpt #:    66  of   100
     total cpu time spent up to now is      126.3 secs

     Computing kpt #:    67  of   100
     total cpu time spent up to now is      128.2 secs

     Computing kpt #:    68  of   100
     total cpu time spent up to now is      130.1 secs

     Computing kpt #:    69  of   100
     total cpu time spent up to now is      131.9 secs

     Computing kpt #:    70  of   100
     total cpu time spent up to now is      133.9 secs

     Computing kpt #:    71  of   100
     total cpu time spent up to now is      135.9 secs

     Computing kpt #:    72  of   100
     total cpu time spent up to now is      137.8 secs

     Computing kpt #:    73  of   100
     total cpu time spent up to now is      139.8 secs

     Computing kpt #:    74  of   100
     total cpu time spent up to now is      141.9 secs

     Computing kpt #:    75  of   100
     total cpu time spent up to now is      143.9 secs

     Computing kpt #:    76  of   100
     total cpu time spent up to now is      145.8 secs

     Computing kpt #:    77  of   100
     total cpu time spent up to now is      147.9 secs

     Computing kpt #:    78  of   100
     total cpu time spent up to now is      150.1 secs

     Computing kpt #:    79  of   100
     total cpu time spent up to now is      152.2 secs

     Computing kpt #:    80  of   100
     total cpu time spent up to now is      154.3 secs

     Computing kpt #:    81  of   100
     total cpu time spent up to now is      156.4 secs

     Computing kpt #:    82  of   100
     total cpu time spent up to now is      158.5 secs

     Computing kpt #:    83  of   100
     total cpu time spent up to now is      160.7 secs

     Computing kpt #:    84  of   100
     total cpu time spent up to now is      163.0 secs

     Computing kpt #:    85  of   100
     total cpu time spent up to now is      165.0 secs

     Computing kpt #:    86  of   100
     total cpu time spent up to now is      167.0 secs

     Computing kpt #:    87  of   100
     total cpu time spent up to now is      169.0 secs

     Computing kpt #:    88  of   100
     total cpu time spent up to now is      170.9 secs

     Computing kpt #:    89  of   100
     total cpu time spent up to now is      173.0 secs

     Computing kpt #:    90  of   100
     total cpu time spent up to now is      174.9 secs

     Computing kpt #:    91  of   100
     total cpu time spent up to now is      176.9 secs

     Computing kpt #:    92  of   100
     total cpu time spent up to now is      178.9 secs

     Computing kpt #:    93  of   100
     total cpu time spent up to now is      181.0 secs

     Computing kpt #:    94  of   100
     total cpu time spent up to now is      183.0 secs

     Computing kpt #:    95  of   100
     total cpu time spent up to now is      185.0 secs

     Computing kpt #:    96  of   100
     total cpu time spent up to now is      187.0 secs

     Computing kpt #:    97  of   100
     total cpu time spent up to now is      189.0 secs

     Computing kpt #:    98  of   100
     total cpu time spent up to now is      191.0 secs

     Computing kpt #:    99  of   100
     total cpu time spent up to now is      193.1 secs

     Computing kpt #:   100  of   100
     total cpu time spent up to now is      195.1 secs

     ethr =  2.38E-13,  avg # of iterations = 94.7

     total cpu time spent up to now is      195.1 secs

     End of band structure calculation

          k = 0.0000 0.0000 0.0000 ( 11445 PWs)   bands (ev):

   -77.8552 -49.0487 -49.0403 -49.0403 -24.8889 -24.8156 -22.0538 -20.6580
   -14.2898 -11.6968  -9.7063  -9.2074  -9.2073  -9.1455  -9.1453  -8.8699
    -8.8696  -7.7374  -7.5717  -7.5710  -5.5010

     occupation numbers 
     1.0000   1.0000   1.0000   1.0000   1.0000   1.0000   1.0000   1.0000
     1.0000   1.0000   1.0000   1.0000   1.0000   1.0000   1.0000   1.0000
     1.0000   1.0000   1.0000   1.0000   1.0000

          k = 0.0000 0.0825 0.0000 ( 11421 PWs)   bands (ev):

   -77.8529 -49.0569 -49.0456 -49.0441 -24.7959 -24.7241 -21.9793 -20.6166
   -14.2111 -11.6602  -9.8255  -9.5875  -9.3889  -9.2836  -9.2395  -9.0489
    -8.8175  -7.8889  -7.6698  -7.4666  -5.5612

     occupation numbers 
     1.0000   1.0000   1.0000   1.0000   1.0000   1.0000   1.0000   1.0000
     1.0000   1.0000   1.0000   1.0000   1.0000   1.0000   1.0000   1.0000
     1.0000   1.0000   1.0000   1.0000   1.0000

          k = 0.0000 0.1650 0.0000 ( 11453 PWs)   bands (ev):

   -77.8467 -49.1034 -49.0545 -49.0370 -24.5214 -24.4539 -21.7664 -20.4988
   -13.9962 -11.5698 -10.6575 -10.6099  -9.5070  -9.5058  -9.4887  -9.3243
    -8.6460  -8.1642  -7.9244  -7.4906  -5.7872

     occupation numbers 
     1.0000   1.0000   1.0000   1.0000   1.0000   1.0000   1.0000   1.0000
     1.0000   1.0000   1.0000   1.0000   1.0000   1.0000   1.0000   1.0000
     1.0000   1.0000   1.0000   1.0000   1.0000

          k = 0.0000 0.2474 0.0000 ( 11455 PWs)   bands (ev):

   -77.8376 -49.1700 -49.0696 -49.0246 -24.0803 -24.0195 -21.4482 -20.3265
   -13.7356 -12.0005 -11.8084 -11.3485 -10.0547  -9.8189  -9.8134  -9.1307
    -8.5571  -8.3865  -8.2403  -7.6666  -6.1348

     occupation numbers 
     1.0000   1.0000   1.0000   1.0000   1.0000   1.0000   1.0000   1.0000
     1.0000   1.0000   1.0000   1.0000   1.0000   1.0000   1.0000   1.0000
     1.0000   1.0000   1.0000   1.0000   1.0000

          k = 0.0000 0.3299 0.0000 ( 11429 PWs)   bands (ev):

   -77.8275 -49.2433 -49.0863 -49.0107 -23.5038 -23.4518 -21.0839 -20.1403
   -13.8399 -13.2911 -12.6484 -11.2760 -10.6188 -10.1484 -10.1286  -9.0950
    -8.8383  -8.5801  -8.0505  -7.8166  -6.4180

     occupation numbers 
     1.0000   1.0000   1.0000   1.0000   1.0000   1.0000   1.0000   1.0000
     1.0000   1.0000   1.0000   1.0000   1.0000   1.0000   1.0000   1.0000
     1.0000   1.0000   1.0000   1.0000   1.0000

          k = 0.0000 0.4124 0.0000 ( 11399 PWs)   bands (ev):

   -77.8184 -49.3088 -49.1013 -48.9982 -22.8540 -22.8130 -20.7637 -20.0016
   -14.7156 -14.4596 -12.6407 -11.3883 -11.0145 -10.4209 -10.3901  -9.4627
    -8.8413  -8.6268  -7.8805  -7.7501  -6.5125

     occupation numbers 
     1.0000   1.0000   1.0000   1.0000   1.0000   1.0000   1.0000   1.0000
     1.0000   1.0000   1.0000   1.0000   1.0000   1.0000   1.0000   1.0000
     1.0000   1.0000   1.0000   1.0000   1.0000

          k = 0.0000 0.4949 0.0000 ( 11383 PWs)   bands (ev):

   -77.8121 -49.3538 -49.1117 -48.9896 -22.2636 -22.2359 -20.5881 -19.9674
   -15.5083 -15.2895 -12.4935 -11.7120 -11.1757 -10.5980 -10.5607  -9.6462
    -9.0109  -8.3938  -7.8922  -7.5323  -6.4825

     occupation numbers 
     1.0000   1.0000   1.0000   1.0000   1.0000   1.0000   1.0000   1.0000
     1.0000   1.0000   1.0000   1.0000   1.0000   1.0000   1.0000   1.0000
     1.0000   1.0000   1.0000   1.0000   1.0000

          k = 0.0000-0.5774 0.0000 ( 11328 PWs)   bands (ev):

   -77.8098 -49.3699 -49.1154 -48.9865 -21.9973 -21.9776 -20.5577 -19.9891
   -15.8113 -15.5934 -12.4241 -11.8723 -11.2393 -10.6591 -10.6198  -9.6869
    -9.0694  -8.2737  -7.8965  -7.4525  -6.4573

     occupation numbers 
     1.0000   1.0000   1.0000   1.0000   1.0000   1.0000   1.0000   1.0000
     1.0000   1.0000   1.0000   1.0000   1.0000   1.0000   1.0000   1.0000
     1.0000   1.0000   1.0000   1.0000   1.0000

          k = 0.0714 0.1237 0.0000 ( 11449 PWs)   bands (ev):

   -77.8487 -49.0878 -49.0518 -49.0398 -24.6121 -24.5432 -21.8356 -20.5369
   -14.0638 -11.5947 -10.3425 -10.2770  -9.5649  -9.4642  -9.3602  -9.2529
    -8.7209  -8.0374  -7.9235  -7.4183  -5.7078

     occupation numbers 
     1.0000   1.0000   1.0000   1.0000   1.0000   1.0000   1.0000   1.0000
     1.0000   1.0000   1.0000   1.0000   1.0000   1.0000   1.0000   1.0000
     1.0000   1.0000   1.0000   1.0000   1.0000

          k = 0.0714 0.2062 0.0000 ( 11457 PWs)   bands (ev):

   -77.8410 -49.1427 -49.0662 -49.0292 -24.2540 -24.1906 -21.5695 -20.3912
   -13.8182 -11.5931 -11.3157 -11.2489 -10.0342  -9.8258  -9.6170  -9.1970
    -8.5270  -8.4039  -8.1749  -7.5081  -6.0047

     occupation numbers 
     1.0000   1.0000   1.0000   1.0000   1.0000   1.0000   1.0000   1.0000
     1.0000   1.0000   1.0000   1.0000   1.0000   1.0000   1.0000   1.0000
     1.0000   1.0000   1.0000   1.0000   1.0000

          k = 0.0714 0.2887 0.0000 ( 11441 PWs)   bands (ev):

   -77.8314 -49.2105 -49.0842 -49.0161 -23.7437 -23.6880 -21.2265 -20.2098
   -13.6672 -12.6756 -12.3386 -11.2829 -10.5354 -10.2365 -10.0435  -9.0403
    -8.9127  -8.3526  -8.2255  -7.7109  -6.3256

     occupation numbers 
     1.0000   1.0000   1.0000   1.0000   1.0000   1.0000   1.0000   1.0000
     1.0000   1.0000   1.0000   1.0000   1.0000   1.0000   1.0000   1.0000
     1.0000   1.0000   1.0000   1.0000   1.0000

          k = 0.0714 0.3712 0.0000 ( 11407 PWs)   bands (ev):

   -77.8218 -49.2778 -49.1023 -49.0029 -23.1253 -23.0794 -20.8803 -20.0431
   -14.2211 -13.8863 -12.6598 -11.2858 -10.9352 -10.5915 -10.4382  -9.4644
    -8.7835  -8.5160  -8.0104  -7.8244  -6.4953

     occupation numbers 
     1.0000   1.0000   1.0000   1.0000   1.0000   1.0000   1.0000   1.0000
     1.0000   1.0000   1.0000   1.0000   1.0000   1.0000   1.0000   1.0000
     1.0000   1.0000   1.0000   1.0000   1.0000

          k = 0.0714 0.4536 0.0000 ( 11382 PWs)   bands (ev):

   -77.8141 -49.3313 -49.1167 -48.9923 -22.4891 -22.4554 -20.6303 -19.9557
   -15.1085 -14.8800 -12.5248 -11.5753 -11.1207 -10.8136 -10.7378  -9.7119
    -8.8885  -8.4457  -7.9374  -7.7282  -6.4775

     occupation numbers 
     1.0000   1.0000   1.0000   1.0000   1.0000   1.0000   1.0000   1.0000
     1.0000   1.0000   1.0000   1.0000   1.0000   1.0000   1.0000   1.0000
     1.0000   1.0000   1.0000   1.0000   1.0000

          k = 0.0714 0.5361 0.0000 ( 11347 PWs)   bands (ev):

   -77.8098 -49.3609 -49.1246 -48.9865 -22.0269 -22.0055 -20.5430 -19.9652
   -15.6687 -15.4513 -12.3986 -11.8383 -11.2504 -10.9444 -10.8732  -9.7430
    -9.0701  -8.2702  -7.8996  -7.6528  -6.4043

     occupation numbers 
     1.0000   1.0000   1.0000   1.0000   1.0000   1.0000   1.0000   1.0000
     1.0000   1.0000   1.0000   1.0000   1.0000   1.0000   1.0000   1.0000
     1.0000   1.0000   1.0000   1.0000   1.0000

          k = 0.1429 0.2474 0.0000 ( 11449 PWs)   bands (ev):

   -77.8328 -49.1958 -49.0865 -49.0180 -23.8256 -23.7687 -21.2774 -20.2349
   -13.6420 -12.3563 -12.0877 -11.2751 -10.6846 -10.4156  -9.9536  -9.0486
    -8.9489  -8.3716  -8.2098  -7.6138  -6.2850

     occupation numbers 
     1.0000   1.0000   1.0000   1.0000   1.0000   1.0000   1.0000   1.0000
     1.0000   1.0000   1.0000   1.0000   1.0000   1.0000   1.0000   1.0000
     1.0000   1.0000   1.0000   1.0000   1.0000

          k = 0.1429 0.3299 0.0000 ( 11408 PWs)   bands (ev):

   -77.8237 -49.2528 -49.1106 -49.0055 -23.2688 -23.2203 -20.9477 -20.0678
   -13.8595 -13.3685 -12.5437 -11.3217 -11.1808 -10.9433 -10.3521  -9.5839
    -8.8063  -8.3566  -8.1227  -7.8230  -6.4822

     occupation numbers 
     1.0000   1.0000   1.0000   1.0000   1.0000   1.0000   1.0000   1.0000
     1.0000   1.0000   1.0000   1.0000   1.0000   1.0000   1.0000   1.0000
     1.0000   1.0000   1.0000   1.0000   1.0000

          k = 0.1429 0.4124 0.0000 ( 11401 PWs)   bands (ev):

   -77.8155 -49.3030 -49.1330 -48.9943 -22.6469 -22.6091 -20.6645 -19.9454
   -14.6045 -14.3405 -12.5014 -11.7574 -11.5263 -10.9870 -10.7521  -9.9554
    -8.7139  -8.4536  -8.1883  -7.8139  -6.4781

     occupation numbers 
     1.0000   1.0000   1.0000   1.0000   1.0000   1.0000   1.0000   1.0000
     1.0000   1.0000   1.0000   1.0000   1.0000   1.0000   1.0000   1.0000
     1.0000   1.0000   1.0000   1.0000   1.0000

          k = 0.1429 0.4949 0.0000 ( 11333 PWs)   bands (ev):

   -77.8098 -49.3375 -49.1486 -48.9865 -22.0899 -22.0647 -20.5142 -19.9153
   -15.2819 -15.0606 -12.4118 -12.0242 -11.6936 -11.1810 -11.0623  -9.9527
    -8.9563  -8.4310  -8.1848  -7.7050  -6.3478

     occupation numbers 
     1.0000   1.0000   1.0000   1.0000   1.0000   1.0000   1.0000   1.0000
     1.0000   1.0000   1.0000   1.0000   1.0000   1.0000   1.0000   1.0000
     1.0000   1.0000   1.0000   1.0000   1.0000

          k = 0.1429 0.5774 0.0000 ( 11300 PWs)   bands (ev):

   -77.8078 -49.3497 -49.1543 -48.9837 -21.8429 -21.8242 -20.4896 -19.9329
   -15.5468 -15.3294 -12.3968 -12.1115 -11.6221 -11.4359 -11.1498  -9.8417
    -9.1519  -8.4043  -8.1397  -7.6618  -6.2727

     occupation numbers 
     1.0000   1.0000   1.0000   1.0000   1.0000   1.0000   1.0000   1.0000
     1.0000   1.0000   1.0000   1.0000   1.0000   1.0000   1.0000   1.0000
     1.0000   1.0000   1.0000   1.0000   1.0000

          k = 0.2143 0.3712 0.0000 ( 11383 PWs)   bands (ev):

   -77.8160 -49.2886 -49.1433 -48.9950 -22.7031 -22.6639 -20.6780 -19.9419
   -14.3322 -14.0235 -12.4375 -12.0445 -11.9190 -10.9441 -10.6122 -10.1006
    -8.7106  -8.5615  -8.1034  -7.8980  -6.4838

     occupation numbers 
     1.0000   1.0000   1.0000   1.0000   1.0000   1.0000   1.0000   1.0000
     1.0000   1.0000   1.0000   1.0000   1.0000   1.0000   1.0000   1.0000
     1.0000   1.0000   1.0000   1.0000   1.0000

          k = 0.2143 0.4536 0.0000 ( 11344 PWs)   bands (ev):

   -77.8099 -49.3131 -49.1735 -48.9865 -22.1372 -22.1093 -20.4948 -19.8785
   -14.8420 -14.5967 -12.7224 -12.5570 -12.0885 -11.0496 -10.8661 -10.1925
    -9.0010  -8.7077  -8.2202  -7.7120  -6.3288

     occupation numbers 
     1.0000   1.0000   1.0000   1.0000   1.0000   1.0000   1.0000   1.0000
     1.0000   1.0000   1.0000   1.0000   1.0000   1.0000   1.0000   1.0000
     1.0000   1.0000   1.0000   1.0000   1.0000

          k = 0.2143 0.5361 0.0000 ( 11355 PWs)   bands (ev):

   -77.8064 -49.3250 -49.1919 -48.9818 -21.7423 -21.7233 -20.4358 -19.8836
   -15.1828 -14.9576 -13.0163 -12.8717 -11.7813 -11.2890 -11.1613  -9.9322
    -9.3195  -8.9424  -8.1406  -7.5853  -6.1669

     occupation numbers 
     1.0000   1.0000   1.0000   1.0000   1.0000   1.0000   1.0000   1.0000
     1.0000   1.0000   1.0000   1.0000   1.0000   1.0000   1.0000   1.0000
     1.0000   1.0000   1.0000   1.0000   1.0000

          k = 0.2857 0.4949 0.0000 ( 11340 PWs)   bands (ev):

   -77.8059 -49.3076 -49.2140 -48.9811 -21.7131 -21.6936 -20.4121 -19.8594
   -14.8883 -14.6378 -13.4873 -13.3631 -11.7926 -11.2636 -10.8904 -10.0592
    -9.6054  -8.9965  -8.1508  -7.5640  -6.1240

     occupation numbers 
     1.0000   1.0000   1.0000   1.0000   1.0000   1.0000   1.0000   1.0000
     1.0000   1.0000   1.0000   1.0000   1.0000   1.0000   1.0000   1.0000
     1.0000   1.0000   1.0000   1.0000   1.0000

          k = 0.2857 0.5774 0.0000 ( 11346 PWs)   bands (ev):

   -77.8045 -49.2991 -49.2350 -48.9792 -21.5404 -21.5207 -20.3979 -19.8635
   -14.8401 -14.5773 -13.8321 -13.7446 -11.5692 -11.3806 -10.8977 -10.1082
    -9.6747  -9.2487  -8.1019  -7.5010  -6.0163

     occupation numbers 
     1.0000   1.0000   1.0000   1.0000   1.0000   1.0000   1.0000   1.0000
     1.0000   1.0000   1.0000   1.0000   1.0000   1.0000   1.0000   1.0000
     1.0000   1.0000   1.0000   1.0000   1.0000

          k =-0.0714 0.0412 0.0000 ( 11421 PWs)   bands (ev):

   -77.8529 -49.0570 -49.0456 -49.0440 -24.7959 -24.7241 -21.9793 -20.6166
   -14.2111 -11.6602  -9.8255  -9.5877  -9.3890  -9.2835  -9.2394  -9.0491
    -8.8173  -7.8885  -7.6703  -7.4665  -5.5612

     occupation numbers 
     1.0000   1.0000   1.0000   1.0000   1.0000   1.0000   1.0000   1.0000
     1.0000   1.0000   1.0000   1.0000   1.0000   1.0000   1.0000   1.0000
     1.0000   1.0000   1.0000   1.0000   1.0000

          k = 0.0714 0.0412 0.0000 ( 11421 PWs)   bands (ev):

   -77.8529 -49.0569 -49.0456 -49.0441 -24.7959 -24.7241 -21.9793 -20.6166
   -14.2111 -11.6602  -9.8255  -9.5875  -9.3889  -9.2836  -9.2395  -9.0489
    -8.8175  -7.8889  -7.6698  -7.4666  -5.5612

     occupation numbers 
     1.0000   1.0000   1.0000   1.0000   1.0000   1.0000   1.0000   1.0000
     1.0000   1.0000   1.0000   1.0000   1.0000   1.0000   1.0000   1.0000
     1.0000   1.0000   1.0000   1.0000   1.0000

          k =-0.1429 0.0825 0.0000 ( 11453 PWs)   bands (ev):

   -77.8467 -49.1034 -49.0545 -49.0370 -24.5214 -24.4539 -21.7664 -20.4988
   -13.9962 -11.5697 -10.6576 -10.6101  -9.5070  -9.5061  -9.4885  -9.3243
    -8.6459  -8.1637  -7.9248  -7.4908  -5.7871

     occupation numbers 
     1.0000   1.0000   1.0000   1.0000   1.0000   1.0000   1.0000   1.0000
     1.0000   1.0000   1.0000   1.0000   1.0000   1.0000   1.0000   1.0000
     1.0000   1.0000   1.0000   1.0000   1.0000

          k = 0.1429 0.0825 0.0000 ( 11453 PWs)   bands (ev):

   -77.8467 -49.1034 -49.0545 -49.0370 -24.5214 -24.4539 -21.7664 -20.4988
   -13.9962 -11.5698 -10.6575 -10.6099  -9.5070  -9.5058  -9.4887  -9.3243
    -8.6460  -8.1642  -7.9244  -7.4906  -5.7872

     occupation numbers 
     1.0000   1.0000   1.0000   1.0000   1.0000   1.0000   1.0000   1.0000
     1.0000   1.0000   1.0000   1.0000   1.0000   1.0000   1.0000   1.0000
     1.0000   1.0000   1.0000   1.0000   1.0000

          k =-0.2143 0.1237 0.0000 ( 11455 PWs)   bands (ev):

   -77.8376 -49.1700 -49.0696 -49.0246 -24.0803 -24.0195 -21.4482 -20.3265
   -13.7357 -12.0005 -11.8086 -11.3484 -10.0549  -9.8190  -9.8131  -9.1307
    -8.5568  -8.3864  -8.2406  -7.6667  -6.1346

     occupation numbers 
     1.0000   1.0000   1.0000   1.0000   1.0000   1.0000   1.0000   1.0000
     1.0000   1.0000   1.0000   1.0000   1.0000   1.0000   1.0000   1.0000
     1.0000   1.0000   1.0000   1.0000   1.0000

          k = 0.2143 0.1237 0.0000 ( 11455 PWs)   bands (ev):

   -77.8376 -49.1700 -49.0696 -49.0246 -24.0803 -24.0195 -21.4482 -20.3265
   -13.7356 -12.0005 -11.8084 -11.3485 -10.0547  -9.8189  -9.8134  -9.1307
    -8.5571  -8.3865  -8.2403  -7.6666  -6.1348

     occupation numbers 
     1.0000   1.0000   1.0000   1.0000   1.0000   1.0000   1.0000   1.0000
     1.0000   1.0000   1.0000   1.0000   1.0000   1.0000   1.0000   1.0000
     1.0000   1.0000   1.0000   1.0000   1.0000

          k =-0.2857 0.1650 0.0000 ( 11429 PWs)   bands (ev):

   -77.8275 -49.2433 -49.0863 -49.0107 -23.5038 -23.4518 -21.0839 -20.1402
   -13.8400 -13.2911 -12.6485 -11.2758 -10.6190 -10.1484 -10.1284  -9.0950
    -8.8382  -8.5804  -8.0504  -7.8167  -6.4177

     occupation numbers 
     1.0000   1.0000   1.0000   1.0000   1.0000   1.0000   1.0000   1.0000
     1.0000   1.0000   1.0000   1.0000   1.0000   1.0000   1.0000   1.0000
     1.0000   1.0000   1.0000   1.0000   1.0000

          k = 0.2857 0.1650 0.0000 ( 11429 PWs)   bands (ev):

   -77.8275 -49.2433 -49.0863 -49.0107 -23.5038 -23.4518 -21.0839 -20.1403
   -13.8399 -13.2911 -12.6484 -11.2760 -10.6188 -10.1484 -10.1286  -9.0950
    -8.8383  -8.5801  -8.0505  -7.8166  -6.4180

     occupation numbers 
     1.0000   1.0000   1.0000   1.0000   1.0000   1.0000   1.0000   1.0000
     1.0000   1.0000   1.0000   1.0000   1.0000   1.0000   1.0000   1.0000
     1.0000   1.0000   1.0000   1.0000   1.0000

          k =-0.3571 0.2062 0.0000 ( 11399 PWs)   bands (ev):

   -77.8184 -49.3088 -49.1013 -48.9982 -22.8540 -22.8130 -20.7637 -20.0016
   -14.7157 -14.4597 -12.6408 -11.3881 -11.0145 -10.4209 -10.3900  -9.4628
    -8.8415  -8.6266  -7.8806  -7.7501  -6.5123

     occupation numbers 
     1.0000   1.0000   1.0000   1.0000   1.0000   1.0000   1.0000   1.0000
     1.0000   1.0000   1.0000   1.0000   1.0000   1.0000   1.0000   1.0000
     1.0000   1.0000   1.0000   1.0000   1.0000

          k = 0.3571 0.2062 0.0000 ( 11399 PWs)   bands (ev):

   -77.8184 -49.3088 -49.1013 -48.9982 -22.8540 -22.8130 -20.7637 -20.0016
   -14.7156 -14.4596 -12.6407 -11.3882 -11.0145 -10.4209 -10.3901  -9.4627
    -8.8413  -8.6268  -7.8805  -7.7501  -6.5125

     occupation numbers 
     1.0000   1.0000   1.0000   1.0000   1.0000   1.0000   1.0000   1.0000
     1.0000   1.0000   1.0000   1.0000   1.0000   1.0000   1.0000   1.0000
     1.0000   1.0000   1.0000   1.0000   1.0000

          k =-0.4286 0.2474 0.0000 ( 11383 PWs)   bands (ev):

   -77.8121 -49.3538 -49.1117 -48.9896 -22.2636 -22.2359 -20.5881 -19.9673
   -15.5084 -15.2895 -12.4937 -11.7119 -11.1757 -10.5979 -10.5606  -9.6463
    -9.0111  -8.3936  -7.8924  -7.5323  -6.4822

     occupation numbers 
     1.0000   1.0000   1.0000   1.0000   1.0000   1.0000   1.0000   1.0000
     1.0000   1.0000   1.0000   1.0000   1.0000   1.0000   1.0000   1.0000
     1.0000   1.0000   1.0000   1.0000   1.0000

          k = 0.4286 0.2474 0.0000 ( 11383 PWs)   bands (ev):

   -77.8121 -49.3538 -49.1117 -48.9896 -22.2636 -22.2359 -20.5880 -19.9674
   -15.5083 -15.2895 -12.4935 -11.7120 -11.1757 -10.5980 -10.5607  -9.6462
    -9.0109  -8.3938  -7.8922  -7.5323  -6.4825

     occupation numbers 
     1.0000   1.0000   1.0000   1.0000   1.0000   1.0000   1.0000   1.0000
     1.0000   1.0000   1.0000   1.0000   1.0000   1.0000   1.0000   1.0000
     1.0000   1.0000   1.0000   1.0000   1.0000

          k = 0.5000-0.2887 0.0000 ( 11328 PWs)   bands (ev):

   -77.8098 -49.3699 -49.1154 -48.9865 -21.9973 -21.9777 -20.5577 -19.9890
   -15.8114 -15.5934 -12.4244 -11.8722 -11.2393 -10.6591 -10.6196  -9.6869
    -9.0695  -8.2734  -7.8967  -7.4525  -6.4571

     occupation numbers 
     1.0000   1.0000   1.0000   1.0000   1.0000   1.0000   1.0000   1.0000
     1.0000   1.0000   1.0000   1.0000   1.0000   1.0000   1.0000   1.0000
     1.0000   1.0000   1.0000   1.0000   1.0000

          k =-0.5000-0.2887 0.0000 ( 11328 PWs)   bands (ev):

   -77.8098 -49.3699 -49.1154 -48.9865 -21.9973 -21.9777 -20.5577 -19.9891
   -15.8113 -15.5934 -12.4241 -11.8723 -11.2393 -10.6591 -10.6198  -9.6869
    -9.0694  -8.2736  -7.8965  -7.4525  -6.4573

     occupation numbers 
     1.0000   1.0000   1.0000   1.0000   1.0000   1.0000   1.0000   1.0000
     1.0000   1.0000   1.0000   1.0000   1.0000   1.0000   1.0000   1.0000
     1.0000   1.0000   1.0000   1.0000   1.0000

          k =-0.0714 0.1237 0.0000 ( 11449 PWs)   bands (ev):

   -77.8487 -49.0879 -49.0518 -49.0398 -24.6121 -24.5432 -21.8356 -20.5369
   -14.0638 -11.5946 -10.3425 -10.2772  -9.5649  -9.4641  -9.3602  -9.2530
    -8.7207  -8.0370  -7.9238  -7.4185  -5.7077

     occupation numbers 
     1.0000   1.0000   1.0000   1.0000   1.0000   1.0000   1.0000   1.0000
     1.0000   1.0000   1.0000   1.0000   1.0000   1.0000   1.0000   1.0000
     1.0000   1.0000   1.0000   1.0000   1.0000

          k = 0.1429-0.0000 0.0000 ( 11449 PWs)   bands (ev):

   -77.8487 -49.0879 -49.0518 -49.0398 -24.6121 -24.5432 -21.8356 -20.5369
   -14.0638 -11.5946 -10.3425 -10.2772  -9.5649  -9.4641  -9.3602  -9.2530
    -8.7207  -8.0370  -7.9238  -7.4185  -5.7077

     occupation numbers 
     1.0000   1.0000   1.0000   1.0000   1.0000   1.0000   1.0000   1.0000
     1.0000   1.0000   1.0000   1.0000   1.0000   1.0000   1.0000   1.0000
     1.0000   1.0000   1.0000   1.0000   1.0000

          k =-0.0714 0.2062 0.0000 ( 11457 PWs)   bands (ev):

   -77.8410 -49.1427 -49.0662 -49.0292 -24.2540 -24.1906 -21.5695 -20.3912
   -13.8182 -11.5931 -11.3158 -11.2489 -10.0343  -9.8257  -9.6170  -9.1970
    -8.5270  -8.4041  -8.1744  -7.5084  -6.0046

     occupation numbers 
     1.0000   1.0000   1.0000   1.0000   1.0000   1.0000   1.0000   1.0000
     1.0000   1.0000   1.0000   1.0000   1.0000   1.0000   1.0000   1.0000
     1.0000   1.0000   1.0000   1.0000   1.0000

          k =-0.1429 0.1650 0.0000 ( 11457 PWs)   bands (ev):

   -77.8410 -49.1427 -49.0662 -49.0292 -24.2540 -24.1906 -21.5695 -20.3912
   -13.8183 -11.5931 -11.3158 -11.2489 -10.0343  -9.8256  -9.6170  -9.1970
    -8.5269  -8.4038  -8.1747  -7.5085  -6.0046

     occupation numbers 
     1.0000   1.0000   1.0000   1.0000   1.0000   1.0000   1.0000   1.0000
     1.0000   1.0000   1.0000   1.0000   1.0000   1.0000   1.0000   1.0000
     1.0000   1.0000   1.0000   1.0000   1.0000

          k = 0.2143 0.0412 0.0000 ( 11457 PWs)   bands (ev):

   -77.8410 -49.1427 -49.0662 -49.0292 -24.2540 -24.1906 -21.5695 -20.3912
   -13.8182 -11.5931 -11.3158 -11.2489 -10.0344  -9.8257  -9.6170  -9.1970
    -8.5270  -8.4041  -8.1744  -7.5084  -6.0046

     occupation numbers 
     1.0000   1.0000   1.0000   1.0000   1.0000   1.0000   1.0000   1.0000
     1.0000   1.0000   1.0000   1.0000   1.0000   1.0000   1.0000   1.0000
     1.0000   1.0000   1.0000   1.0000   1.0000

          k =-0.1429-0.1650 0.0000 ( 11457 PWs)   bands (ev):

   -77.8410 -49.1427 -49.0662 -49.0292 -24.2540 -24.1906 -21.5695 -20.3912
   -13.8182 -11.5931 -11.3157 -11.2489 -10.0342  -9.8258  -9.6170  -9.1970
    -8.5270  -8.4039  -8.1749  -7.5082  -6.0047

     occupation numbers 
     1.0000   1.0000   1.0000   1.0000   1.0000   1.0000   1.0000   1.0000
     1.0000   1.0000   1.0000   1.0000   1.0000   1.0000   1.0000   1.0000
     1.0000   1.0000   1.0000   1.0000   1.0000

          k = 0.2143-0.0412 0.0000 ( 11457 PWs)   bands (ev):

   -77.8410 -49.1427 -49.0662 -49.0292 -24.2540 -24.1906 -21.5695 -20.3912
   -13.8183 -11.5931 -11.3158 -11.2489 -10.0343  -9.8256  -9.6170  -9.1970
    -8.5269  -8.4038  -8.1747  -7.5085  -6.0046

     occupation numbers 
     1.0000   1.0000   1.0000   1.0000   1.0000   1.0000   1.0000   1.0000
     1.0000   1.0000   1.0000   1.0000   1.0000   1.0000   1.0000   1.0000
     1.0000   1.0000   1.0000   1.0000   1.0000

          k =-0.0714 0.2887 0.0000 ( 11441 PWs)   bands (ev):

   -77.8314 -49.2105 -49.0842 -49.0161 -23.7437 -23.6880 -21.2265 -20.2098
   -13.6673 -12.6756 -12.3386 -11.2828 -10.5355 -10.2365 -10.0434  -9.0404
    -8.9127  -8.3524  -8.2255  -7.7111  -6.3255

     occupation numbers 
     1.0000   1.0000   1.0000   1.0000   1.0000   1.0000   1.0000   1.0000
     1.0000   1.0000   1.0000   1.0000   1.0000   1.0000   1.0000   1.0000
     1.0000   1.0000   1.0000   1.0000   1.0000

          k =-0.2143 0.2062 0.0000 ( 11441 PWs)   bands (ev):

   -77.8314 -49.2105 -49.0842 -49.0161 -23.7437 -23.6880 -21.2265 -20.2098
   -13.6673 -12.6757 -12.3387 -11.2827 -10.5355 -10.2364 -10.0435  -9.0404
    -8.9126  -8.3525  -8.2254  -7.7112  -6.3253

     occupation numbers 
     1.0000   1.0000   1.0000   1.0000   1.0000   1.0000   1.0000   1.0000
     1.0000   1.0000   1.0000   1.0000   1.0000   1.0000   1.0000   1.0000
     1.0000   1.0000   1.0000   1.0000   1.0000

          k = 0.2857 0.0825 0.0000 ( 11441 PWs)   bands (ev):

   -77.8314 -49.2105 -49.0842 -49.0161 -23.7437 -23.6880 -21.2265 -20.2098
   -13.6673 -12.6756 -12.3386 -11.2828 -10.5355 -10.2365 -10.0434  -9.0404
    -8.9127  -8.3524  -8.2255  -7.7111  -6.3255

     occupation numbers 
     1.0000   1.0000   1.0000   1.0000   1.0000   1.0000   1.0000   1.0000
     1.0000   1.0000   1.0000   1.0000   1.0000   1.0000   1.0000   1.0000
     1.0000   1.0000   1.0000   1.0000   1.0000

          k =-0.2143-0.2062 0.0000 ( 11441 PWs)   bands (ev):

   -77.8314 -49.2105 -49.0842 -49.0161 -23.7437 -23.6880 -21.2265 -20.2098
   -13.6672 -12.6756 -12.3386 -11.2829 -10.5354 -10.2365 -10.0435  -9.0403
    -8.9126  -8.3526  -8.2255  -7.7109  -6.3256

     occupation numbers 
     1.0000   1.0000   1.0000   1.0000   1.0000   1.0000   1.0000   1.0000
     1.0000   1.0000   1.0000   1.0000   1.0000   1.0000   1.0000   1.0000
     1.0000   1.0000   1.0000   1.0000   1.0000

          k = 0.2857-0.0825 0.0000 ( 11441 PWs)   bands (ev):

   -77.8314 -49.2105 -49.0842 -49.0161 -23.7437 -23.6880 -21.2265 -20.2098
   -13.6673 -12.6757 -12.3387 -11.2827 -10.5355 -10.2364 -10.0435  -9.0404
    -8.9126  -8.3525  -8.2254  -7.7112  -6.3253

     occupation numbers 
     1.0000   1.0000   1.0000   1.0000   1.0000   1.0000   1.0000   1.0000
     1.0000   1.0000   1.0000   1.0000   1.0000   1.0000   1.0000   1.0000
     1.0000   1.0000   1.0000   1.0000   1.0000

          k =-0.0714 0.3712 0.0000 ( 11407 PWs)   bands (ev):

   -77.8218 -49.2778 -49.1023 -49.0029 -23.1253 -23.0794 -20.8803 -20.0431
   -14.2211 -13.8863 -12.6598 -11.2859 -10.9352 -10.5915 -10.4381  -9.4643
    -8.7835  -8.5160  -8.0106  -7.8244  -6.4952

     occupation numbers 
     1.0000   1.0000   1.0000   1.0000   1.0000   1.0000   1.0000   1.0000
     1.0000   1.0000   1.0000   1.0000   1.0000   1.0000   1.0000   1.0000
     1.0000   1.0000   1.0000   1.0000   1.0000

          k =-0.2857 0.2474 0.0000 ( 11407 PWs)   bands (ev):

   -77.8218 -49.2778 -49.1022 -49.0029 -23.1253 -23.0794 -20.8803 -20.0431
   -14.2212 -13.8864 -12.6599 -11.2857 -10.9353 -10.5913 -10.4381  -9.4645
    -8.7835  -8.5161  -8.0105  -7.8245  -6.4951

     occupation numbers 
     1.0000   1.0000   1.0000   1.0000   1.0000   1.0000   1.0000   1.0000
     1.0000   1.0000   1.0000   1.0000   1.0000   1.0000   1.0000   1.0000
     1.0000   1.0000   1.0000   1.0000   1.0000

          k = 0.3571 0.1237 0.0000 ( 11407 PWs)   bands (ev):

   -77.8218 -49.2778 -49.1023 -49.0029 -23.1253 -23.0794 -20.8803 -20.0431
   -14.2211 -13.8863 -12.6598 -11.2858 -10.9352 -10.5915 -10.4381  -9.4643
    -8.7835  -8.5160  -8.0106  -7.8244  -6.4952

     occupation numbers 
     1.0000   1.0000   1.0000   1.0000   1.0000   1.0000   1.0000   1.0000
     1.0000   1.0000   1.0000   1.0000   1.0000   1.0000   1.0000   1.0000
     1.0000   1.0000   1.0000   1.0000   1.0000

          k =-0.2857-0.2474 0.0000 ( 11407 PWs)   bands (ev):

   -77.8218 -49.2778 -49.1023 -49.0029 -23.1253 -23.0794 -20.8802 -20.0431
   -14.2211 -13.8863 -12.6598 -11.2858 -10.9352 -10.5915 -10.4382  -9.4644
    -8.7835  -8.5160  -8.0104  -7.8244  -6.4953

     occupation numbers 
     1.0000   1.0000   1.0000   1.0000   1.0000   1.0000   1.0000   1.0000
     1.0000   1.0000   1.0000   1.0000   1.0000   1.0000   1.0000   1.0000
     1.0000   1.0000   1.0000   1.0000   1.0000

          k = 0.3571-0.1237 0.0000 ( 11407 PWs)   bands (ev):

   -77.8218 -49.2778 -49.1022 -49.0029 -23.1253 -23.0794 -20.8803 -20.0431
   -14.2212 -13.8864 -12.6599 -11.2857 -10.9353 -10.5913 -10.4381  -9.4645
    -8.7835  -8.5161  -8.0105  -7.8245  -6.4951

     occupation numbers 
     1.0000   1.0000   1.0000   1.0000   1.0000   1.0000   1.0000   1.0000
     1.0000   1.0000   1.0000   1.0000   1.0000   1.0000   1.0000   1.0000
     1.0000   1.0000   1.0000   1.0000   1.0000

          k =-0.0714 0.4536 0.0000 ( 11382 PWs)   bands (ev):

   -77.8141 -49.3313 -49.1167 -48.9923 -22.4891 -22.4554 -20.6303 -19.9556
   -15.1085 -14.8800 -12.5248 -11.5754 -11.1207 -10.8136 -10.7378  -9.7116
    -8.8887  -8.4458  -7.9376  -7.7281  -6.4773

     occupation numbers 
     1.0000   1.0000   1.0000   1.0000   1.0000   1.0000   1.0000   1.0000
     1.0000   1.0000   1.0000   1.0000   1.0000   1.0000   1.0000   1.0000
     1.0000   1.0000   1.0000   1.0000   1.0000

          k =-0.3571 0.2887 0.0000 ( 11382 PWs)   bands (ev):

   -77.8141 -49.3313 -49.1166 -48.9924 -22.4892 -22.4554 -20.6303 -19.9555
   -15.1086 -14.8801 -12.5249 -11.5752 -11.1207 -10.8135 -10.7377  -9.7119
    -8.8888  -8.4456  -7.9376  -7.7282  -6.4772

     occupation numbers 
     1.0000   1.0000   1.0000   1.0000   1.0000   1.0000   1.0000   1.0000
     1.0000   1.0000   1.0000   1.0000   1.0000   1.0000   1.0000   1.0000
     1.0000   1.0000   1.0000   1.0000   1.0000

          k = 0.4286 0.1650 0.0000 ( 11382 PWs)   bands (ev):

   -77.8141 -49.3313 -49.1167 -48.9923 -22.4891 -22.4554 -20.6303 -19.9556
   -15.1085 -14.8800 -12.5248 -11.5754 -11.1207 -10.8136 -10.7378  -9.7116
    -8.8887  -8.4458  -7.9376  -7.7281  -6.4773

     occupation numbers 
     1.0000   1.0000   1.0000   1.0000   1.0000   1.0000   1.0000   1.0000
     1.0000   1.0000   1.0000   1.0000   1.0000   1.0000   1.0000   1.0000
     1.0000   1.0000   1.0000   1.0000   1.0000

          k =-0.3571-0.2887 0.0000 ( 11382 PWs)   bands (ev):

   -77.8141 -49.3313 -49.1167 -48.9923 -22.4891 -22.4554 -20.6303 -19.9556
   -15.1085 -14.8800 -12.5248 -11.5753 -11.1207 -10.8136 -10.7378  -9.7119
    -8.8885  -8.4457  -7.9374  -7.7282  -6.4775

     occupation numbers 
     1.0000   1.0000   1.0000   1.0000   1.0000   1.0000   1.0000   1.0000
     1.0000   1.0000   1.0000   1.0000   1.0000   1.0000   1.0000   1.0000
     1.0000   1.0000   1.0000   1.0000   1.0000

          k = 0.4286-0.1650 0.0000 ( 11382 PWs)   bands (ev):

   -77.8141 -49.3313 -49.1166 -48.9924 -22.4892 -22.4554 -20.6303 -19.9555
   -15.1086 -14.8801 -12.5249 -11.5753 -11.1207 -10.8135 -10.7377  -9.7119
    -8.8888  -8.4456  -7.9376  -7.7281  -6.4772

     occupation numbers 
     1.0000   1.0000   1.0000   1.0000   1.0000   1.0000   1.0000   1.0000
     1.0000   1.0000   1.0000   1.0000   1.0000   1.0000   1.0000   1.0000
     1.0000   1.0000   1.0000   1.0000   1.0000

          k =-0.0714 0.5361 0.0000 ( 11347 PWs)   bands (ev):

   -77.8098 -49.3609 -49.1246 -48.9865 -22.0269 -22.0055 -20.5430 -19.9652
   -15.6687 -15.4513 -12.3986 -11.8383 -11.2504 -10.9444 -10.8732  -9.7428
    -9.0703  -8.2702  -7.8997  -7.6528  -6.4042

     occupation numbers 
     1.0000   1.0000   1.0000   1.0000   1.0000   1.0000   1.0000   1.0000
     1.0000   1.0000   1.0000   1.0000   1.0000   1.0000   1.0000   1.0000
     1.0000   1.0000   1.0000   1.0000   1.0000

          k =-0.4286 0.3299 0.0000 ( 11347 PWs)   bands (ev):

   -77.8098 -49.3609 -49.1246 -48.9865 -22.0270 -22.0055 -20.5430 -19.9651
   -15.6687 -15.4514 -12.3988 -11.8382 -11.2504 -10.9445 -10.8729  -9.7430
    -9.0703  -8.2700  -7.8998  -7.6528  -6.4041

     occupation numbers 
     1.0000   1.0000   1.0000   1.0000   1.0000   1.0000   1.0000   1.0000
     1.0000   1.0000   1.0000   1.0000   1.0000   1.0000   1.0000   1.0000
     1.0000   1.0000   1.0000   1.0000   1.0000

          k = 0.5000 0.2062 0.0000 ( 11347 PWs)   bands (ev):

   -77.8098 -49.3609 -49.1246 -48.9865 -22.0270 -22.0055 -20.5430 -19.9652
   -15.6687 -15.4513 -12.3986 -11.8383 -11.2504 -10.9444 -10.8732  -9.7428
    -9.0703  -8.2702  -7.8997  -7.6528  -6.4042

     occupation numbers 
     1.0000   1.0000   1.0000   1.0000   1.0000   1.0000   1.0000   1.0000
     1.0000   1.0000   1.0000   1.0000   1.0000   1.0000   1.0000   1.0000
     1.0000   1.0000   1.0000   1.0000   1.0000

          k =-0.4286-0.3299 0.0000 ( 11347 PWs)   bands (ev):

   -77.8098 -49.3609 -49.1246 -48.9865 -22.0269 -22.0055 -20.5430 -19.9652
   -15.6687 -15.4513 -12.3986 -11.8383 -11.2504 -10.9444 -10.8732  -9.7430
    -9.0701  -8.2702  -7.8997  -7.6528  -6.4043

     occupation numbers 
     1.0000   1.0000   1.0000   1.0000   1.0000   1.0000   1.0000   1.0000
     1.0000   1.0000   1.0000   1.0000   1.0000   1.0000   1.0000   1.0000
     1.0000   1.0000   1.0000   1.0000   1.0000

          k = 0.5000-0.2062 0.0000 ( 11347 PWs)   bands (ev):

   -77.8098 -49.3609 -49.1246 -48.9865 -22.0270 -22.0055 -20.5430 -19.9651
   -15.6687 -15.4514 -12.3988 -11.8382 -11.2504 -10.9445 -10.8729  -9.7430
    -9.0703  -8.2700  -7.8998  -7.6528  -6.4041

     occupation numbers 
     1.0000   1.0000   1.0000   1.0000   1.0000   1.0000   1.0000   1.0000
     1.0000   1.0000   1.0000   1.0000   1.0000   1.0000   1.0000   1.0000
     1.0000   1.0000   1.0000   1.0000   1.0000

          k =-0.1429 0.2474 0.0000 ( 11449 PWs)   bands (ev):

   -77.8328 -49.1958 -49.0865 -49.0180 -23.8256 -23.7687 -21.2774 -20.2349
   -13.6420 -12.3563 -12.0878 -11.2750 -10.6846 -10.4155  -9.9537  -9.0487
    -8.9489  -8.3715  -8.2095  -7.6142  -6.2848

     occupation numbers 
     1.0000   1.0000   1.0000   1.0000   1.0000   1.0000   1.0000   1.0000
     1.0000   1.0000   1.0000   1.0000   1.0000   1.0000   1.0000   1.0000
     1.0000   1.0000   1.0000   1.0000   1.0000

          k = 0.2857-0.0000 0.0000 ( 11449 PWs)   bands (ev):

   -77.8328 -49.1958 -49.0865 -49.0180 -23.8256 -23.7687 -21.2774 -20.2349
   -13.6420 -12.3563 -12.0878 -11.2750 -10.6846 -10.4155  -9.9537  -9.0487
    -8.9489  -8.3715  -8.2095  -7.6142  -6.2848

     occupation numbers 
     1.0000   1.0000   1.0000   1.0000   1.0000   1.0000   1.0000   1.0000
     1.0000   1.0000   1.0000   1.0000   1.0000   1.0000   1.0000   1.0000
     1.0000   1.0000   1.0000   1.0000   1.0000

          k =-0.1429 0.3299 0.0000 ( 11408 PWs)   bands (ev):

   -77.8237 -49.2528 -49.1106 -49.0055 -23.2688 -23.2203 -20.9477 -20.0677
   -13.8595 -13.3685 -12.5437 -11.3217 -11.1808 -10.9433 -10.3522  -9.5839
    -8.8063  -8.3566  -8.1226  -7.8232  -6.4820

     occupation numbers 
     1.0000   1.0000   1.0000   1.0000   1.0000   1.0000   1.0000   1.0000
     1.0000   1.0000   1.0000   1.0000   1.0000   1.0000   1.0000   1.0000
     1.0000   1.0000   1.0000   1.0000   1.0000

          k =-0.2143 0.2887 0.0000 ( 11408 PWs)   bands (ev):

   -77.8237 -49.2528 -49.1106 -49.0055 -23.2688 -23.2203 -20.9477 -20.0677
   -13.8596 -13.3686 -12.5438 -11.3217 -11.1808 -10.9432 -10.3522  -9.5840
    -8.8063  -8.3565  -8.1226  -7.8233  -6.4819

     occupation numbers 
     1.0000   1.0000   1.0000   1.0000   1.0000   1.0000   1.0000   1.0000
     1.0000   1.0000   1.0000   1.0000   1.0000   1.0000   1.0000   1.0000
     1.0000   1.0000   1.0000   1.0000   1.0000

          k = 0.3571 0.0412 0.0000 ( 11408 PWs)   bands (ev):

   -77.8237 -49.2528 -49.1106 -49.0055 -23.2688 -23.2203 -20.9477 -20.0677
   -13.8595 -13.3685 -12.5437 -11.3217 -11.1808 -10.9433 -10.3522  -9.5839
    -8.8063  -8.3566  -8.1226  -7.8232  -6.4820

     occupation numbers 
     1.0000   1.0000   1.0000   1.0000   1.0000   1.0000   1.0000   1.0000
     1.0000   1.0000   1.0000   1.0000   1.0000   1.0000   1.0000   1.0000
     1.0000   1.0000   1.0000   1.0000   1.0000

          k =-0.2143-0.2887 0.0000 ( 11408 PWs)   bands (ev):

   -77.8237 -49.2528 -49.1106 -49.0055 -23.2688 -23.2203 -20.9477 -20.0678
   -13.8595 -13.3685 -12.5437 -11.3217 -11.1808 -10.9433 -10.3521  -9.5839
    -8.8063  -8.3566  -8.1227  -7.8230  -6.4822

     occupation numbers 
     1.0000   1.0000   1.0000   1.0000   1.0000   1.0000   1.0000   1.0000
     1.0000   1.0000   1.0000   1.0000   1.0000   1.0000   1.0000   1.0000
     1.0000   1.0000   1.0000   1.0000   1.0000

          k = 0.3571-0.0412 0.0000 ( 11408 PWs)   bands (ev):

   -77.8237 -49.2528 -49.1106 -49.0055 -23.2688 -23.2203 -20.9477 -20.0677
   -13.8596 -13.3686 -12.5438 -11.3217 -11.1808 -10.9432 -10.3522  -9.5840
    -8.8063  -8.3565  -8.1226  -7.8233  -6.4819

     occupation numbers 
     1.0000   1.0000   1.0000   1.0000   1.0000   1.0000   1.0000   1.0000
     1.0000   1.0000   1.0000   1.0000   1.0000   1.0000   1.0000   1.0000
     1.0000   1.0000   1.0000   1.0000   1.0000

          k =-0.1429 0.4124 0.0000 ( 11401 PWs)   bands (ev):

   -77.8155 -49.3030 -49.1330 -48.9943 -22.6469 -22.6091 -20.6645 -19.9454
   -14.6045 -14.3406 -12.5014 -11.7575 -11.5263 -10.9871 -10.7521  -9.9552
    -8.7139  -8.4538  -8.1884  -7.8137  -6.4779

     occupation numbers 
     1.0000   1.0000   1.0000   1.0000   1.0000   1.0000   1.0000   1.0000
     1.0000   1.0000   1.0000   1.0000   1.0000   1.0000   1.0000   1.0000
     1.0000   1.0000   1.0000   1.0000   1.0000

          k =-0.2857 0.3299 0.0000 ( 11401 PWs)   bands (ev):

   -77.8155 -49.3030 -49.1330 -48.9943 -22.6469 -22.6091 -20.6645 -19.9453
   -14.6045 -14.3406 -12.5015 -11.7574 -11.5263 -10.9869 -10.7521  -9.9554
    -8.7139  -8.4536  -8.1884  -7.8138  -6.4779

     occupation numbers 
     1.0000   1.0000   1.0000   1.0000   1.0000   1.0000   1.0000   1.0000
     1.0000   1.0000   1.0000   1.0000   1.0000   1.0000   1.0000   1.0000
     1.0000   1.0000   1.0000   1.0000   1.0000

          k = 0.4286 0.0825 0.0000 ( 11401 PWs)   bands (ev):

   -77.8155 -49.3030 -49.1330 -48.9943 -22.6469 -22.6091 -20.6645 -19.9454
   -14.6045 -14.3406 -12.5014 -11.7575 -11.5263 -10.9871 -10.7521  -9.9552
    -8.7139  -8.4538  -8.1884  -7.8137  -6.4779

     occupation numbers 
     1.0000   1.0000   1.0000   1.0000   1.0000   1.0000   1.0000   1.0000
     1.0000   1.0000   1.0000   1.0000   1.0000   1.0000   1.0000   1.0000
     1.0000   1.0000   1.0000   1.0000   1.0000

          k =-0.2857-0.3299 0.0000 ( 11401 PWs)   bands (ev):

   -77.8155 -49.3030 -49.1330 -48.9943 -22.6469 -22.6091 -20.6645 -19.9454
   -14.6045 -14.3405 -12.5014 -11.7574 -11.5263 -10.9870 -10.7521  -9.9554
    -8.7138  -8.4536  -8.1883  -7.8139  -6.4781

     occupation numbers 
     1.0000   1.0000   1.0000   1.0000   1.0000   1.0000   1.0000   1.0000
     1.0000   1.0000   1.0000   1.0000   1.0000   1.0000   1.0000   1.0000
     1.0000   1.0000   1.0000   1.0000   1.0000

          k = 0.4286-0.0825 0.0000 ( 11401 PWs)   bands (ev):

   -77.8155 -49.3030 -49.1330 -48.9943 -22.6469 -22.6091 -20.6645 -19.9453
   -14.6045 -14.3406 -12.5015 -11.7574 -11.5263 -10.9869 -10.7521  -9.9554
    -8.7139  -8.4536  -8.1884  -7.8138  -6.4779

     occupation numbers 
     1.0000   1.0000   1.0000   1.0000   1.0000   1.0000   1.0000   1.0000
     1.0000   1.0000   1.0000   1.0000   1.0000   1.0000   1.0000   1.0000
     1.0000   1.0000   1.0000   1.0000   1.0000

          k =-0.1429 0.4949 0.0000 ( 11333 PWs)   bands (ev):

   -77.8098 -49.3375 -49.1486 -48.9865 -22.0899 -22.0647 -20.5142 -19.9152
   -15.2819 -15.0606 -12.4118 -12.0243 -11.6936 -11.1810 -11.0624  -9.9523
    -8.9566  -8.4311  -8.1848  -7.7048  -6.3477

     occupation numbers 
     1.0000   1.0000   1.0000   1.0000   1.0000   1.0000   1.0000   1.0000
     1.0000   1.0000   1.0000   1.0000   1.0000   1.0000   1.0000   1.0000
     1.0000   1.0000   1.0000   1.0000   1.0000

          k =-0.3571 0.3712 0.0000 ( 11333 PWs)   bands (ev):

   -77.8098 -49.3375 -49.1486 -48.9865 -22.0899 -22.0647 -20.5142 -19.9151
   -15.2820 -15.0607 -12.4119 -12.0241 -11.6937 -11.1810 -11.0622  -9.9526
    -8.9564  -8.4310  -8.1848  -7.7050  -6.3477

     occupation numbers 
     1.0000   1.0000   1.0000   1.0000   1.0000   1.0000   1.0000   1.0000
     1.0000   1.0000   1.0000   1.0000   1.0000   1.0000   1.0000   1.0000
     1.0000   1.0000   1.0000   1.0000   1.0000

          k = 0.5000 0.1237 0.0000 ( 11333 PWs)   bands (ev):

   -77.8098 -49.3375 -49.1486 -48.9865 -22.0899 -22.0647 -20.5142 -19.9152
   -15.2819 -15.0606 -12.4118 -12.0243 -11.6936 -11.1810 -11.0624  -9.9523
    -8.9566  -8.4311  -8.1848  -7.7048  -6.3477

     occupation numbers 
     1.0000   1.0000   1.0000   1.0000   1.0000   1.0000   1.0000   1.0000
     1.0000   1.0000   1.0000   1.0000   1.0000   1.0000   1.0000   1.0000
     1.0000   1.0000   1.0000   1.0000   1.0000

          k =-0.3571-0.3712 0.0000 ( 11333 PWs)   bands (ev):

   -77.8098 -49.3375 -49.1486 -48.9865 -22.0899 -22.0647 -20.5142 -19.9153
   -15.2819 -15.0606 -12.4118 -12.0242 -11.6936 -11.1810 -11.0623  -9.9527
    -8.9563  -8.4310  -8.1848  -7.7050  -6.3478

     occupation numbers 
     1.0000   1.0000   1.0000   1.0000   1.0000   1.0000   1.0000   1.0000
     1.0000   1.0000   1.0000   1.0000   1.0000   1.0000   1.0000   1.0000
     1.0000   1.0000   1.0000   1.0000   1.0000

          k = 0.5000-0.1237 0.0000 ( 11333 PWs)   bands (ev):

   -77.8098 -49.3375 -49.1486 -48.9865 -22.0899 -22.0647 -20.5142 -19.9151
   -15.2820 -15.0607 -12.4119 -12.0241 -11.6937 -11.1810 -11.0622  -9.9526
    -8.9564  -8.4310  -8.1848  -7.7050  -6.3477

     occupation numbers 
     1.0000   1.0000   1.0000   1.0000   1.0000   1.0000   1.0000   1.0000
     1.0000   1.0000   1.0000   1.0000   1.0000   1.0000   1.0000   1.0000
     1.0000   1.0000   1.0000   1.0000   1.0000

          k =-0.4286 0.4124 0.0000 ( 11300 PWs)   bands (ev):

   -77.8078 -49.3497 -49.1542 -48.9837 -21.8429 -21.8242 -20.4896 -19.9328
   -15.5469 -15.3295 -12.3969 -12.1114 -11.6222 -11.4358 -11.1497  -9.8419
    -9.1518  -8.4042  -8.1397  -7.6618  -6.2726

     occupation numbers 
     1.0000   1.0000   1.0000   1.0000   1.0000   1.0000   1.0000   1.0000
     1.0000   1.0000   1.0000   1.0000   1.0000   1.0000   1.0000   1.0000
     1.0000   1.0000   1.0000   1.0000   1.0000

          k = 0.5714 0.1650 0.0000 ( 11300 PWs)   bands (ev):

   -77.8078 -49.3497 -49.1543 -48.9837 -21.8429 -21.8242 -20.4896 -19.9329
   -15.5468 -15.3294 -12.3968 -12.1115 -11.6221 -11.4360 -11.1498  -9.8417
    -9.1519  -8.4043  -8.1397  -7.6618  -6.2727

     occupation numbers 
     1.0000   1.0000   1.0000   1.0000   1.0000   1.0000   1.0000   1.0000
     1.0000   1.0000   1.0000   1.0000   1.0000   1.0000   1.0000   1.0000
     1.0000   1.0000   1.0000   1.0000   1.0000

          k =-0.2143 0.3712 0.0000 ( 11383 PWs)   bands (ev):

   -77.8160 -49.2886 -49.1433 -48.9950 -22.7031 -22.6640 -20.6780 -19.9418
   -14.3323 -14.0236 -12.4376 -12.0445 -11.9189 -10.9441 -10.6123 -10.1005
    -8.7106  -8.5615  -8.1037  -7.8978  -6.4835

     occupation numbers 
     1.0000   1.0000   1.0000   1.0000   1.0000   1.0000   1.0000   1.0000
     1.0000   1.0000   1.0000   1.0000   1.0000   1.0000   1.0000   1.0000
     1.0000   1.0000   1.0000   1.0000   1.0000

          k = 0.4286-0.0000 0.0000 ( 11383 PWs)   bands (ev):

   -77.8160 -49.2886 -49.1433 -48.9950 -22.7031 -22.6640 -20.6780 -19.9418
   -14.3323 -14.0236 -12.4376 -12.0445 -11.9189 -10.9441 -10.6123 -10.1005
    -8.7106  -8.5615  -8.1037  -7.8978  -6.4835

     occupation numbers 
     1.0000   1.0000   1.0000   1.0000   1.0000   1.0000   1.0000   1.0000
     1.0000   1.0000   1.0000   1.0000   1.0000   1.0000   1.0000   1.0000
     1.0000   1.0000   1.0000   1.0000   1.0000

          k =-0.2143 0.4536 0.0000 ( 11344 PWs)   bands (ev):

   -77.8099 -49.3131 -49.1735 -48.9865 -22.1372 -22.1093 -20.4948 -19.8785
   -14.8420 -14.5968 -12.7224 -12.5569 -12.0886 -11.0498 -10.8661 -10.1921
    -9.0011  -8.7078  -8.2204  -7.7118  -6.3286

     occupation numbers 
     1.0000   1.0000   1.0000   1.0000   1.0000   1.0000   1.0000   1.0000
     1.0000   1.0000   1.0000   1.0000   1.0000   1.0000   1.0000   1.0000
     1.0000   1.0000   1.0000   1.0000   1.0000

          k =-0.2857 0.4124 0.0000 ( 11344 PWs)   bands (ev):

   -77.8099 -49.3131 -49.1735 -48.9865 -22.1372 -22.1093 -20.4948 -19.8784
   -14.8421 -14.5968 -12.7224 -12.5569 -12.0886 -11.0497 -10.8661 -10.1923
    -9.0010  -8.7077  -8.2204  -7.7119  -6.3286

     occupation numbers 
     1.0000   1.0000   1.0000   1.0000   1.0000   1.0000   1.0000   1.0000
     1.0000   1.0000   1.0000   1.0000   1.0000   1.0000   1.0000   1.0000
     1.0000   1.0000   1.0000   1.0000   1.0000

          k = 0.5000 0.0412 0.0000 ( 11344 PWs)   bands (ev):

   -77.8099 -49.3131 -49.1735 -48.9865 -22.1372 -22.1093 -20.4948 -19.8785
   -14.8420 -14.5968 -12.7224 -12.5569 -12.0886 -11.0498 -10.8661 -10.1921
    -9.0011  -8.7078  -8.2204  -7.7118  -6.3286

     occupation numbers 
     1.0000   1.0000   1.0000   1.0000   1.0000   1.0000   1.0000   1.0000
     1.0000   1.0000   1.0000   1.0000   1.0000   1.0000   1.0000   1.0000
     1.0000   1.0000   1.0000   1.0000   1.0000

          k =-0.2857-0.4124 0.0000 ( 11344 PWs)   bands (ev):

   -77.8099 -49.3131 -49.1735 -48.9865 -22.1372 -22.1093 -20.4948 -19.8785
   -14.8420 -14.5967 -12.7224 -12.5570 -12.0885 -11.0496 -10.8661 -10.1925
    -9.0010  -8.7077  -8.2202  -7.7120  -6.3288

     occupation numbers 
     1.0000   1.0000   1.0000   1.0000   1.0000   1.0000   1.0000   1.0000
     1.0000   1.0000   1.0000   1.0000   1.0000   1.0000   1.0000   1.0000
     1.0000   1.0000   1.0000   1.0000   1.0000

          k = 0.5000-0.0412 0.0000 ( 11344 PWs)   bands (ev):

   -77.8099 -49.3131 -49.1735 -48.9865 -22.1372 -22.1093 -20.4948 -19.8784
   -14.8421 -14.5968 -12.7224 -12.5569 -12.0886 -11.0497 -10.8661 -10.1923
    -9.0010  -8.7077  -8.2204  -7.7119  -6.3286

     occupation numbers 
     1.0000   1.0000   1.0000   1.0000   1.0000   1.0000   1.0000   1.0000
     1.0000   1.0000   1.0000   1.0000   1.0000   1.0000   1.0000   1.0000
     1.0000   1.0000   1.0000   1.0000   1.0000

          k =-0.2143 0.5361 0.0000 ( 11355 PWs)   bands (ev):

   -77.8064 -49.3250 -49.1919 -48.9818 -21.7423 -21.7233 -20.4358 -19.8836
   -15.1828 -14.9576 -13.0163 -12.8716 -11.7813 -11.2891 -11.1612  -9.9319
    -9.3196  -8.9424  -8.1407  -7.5852  -6.1668

     occupation numbers 
     1.0000   1.0000   1.0000   1.0000   1.0000   1.0000   1.0000   1.0000
     1.0000   1.0000   1.0000   1.0000   1.0000   1.0000   1.0000   1.0000
     1.0000   1.0000   1.0000   1.0000   1.0000

          k =-0.3571 0.4536 0.0000 ( 11355 PWs)   bands (ev):

   -77.8064 -49.3250 -49.1919 -48.9818 -21.7424 -21.7233 -20.4358 -19.8835
   -15.1829 -14.9577 -13.0163 -12.8716 -11.7814 -11.2891 -11.1612  -9.9322
    -9.3194  -8.9424  -8.1407  -7.5853  -6.1668

     occupation numbers 
     1.0000   1.0000   1.0000   1.0000   1.0000   1.0000   1.0000   1.0000
     1.0000   1.0000   1.0000   1.0000   1.0000   1.0000   1.0000   1.0000
     1.0000   1.0000   1.0000   1.0000   1.0000

          k = 0.5714 0.0825 0.0000 ( 11355 PWs)   bands (ev):

   -77.8064 -49.3250 -49.1919 -48.9818 -21.7424 -21.7233 -20.4358 -19.8836
   -15.1828 -14.9576 -13.0163 -12.8716 -11.7813 -11.2891 -11.1612  -9.9320
    -9.3196  -8.9424  -8.1407  -7.5852  -6.1668

     occupation numbers 
     1.0000   1.0000   1.0000   1.0000   1.0000   1.0000   1.0000   1.0000
     1.0000   1.0000   1.0000   1.0000   1.0000   1.0000   1.0000   1.0000
     1.0000   1.0000   1.0000   1.0000   1.0000

          k =-0.3571-0.4536 0.0000 ( 11355 PWs)   bands (ev):

   -77.8064 -49.3250 -49.1919 -48.9818 -21.7423 -21.7233 -20.4358 -19.8836
   -15.1828 -14.9576 -13.0163 -12.8717 -11.7813 -11.2890 -11.1612  -9.9322
    -9.3195  -8.9424  -8.1406  -7.5853  -6.1669

     occupation numbers 
     1.0000   1.0000   1.0000   1.0000   1.0000   1.0000   1.0000   1.0000
     1.0000   1.0000   1.0000   1.0000   1.0000   1.0000   1.0000   1.0000
     1.0000   1.0000   1.0000   1.0000   1.0000

          k = 0.5714-0.0825 0.0000 ( 11355 PWs)   bands (ev):

   -77.8064 -49.3250 -49.1919 -48.9818 -21.7424 -21.7233 -20.4358 -19.8835
   -15.1829 -14.9577 -13.0163 -12.8716 -11.7814 -11.2891 -11.1612  -9.9322
    -9.3194  -8.9424  -8.1407  -7.5853  -6.1668

     occupation numbers 
     1.0000   1.0000   1.0000   1.0000   1.0000   1.0000   1.0000   1.0000
     1.0000   1.0000   1.0000   1.0000   1.0000   1.0000   1.0000   1.0000
     1.0000   1.0000   1.0000   1.0000   1.0000

          k =-0.2857 0.4949 0.0000 ( 11340 PWs)   bands (ev):

   -77.8059 -49.3076 -49.2140 -48.9811 -21.7131 -21.6936 -20.4121 -19.8594
   -14.8883 -14.6378 -13.4872 -13.3631 -11.7926 -11.2638 -10.8904 -10.0589
    -9.6055  -8.9966  -8.1509  -7.5639  -6.1239

     occupation numbers 
     1.0000   1.0000   1.0000   1.0000   1.0000   1.0000   1.0000   1.0000
     1.0000   1.0000   1.0000   1.0000   1.0000   1.0000   1.0000   1.0000
     1.0000   1.0000   1.0000   1.0000   1.0000

          k = 0.5714-0.0000 0.0000 ( 11340 PWs)   bands (ev):

   -77.8059 -49.3076 -49.2140 -48.9811 -21.7131 -21.6936 -20.4121 -19.8594
   -14.8883 -14.6379 -13.4872 -13.3631 -11.7926 -11.2638 -10.8904 -10.0589
    -9.6055  -8.9966  -8.1509  -7.5639  -6.1239

     occupation numbers 
     1.0000   1.0000   1.0000   1.0000   1.0000   1.0000   1.0000   1.0000
     1.0000   1.0000   1.0000   1.0000   1.0000   1.0000   1.0000   1.0000
     1.0000   1.0000   1.0000   1.0000   1.0000

          k =-0.3571 0.5361 0.0000 ( 11346 PWs)   bands (ev):

   -77.8045 -49.2991 -49.2350 -48.9792 -21.5404 -21.5207 -20.3979 -19.8634
   -14.8401 -14.5773 -13.8320 -13.7445 -11.5692 -11.3807 -10.8978 -10.1082
    -9.6747  -9.2486  -8.1019  -7.5010  -6.0163

     occupation numbers 
     1.0000   1.0000   1.0000   1.0000   1.0000   1.0000   1.0000   1.0000
     1.0000   1.0000   1.0000   1.0000   1.0000   1.0000   1.0000   1.0000
     1.0000   1.0000   1.0000   1.0000   1.0000

          k = 0.6429 0.0412 0.0000 ( 11346 PWs)   bands (ev):

   -77.8045 -49.2991 -49.2350 -48.9792 -21.5404 -21.5207 -20.3979 -19.8635
   -14.8401 -14.5773 -13.8321 -13.7446 -11.5692 -11.3806 -10.8977 -10.1082
    -9.6747  -9.2487  -8.1019  -7.5010  -6.0163

     occupation numbers 
     1.0000   1.0000   1.0000   1.0000   1.0000   1.0000   1.0000   1.0000
     1.0000   1.0000   1.0000   1.0000   1.0000   1.0000   1.0000   1.0000
     1.0000   1.0000   1.0000   1.0000   1.0000

     highest occupied level (ev):    -5.5010

     Writing all to output data dir ./tmp/crsi2n4.save/ :
     XML data file, pseudopotentials, collected wavefunctions
 
     init_run     :      1.06s CPU      1.13s WALL (       1 calls)
     electrons    :    192.40s CPU    193.68s WALL (       1 calls)

     Called by init_run:
     wfcinit      :      0.00s CPU      0.00s WALL (       1 calls)
     wfcinit:atom :      0.08s CPU      0.09s WALL (     100 calls)
     wfcinit:wfcr :      3.55s CPU      3.61s WALL (     100 calls)
     potinit      :      0.59s CPU      0.63s WALL (       1 calls)
     hinit0       :      0.29s CPU      0.30s WALL (       1 calls)

     Called by electrons:
     c_bands      :    192.40s CPU    193.67s WALL (       1 calls)
     v_of_rho     :      0.02s CPU      0.06s WALL (       1 calls)
     v_h          :      0.00s CPU      0.01s WALL (       1 calls)
     v_xc         :      0.02s CPU      0.05s WALL (       1 calls)

     Called by c_bands:
     init_us_2    :      0.05s CPU      0.07s WALL (     100 calls)
     cegterg      :    188.40s CPU    189.47s WALL (     521 calls)

     Called by sum_band:

     Called by *egterg:
     cdiaghg      :     25.00s CPU     25.21s WALL (    9570 calls)
                                       25.14s GPU  (    9570 calls)
     cegterg:over :     31.86s CPU     31.94s WALL (    9470 calls)
     cegterg:upda :     10.51s CPU     10.56s WALL (    9470 calls)
     cegterg:last :     14.47s CPU     14.51s WALL (    7720 calls)
     h_psi        :    104.04s CPU    105.00s WALL (   10091 calls)
                                      104.95s GPU  (   10091 calls)
     g_psi        :      0.09s CPU      1.20s WALL (    9470 calls)
                                        1.15s GPU  (    9470 calls)

     Called by h_psi:
     h_psi:calbec :      0.84s CPU     15.72s WALL (   10091 calls)
                                       15.64s GPU  (   10091 calls)
     vloc_psi     :     73.98s CPU     74.83s WALL (   10091 calls)
                                       74.77s GPU  (   10091 calls)
     add_vuspsi   :      3.05s CPU     13.53s WALL (   10091 calls)
                                       13.46s GPU  (   10091 calls)

     General routines
     calbec       :      0.79s CPU      0.84s WALL (   10091 calls)
     fft          :      0.33s CPU      0.33s WALL (      11 calls)
                                        0.01s GPU  (      10 calls)
     ffts         :      0.23s CPU      0.23s WALL (       1 calls)
     fftw         :      0.91s CPU     63.33s WALL (   28726 calls)
                                       63.17s GPU  (   28726 calls)
     interpolate  :      0.56s CPU      0.56s WALL (       1 calls)
     davcio       :      0.03s CPU      0.20s WALL (     200 calls)
 
     Parallel routines
 
     PWSCF        :   3m13.85s CPU   3m15.50s WALL

 
   This run was terminated on:   1:51:29  13Mar2026            

=------------------------------------------------------------------------------=
   JOB DONE.
=------------------------------------------------------------------------------=
