
     Program PWSCF v.7.3.1 starts on 22Apr2025 at 20:21:39 

     This program is part of the open-source Quantum ESPRESSO suite
     for quantum simulation of materials; please cite
         "P. Giannozzi et al., J. Phys.:Condens. Matter 21 395502 (2009);
         "P. Giannozzi et al., J. Phys.:Condens. Matter 29 465901 (2017);
         "P. Giannozzi et al., J. Chem. Phys. 152 154105 (2020);
          URL http://www.quantum-espresso.org", 
     in publications or presentations arising from this work. More details at
     http://www.quantum-espresso.org/quote

     Parallel version (MPI), running on     4 processors

     MPI processes distributed on     1 nodes
     18392 MiB available memory on the printing compute node when the environment starts

     Waiting for input...
     Reading input from standard input

     Current dimensions of program PWSCF are:
     Max number of different atomic species (ntypx) = 10
     Max number of k-points (npk) =  40000
     Max angular momentum in pseudopotentials (lmaxx) =  4

     gamma-point specific algorithms are used
     Message from routine setup:
     using ibrav=0 with symmetry is DISCOURAGED, use correct ibrav instead

     R & G space division:  proc/nbgrp/npool/nimage =       4
     Subspace diagonalization in iterative solution of the eigenvalue problem:
     a serial algorithm will be used


     Parallelization info
     --------------------
     sticks:   dense  smooth     PW     G-vecs:    dense   smooth      PW
     Min       12790   10232   2556              2176002  1556778  194608
     Max       12792   10240   2558              2176012  1556780  194611
     Sum       51165   40945  10229              8704035  6227117  778439

     Using Slab Decomposition



     bravais-lattice index     =            0
     lattice parameter (alat)  =      56.6918  a.u.
     unit-cell volume          =  182205.0314 (a.u.)^3
     number of atoms/cell      =            1
     number of atomic types    =            1
     number of electrons       =        14.00
     number of Kohn-Sham states=           11
     kinetic-energy cutoff     =      40.0000  Ry
     charge density cutoff     =     200.0000  Ry
     scf convergence threshold =      1.0E-08
     mixing beta               =       0.4000
     number of iterations used =            8  plain     mixing
     Exchange-correlation=  SLA  PW   PBE  PBE
                           (   1   4   3   4   0   0   0)

     celldm(1)=  56.691784  celldm(2)=   0.000000  celldm(3)=   0.000000
     celldm(4)=   0.000000  celldm(5)=   0.000000  celldm(6)=   0.000000

     crystal axes: (cart. coord. in units of alat)
               a(1) = (   1.000000   0.000000   0.000000 )  
               a(2) = (   0.000000   1.000000   0.000000 )  
               a(3) = (   0.000000   0.000000   1.000000 )  

     reciprocal axes: (cart. coord. in units 2 pi/alat)
               b(1) = (  1.000000  0.000000  0.000000 )  
               b(2) = (  0.000000  1.000000  0.000000 )  
               b(3) = (  0.000000  0.000000  1.000000 )  


     PseudoPot. # 1 for Cr read from file:
     ./../../pseudopot/Cr.pbe-sp-van.UPF
     MD5 check sum: f224dbc5cf7349f5e13364cddda74b33
     Pseudo is Ultrasoft, Zval = 14.0
     Generated by new atomic code, or converted to UPF format
     Using radial grid of  875 points,  6 beta functions with: 
                l(1) =   0
                l(2) =   0
                l(3) =   1
                l(4) =   1
                l(5) =   2
                l(6) =   2
     Q(r) pseudized with  8 coefficients,  rinner =    1.000   1.000   1.000
                                                       1.000   1.000

     atomic species   valence    mass     pseudopotential
     Cr               14.00    51.99610     Cr( 1.00)

     Starting magnetic structure 
     atomic species   magnetization
     Cr              0.100

     48 Sym. Ops., with inversion, found



   Cartesian axes

     site n.     atom                  positions (alat units)
         1        Cr     tau(   1) = (   0.5000000   0.5000000   0.5000000  )

     number of k points=     1  Gaussian smearing, width (Ry)=  0.0100
                       cart. coord. in units 2pi/alat
        k(    1) = (   0.0000000   0.0000000   0.0000000), wk =   1.0000000

     Dense  grid:  4352018 G-vectors     FFT dimensions: ( 256, 256, 256)

     Smooth grid:  3113559 G-vectors     FFT dimensions: ( 240, 240, 240)

     Estimated max dynamical RAM per process >       4.32 GB

     Estimated total dynamical RAM >      17.30 GB
     Generating pointlists ...
     new r_m :   0.4125 (alat units) 23.3854 (a.u.) for type    1

     Initial potential from superposition of free atoms

     starting charge      13.9987, renormalised to      14.0000

     negative rho (up, down):  2.120E-02 1.735E-02
     constraint energy (Ry) =      1.68999858
     Starting wfcs are   13 randomized atomic wfcs

     total cpu time spent up to now is       16.4 secs

     Self-consistent Calculation

     iteration #  1     ecut=    40.00 Ry     beta= 0.40
     Davidson diagonalization with overlap
     ethr =  1.00E-02,  avg # of iterations =  2.0

     negative rho (up, down):  1.873E-02 1.653E-02
     constraint energy (Ry) =      5.43375339

     total cpu time spent up to now is       45.7 secs

     total energy              =    -173.44038703 Ry
     estimated scf accuracy    <       0.30414422 Ry

     total magnetization       =     3.98 Bohr mag/cell
     absolute magnetization    =     3.98 Bohr mag/cell
     lambda                    =       1.00 Ry

     iteration #  2     ecut=    40.00 Ry     beta= 0.40
     Davidson diagonalization with overlap
     ethr =  2.17E-03,  avg # of iterations =  3.5

     negative rho (up, down):  1.715E-02 1.764E-02
     constraint energy (Ry) =      6.32289179

     total cpu time spent up to now is       76.4 secs

     total energy              =    -173.44336344 Ry
     estimated scf accuracy    <       1.40425225 Ry

     total magnetization       =     4.00 Bohr mag/cell
     absolute magnetization    =     4.02 Bohr mag/cell
     lambda                    =       1.00 Ry

     iteration #  3     ecut=    40.00 Ry     beta= 0.40
     Davidson diagonalization with overlap
     ethr =  2.17E-03,  avg # of iterations =  2.0

     negative rho (up, down):  1.626E-02 1.637E-02
     constraint energy (Ry) =      6.35869577

     total cpu time spent up to now is      105.5 secs

     total energy              =    -173.55809149 Ry
     estimated scf accuracy    <       0.11604368 Ry

     total magnetization       =     4.00 Bohr mag/cell
     absolute magnetization    =     4.42 Bohr mag/cell
     lambda                    =       1.00 Ry

     iteration #  4     ecut=    40.00 Ry     beta= 0.40
     Davidson diagonalization with overlap
     ethr =  8.29E-04,  avg # of iterations =  1.0

     negative rho (up, down):  1.615E-02 1.658E-02
     constraint energy (Ry) =      5.26751500

     total cpu time spent up to now is      133.5 secs

     total energy              =    -173.53388658 Ry
     estimated scf accuracy    <       0.09469425 Ry

     total magnetization       =     4.00 Bohr mag/cell
     absolute magnetization    =     4.41 Bohr mag/cell
     lambda                    =       1.00 Ry

     iteration #  5     ecut=    40.00 Ry     beta= 0.40
     Davidson diagonalization with overlap
     ethr =  6.76E-04,  avg # of iterations =  1.0

     negative rho (up, down):  1.903E-02 2.369E-02
     constraint energy (Ry) =     14.64963355

     total cpu time spent up to now is      161.4 secs

     total energy              =    -173.53243527 Ry
     estimated scf accuracy    <       0.41658340 Ry

     total magnetization       =     3.95 Bohr mag/cell
     absolute magnetization    =     4.45 Bohr mag/cell
     lambda                    =       1.00 Ry

     iteration #  6     ecut=    40.00 Ry     beta= 0.40
     Davidson diagonalization with overlap
     ethr =  6.76E-04,  avg # of iterations =  5.5

     negative rho (up, down):  2.010E-02 1.738E-02
     constraint energy (Ry) =     12.99710040

     total cpu time spent up to now is      195.8 secs

     total energy              =    -173.71203713 Ry
     estimated scf accuracy    <       1.95156029 Ry

     total magnetization       =     2.08 Bohr mag/cell
     absolute magnetization    =     3.46 Bohr mag/cell
     lambda                    =       1.00 Ry

     iteration #  7     ecut=    40.00 Ry     beta= 0.40
     Davidson diagonalization with overlap
     ethr =  6.76E-04,  avg # of iterations =  1.0

     negative rho (up, down):  1.838E-02 1.533E-02
     constraint energy (Ry) =     13.34258072

     total cpu time spent up to now is      224.0 secs

     total energy              =    -173.73994559 Ry
     estimated scf accuracy    <       0.58042977 Ry

     total magnetization       =     4.00 Bohr mag/cell
     absolute magnetization    =     4.01 Bohr mag/cell
     lambda                    =       1.00 Ry

     iteration #  8     ecut=    40.00 Ry     beta= 0.40
     Davidson diagonalization with overlap
     ethr =  6.76E-04,  avg # of iterations =  1.0

     negative rho (up, down):  1.701E-02 1.436E-02
     constraint energy (Ry) =     13.19403226

     total cpu time spent up to now is      252.3 secs

     total energy              =    -173.73189272 Ry
     estimated scf accuracy    <       0.51066360 Ry

     total magnetization       =     4.00 Bohr mag/cell
     absolute magnetization    =     4.01 Bohr mag/cell
     lambda                    =       1.00 Ry

     iteration #  9     ecut=    40.00 Ry     beta= 0.40
     Davidson diagonalization with overlap
     ethr =  6.76E-04,  avg # of iterations =  1.0

     negative rho (up, down):  1.624E-02 1.434E-02
     constraint energy (Ry) =     13.82888518

     total cpu time spent up to now is      280.7 secs

     total energy              =    -173.73531768 Ry
     estimated scf accuracy    <       0.43976777 Ry

     total magnetization       =     4.00 Bohr mag/cell
     absolute magnetization    =     4.01 Bohr mag/cell
     lambda                    =       1.00 Ry

     iteration # 10     ecut=    40.00 Ry     beta= 0.40
     Davidson diagonalization with overlap
     ethr =  6.76E-04,  avg # of iterations =  1.0

     negative rho (up, down):  1.606E-02 1.465E-02
     constraint energy (Ry) =     13.72305684

     total cpu time spent up to now is      309.0 secs

     total energy              =    -173.73563411 Ry
     estimated scf accuracy    <       0.40925009 Ry

     total magnetization       =     4.00 Bohr mag/cell
     absolute magnetization    =     4.02 Bohr mag/cell
     lambda                    =       1.00 Ry

     iteration # 11     ecut=    40.00 Ry     beta= 0.40
     Davidson diagonalization with overlap
     ethr =  6.76E-04,  avg # of iterations =  1.0

     negative rho (up, down):  1.646E-02 1.453E-02
     constraint energy (Ry) =     14.03275168

     total cpu time spent up to now is      337.3 secs

     total energy              =    -173.72836589 Ry
     estimated scf accuracy    <       0.41337017 Ry

     total magnetization       =     4.00 Bohr mag/cell
     absolute magnetization    =     4.02 Bohr mag/cell
     lambda                    =       1.00 Ry

     iteration # 12     ecut=    40.00 Ry     beta= 0.40
     Davidson diagonalization with overlap
     ethr =  6.76E-04,  avg # of iterations =  1.0

     negative rho (up, down):  2.941E-02 1.474E-02
     constraint energy (Ry) =     14.16416493

     total cpu time spent up to now is      365.7 secs

     total energy              =    -173.61853454 Ry
     estimated scf accuracy    <       0.37450392 Ry

     total magnetization       =     4.00 Bohr mag/cell
     absolute magnetization    =     4.02 Bohr mag/cell
     lambda                    =       1.00 Ry

     iteration # 13     ecut=    40.00 Ry     beta= 0.40
     Davidson diagonalization with overlap
     ethr =  6.76E-04,  avg # of iterations =  3.0

     negative rho (up, down):  3.503E-02 1.401E-02
     constraint energy (Ry) =     14.62173466

     total cpu time spent up to now is      397.5 secs

     total energy              =    -173.69925412 Ry
     estimated scf accuracy    <       0.10056521 Ry

     total magnetization       =     4.00 Bohr mag/cell
     absolute magnetization    =     4.66 Bohr mag/cell
     lambda                    =       1.00 Ry

     iteration # 14     ecut=    40.00 Ry     beta= 0.40
     Davidson diagonalization with overlap
     ethr =  6.76E-04,  avg # of iterations =  1.0

     negative rho (up, down):  3.188E-02 1.419E-02
     constraint energy (Ry) =     14.67722565

     total cpu time spent up to now is      425.8 secs

     total energy              =    -173.69882141 Ry
     estimated scf accuracy    <       0.06353549 Ry

     total magnetization       =     4.00 Bohr mag/cell
     absolute magnetization    =     4.69 Bohr mag/cell
     lambda                    =       1.00 Ry

     iteration # 15     ecut=    40.00 Ry     beta= 0.40
     Davidson diagonalization with overlap
     ethr =  4.54E-04,  avg # of iterations =  1.0

     negative rho (up, down):  2.879E-02 1.445E-02
     constraint energy (Ry) =     15.14554987

     total cpu time spent up to now is      454.1 secs

     total energy              =    -173.69748703 Ry
     estimated scf accuracy    <       0.06429435 Ry

     total magnetization       =     4.00 Bohr mag/cell
     absolute magnetization    =     4.72 Bohr mag/cell
     lambda                    =       1.00 Ry

     iteration # 16     ecut=    40.00 Ry     beta= 0.40
     Davidson diagonalization with overlap
     ethr =  4.54E-04,  avg # of iterations =  1.0

     negative rho (up, down):  2.666E-02 1.467E-02
     constraint energy (Ry) =     15.53110448

     total cpu time spent up to now is      482.6 secs

     total energy              =    -173.69869895 Ry
     estimated scf accuracy    <       0.03457389 Ry

     total magnetization       =     4.00 Bohr mag/cell
     absolute magnetization    =     4.67 Bohr mag/cell
     lambda                    =       1.00 Ry

     iteration # 17     ecut=    40.00 Ry     beta= 0.40
     Davidson diagonalization with overlap
     ethr =  2.47E-04,  avg # of iterations =  1.0

     negative rho (up, down):  2.270E-02 1.466E-02
     constraint energy (Ry) =     15.27687785

     total cpu time spent up to now is      510.9 secs

     total energy              =    -173.69742716 Ry
     estimated scf accuracy    <       0.00144512 Ry

     total magnetization       =     4.00 Bohr mag/cell
     absolute magnetization    =     4.47 Bohr mag/cell
     lambda                    =       1.00 Ry

     iteration # 18     ecut=    40.00 Ry     beta= 0.40
     Davidson diagonalization with overlap
     ethr =  1.03E-05,  avg # of iterations =  1.5

     negative rho (up, down):  1.956E-02 1.464E-02
     constraint energy (Ry) =     15.28257665

     total cpu time spent up to now is      539.9 secs

     total energy              =    -173.69763985 Ry
     estimated scf accuracy    <       0.00014310 Ry

     total magnetization       =     4.00 Bohr mag/cell
     absolute magnetization    =     4.43 Bohr mag/cell
     lambda                    =       1.00 Ry

     iteration # 19     ecut=    40.00 Ry     beta= 0.40
     Davidson diagonalization with overlap
     ethr =  1.02E-06,  avg # of iterations =  3.5

     negative rho (up, down):  1.747E-02 1.477E-02
     constraint energy (Ry) =     15.24349289

     total cpu time spent up to now is      571.1 secs

     total energy              =    -173.69572132 Ry
     estimated scf accuracy    <       0.00882274 Ry

     total magnetization       =     4.00 Bohr mag/cell
     absolute magnetization    =     4.55 Bohr mag/cell
     lambda                    =       1.00 Ry

     iteration # 20     ecut=    40.00 Ry     beta= 0.40
     Davidson diagonalization with overlap
     ethr =  1.02E-06,  avg # of iterations =  6.5

     negative rho (up, down):  1.751E-02 1.475E-02
     constraint energy (Ry) =     15.22448370

     total cpu time spent up to now is      607.9 secs

     total energy              =    -173.69747008 Ry
     estimated scf accuracy    <       0.02665427 Ry

     total magnetization       =     4.00 Bohr mag/cell
     absolute magnetization    =     4.25 Bohr mag/cell
     lambda                    =       1.00 Ry

     iteration # 21     ecut=    40.00 Ry     beta= 0.40
     Davidson diagonalization with overlap
     ethr =  1.02E-06,  avg # of iterations =  1.5

     negative rho (up, down):  1.797E-02 1.477E-02
     constraint energy (Ry) =     15.27355928

     total cpu time spent up to now is      636.5 secs

     total energy              =    -173.69809719 Ry
     estimated scf accuracy    <       0.01308300 Ry

     total magnetization       =     4.00 Bohr mag/cell
     absolute magnetization    =     4.31 Bohr mag/cell
     lambda                    =       1.00 Ry

     iteration # 22     ecut=    40.00 Ry     beta= 0.40
     Davidson diagonalization with overlap
     ethr =  1.02E-06,  avg # of iterations =  1.0

     negative rho (up, down):  1.630E-02 1.480E-02
     constraint energy (Ry) =     15.29246876

     total cpu time spent up to now is      664.8 secs

     total energy              =    -173.69908726 Ry
     estimated scf accuracy    <       0.01324514 Ry

     total magnetization       =     4.00 Bohr mag/cell
     absolute magnetization    =     4.31 Bohr mag/cell
     lambda                    =       1.00 Ry

     iteration # 23     ecut=    40.00 Ry     beta= 0.40
     Davidson diagonalization with overlap
     ethr =  1.02E-06,  avg # of iterations =  2.5

     negative rho (up, down):  1.883E-02 1.469E-02
     constraint energy (Ry) =     15.25879147

     total cpu time spent up to now is      694.8 secs

     total energy              =    -173.69564231 Ry
     estimated scf accuracy    <       0.03538637 Ry

     total magnetization       =     4.00 Bohr mag/cell
     absolute magnetization    =     4.23 Bohr mag/cell
     lambda                    =       1.00 Ry

     iteration # 24     ecut=    40.00 Ry     beta= 0.40
     Davidson diagonalization with overlap
     ethr =  1.02E-06,  avg # of iterations =  5.0

     negative rho (up, down):  1.627E-02 1.472E-02
     constraint energy (Ry) =     15.26349549

     total cpu time spent up to now is      729.5 secs

     total energy              =    -173.69746423 Ry
     estimated scf accuracy    <       0.00063605 Ry

     total magnetization       =     4.00 Bohr mag/cell
     absolute magnetization    =     4.47 Bohr mag/cell
     lambda                    =       1.00 Ry

     iteration # 25     ecut=    40.00 Ry     beta= 0.40
     Davidson diagonalization with overlap
     ethr =  1.02E-06,  avg # of iterations =  2.0

     negative rho (up, down):  1.667E-02 1.467E-02
     constraint energy (Ry) =     15.20267919

     total cpu time spent up to now is      759.0 secs

     total energy              =    -173.69685664 Ry
     estimated scf accuracy    <       0.00118815 Ry

     total magnetization       =     4.00 Bohr mag/cell
     absolute magnetization    =     4.39 Bohr mag/cell
     lambda                    =       1.00 Ry

     iteration # 26     ecut=    40.00 Ry     beta= 0.40
     Davidson diagonalization with overlap
     ethr =  1.02E-06,  avg # of iterations =  1.0

     negative rho (up, down):  1.605E-02 1.465E-02
     constraint energy (Ry) =     15.18729790

     total cpu time spent up to now is      787.3 secs

     total energy              =    -173.69674771 Ry
     estimated scf accuracy    <       0.00000429 Ry

     total magnetization       =     4.00 Bohr mag/cell
     absolute magnetization    =     4.44 Bohr mag/cell
     lambda                    =       1.00 Ry

     iteration # 27     ecut=    40.00 Ry     beta= 0.40
     Davidson diagonalization with overlap
     ethr =  3.07E-08,  avg # of iterations =  3.0

     negative rho (up, down):  1.548E-02 1.466E-02
     constraint energy (Ry) =     15.19650210

     total cpu time spent up to now is      817.0 secs

     total energy              =    -173.69684394 Ry
     estimated scf accuracy    <       0.00001198 Ry

     total magnetization       =     4.00 Bohr mag/cell
     absolute magnetization    =     4.44 Bohr mag/cell
     lambda                    =       1.00 Ry

     iteration # 28     ecut=    40.00 Ry     beta= 0.40
     Davidson diagonalization with overlap
     ethr =  3.07E-08,  avg # of iterations =  2.0

     negative rho (up, down):  1.540E-02 1.466E-02
     constraint energy (Ry) =     15.20247488

     total cpu time spent up to now is      846.3 secs

     total energy              =    -173.69691258 Ry
     estimated scf accuracy    <       0.00000595 Ry

     total magnetization       =     4.00 Bohr mag/cell
     absolute magnetization    =     4.43 Bohr mag/cell
     lambda                    =       1.00 Ry

     iteration # 29     ecut=    40.00 Ry     beta= 0.40
     Davidson diagonalization with overlap
     ethr =  3.07E-08,  avg # of iterations =  2.0

     negative rho (up, down):  1.538E-02 1.466E-02
     constraint energy (Ry) =     15.20070481

     total cpu time spent up to now is      875.3 secs

     total energy              =    -173.69689449 Ry
     estimated scf accuracy    <       0.00000079 Ry

     total magnetization       =     4.00 Bohr mag/cell
     absolute magnetization    =     4.43 Bohr mag/cell
     lambda                    =       1.00 Ry

     iteration # 30     ecut=    40.00 Ry     beta= 0.40
     Davidson diagonalization with overlap
     ethr =  5.62E-09,  avg # of iterations =  2.0

     negative rho (up, down):  1.539E-02 1.467E-02
     constraint energy (Ry) =     15.20949279

     total cpu time spent up to now is      904.3 secs

     total energy              =    -173.69698997 Ry
     estimated scf accuracy    <       0.00000062 Ry

     total magnetization       =     4.00 Bohr mag/cell
     absolute magnetization    =     4.43 Bohr mag/cell
     lambda                    =       1.00 Ry

     iteration # 31     ecut=    40.00 Ry     beta= 0.40
     Davidson diagonalization with overlap
     ethr =  4.42E-09,  avg # of iterations =  2.5

     negative rho (up, down):  1.539E-02 1.466E-02
     constraint energy (Ry) =     15.20159547

     total cpu time spent up to now is      933.8 secs

     total energy              =    -173.69690402 Ry
     estimated scf accuracy    <       0.00000743 Ry

     total magnetization       =     4.00 Bohr mag/cell
     absolute magnetization    =     4.44 Bohr mag/cell
     lambda                    =       1.00 Ry

     iteration # 32     ecut=    40.00 Ry     beta= 0.40
     Davidson diagonalization with overlap
     ethr =  4.42E-09,  avg # of iterations =  3.0

     negative rho (up, down):  1.541E-02 1.466E-02
     constraint energy (Ry) =     15.20294458

     total cpu time spent up to now is      964.8 secs

     total energy              =    -173.69691933 Ry
     estimated scf accuracy    <       0.00000926 Ry

     total magnetization       =     4.00 Bohr mag/cell
     absolute magnetization    =     4.43 Bohr mag/cell
     lambda                    =       1.00 Ry

     iteration # 33     ecut=    40.00 Ry     beta= 0.40
     Davidson diagonalization with overlap
     ethr =  4.42E-09,  avg # of iterations =  2.0

     negative rho (up, down):  1.540E-02 1.466E-02
     constraint energy (Ry) =     15.20773060

     total cpu time spent up to now is      993.9 secs

     total energy              =    -173.69697228 Ry
     estimated scf accuracy    <       0.00000025 Ry

     total magnetization       =     4.00 Bohr mag/cell
     absolute magnetization    =     4.43 Bohr mag/cell
     lambda                    =       1.00 Ry

     iteration # 34     ecut=    40.00 Ry     beta= 0.40
     Davidson diagonalization with overlap
     ethr =  1.80E-09,  avg # of iterations =  2.0

     negative rho (up, down):  1.541E-02 1.466E-02
     constraint energy (Ry) =     15.20664909

     total cpu time spent up to now is     1023.3 secs

     total energy              =    -173.69696069 Ry
     estimated scf accuracy    <       0.00000015 Ry

     total magnetization       =     4.00 Bohr mag/cell
     absolute magnetization    =     4.43 Bohr mag/cell
     lambda                    =       1.00 Ry

     iteration # 35     ecut=    40.00 Ry     beta= 0.40
     Davidson diagonalization with overlap
     ethr =  1.06E-09,  avg # of iterations =  2.0

     negative rho (up, down):  1.545E-02 1.466E-02
     constraint energy (Ry) =     15.20651631

     total cpu time spent up to now is     1052.3 secs

     total energy              =    -173.69695810 Ry
     estimated scf accuracy    <       0.00000006 Ry

     total magnetization       =     4.00 Bohr mag/cell
     absolute magnetization    =     4.43 Bohr mag/cell
     lambda                    =       1.00 Ry

     iteration # 36     ecut=    40.00 Ry     beta= 0.40
     Davidson diagonalization with overlap
     ethr =  4.38E-10,  avg # of iterations =  3.5

     negative rho (up, down):  1.543E-02 1.466E-02
     constraint energy (Ry) =     15.20891908

     total cpu time spent up to now is     1083.6 secs

     total energy              =    -173.69698571 Ry
     estimated scf accuracy    <       0.00000019 Ry

     total magnetization       =     4.00 Bohr mag/cell
     absolute magnetization    =     4.43 Bohr mag/cell
     lambda                    =       1.00 Ry

     iteration # 37     ecut=    40.00 Ry     beta= 0.40
     Davidson diagonalization with overlap
     ethr =  4.38E-10,  avg # of iterations =  3.5

     negative rho (up, down):  1.545E-02 1.466E-02
     constraint energy (Ry) =     15.20979424

     total cpu time spent up to now is     1114.4 secs

     total energy              =    -173.69699512 Ry
     estimated scf accuracy    <       0.00000007 Ry

     total magnetization       =     4.00 Bohr mag/cell
     absolute magnetization    =     4.43 Bohr mag/cell
     lambda                    =       1.00 Ry

     iteration # 38     ecut=    40.00 Ry     beta= 0.40
     Davidson diagonalization with overlap
     ethr =  4.38E-10,  avg # of iterations =  3.0

     negative rho (up, down):  1.546E-02 1.466E-02
     constraint energy (Ry) =     15.20996184

     Magnetic moment per site  (integrated on atomic sphere of radius R)
     atom   1 (R=0.413)  charge= 14.0000  magn=  4.0000   constr=  0.1000

     total cpu time spent up to now is     1143.6 secs

     End of self-consistent calculation

 ------ SPIN UP ------------


          k = 0.0000 0.0000 0.0000 (389220 PWs)   bands (ev):

   -74.9627 -46.3806 -46.3798 -46.3790  -3.4931  -3.4915  -3.4822  -3.4674
    -3.4599  -3.2816   0.0506

 ------ SPIN DOWN ----------


          k = 0.0000 0.0000 0.0000 (389220 PWs)   bands (ev):

   -72.6922 -44.1715 -44.1688 -44.1684  -4.9690  -2.2392  -2.2307  -2.2190
    -2.2185  -2.2129  -2.2126

     the Fermi energy is    -3.3294 ev

!    total energy              =    -173.69699760 Ry
     estimated scf accuracy    <          5.3E-09 Ry
     smearing contrib. (-TS)   =      -0.00677034 Ry
     internal energy E=F+TS    =    -173.69022726 Ry

     The total energy is F=E-TS. E is the sum of the following terms:
     one-electron contribution =    -281.01743017 Ry
     hartree contribution      =     137.13334714 Ry
     xc contribution           =     -19.99678079 Ry
     ewald contribution        =      -9.80936344 Ry

     total magnetization       =     4.00 Bohr mag/cell
     absolute magnetization    =     4.43 Bohr mag/cell
     lambda                    =       1.00 Ry

     convergence has been achieved in  38 iterations

     Writing all to output data dir ./Cr.save/ :
     XML data file, charge density, pseudopotentials, collected wavefunctions

     init_run     :     13.66s CPU     16.23s WALL (       1 calls)
     electrons    :   1027.20s CPU   1127.59s WALL (       1 calls)

     Called by init_run:
     wfcinit      :      2.63s CPU      2.83s WALL (       1 calls)
     potinit      :      4.82s CPU      6.00s WALL (       1 calls)
     hinit0       :      0.72s CPU      0.83s WALL (       1 calls)

     Called by electrons:
     c_bands      :    227.13s CPU    232.28s WALL (      38 calls)
     sum_band     :    444.85s CPU    480.52s WALL (      38 calls)
     v_of_rho     :    135.36s CPU    158.83s WALL (      39 calls)
     newd         :    158.56s CPU    193.34s WALL (      39 calls)
     mix_rho      :     40.13s CPU     41.45s WALL (      38 calls)

     Called by c_bands:
     init_us_2    :      4.60s CPU      4.62s WALL (     154 calls)
     regterg      :    220.84s CPU    225.98s WALL (      76 calls)

     Called by *egterg:
     rdiaghg      :      0.02s CPU      0.02s WALL (     242 calls)
     h_psi        :    176.19s CPU    181.36s WALL (     244 calls)
     s_psi        :      7.91s CPU      7.91s WALL (     244 calls)
     g_psi        :      0.42s CPU      0.43s WALL (     166 calls)

     Called by h_psi:
     h_psi:calbec :      8.37s CPU      8.38s WALL (     244 calls)
     vloc_psi     :    158.82s CPU    163.97s WALL (     244 calls)
     add_vuspsi   :      7.89s CPU      7.89s WALL (     244 calls)

     General routines
     calbec       :     11.63s CPU     11.63s WALL (     320 calls)
     fft          :    102.65s CPU    117.24s WALL (     699 calls)
     ffts         :     12.81s CPU     13.93s WALL (     116 calls)
     fftw         :    147.59s CPU    153.72s WALL (    2758 calls)
     interpolate  :     24.53s CPU     26.41s WALL (      78 calls)

     Parallel routines

     PWSCF        :  17m21.16s CPU  19m 4.43s WALL


   This run was terminated on:  20:40:43  22Apr2025            

=------------------------------------------------------------------------------=
   JOB DONE.
=------------------------------------------------------------------------------=
