
     Program PWSCF v.7.3.1 starts on 22Apr2025 at 20:18:57 

     This program is part of the open-source Quantum ESPRESSO suite
     for quantum simulation of materials; please cite
         "P. Giannozzi et al., J. Phys.:Condens. Matter 21 395502 (2009);
         "P. Giannozzi et al., J. Phys.:Condens. Matter 29 465901 (2017);
         "P. Giannozzi et al., J. Chem. Phys. 152 154105 (2020);
          URL http://www.quantum-espresso.org", 
     in publications or presentations arising from this work. More details at
     http://www.quantum-espresso.org/quote

     Parallel version (MPI), running on     4 processors

     MPI processes distributed on     1 nodes
     19363 MiB available memory on the printing compute node when the environment starts

     Waiting for input...
     Reading input from standard input

     Current dimensions of program PWSCF are:
     Max number of different atomic species (ntypx) = 10
     Max number of k-points (npk) =  40000
     Max angular momentum in pseudopotentials (lmaxx) =  4
     file N.pbe-rrkjus.UPF: wavefunction(s)  2S renormalized

     gamma-point specific algorithms are used
     Message from routine setup:
     using ibrav=0 with symmetry is DISCOURAGED, use correct ibrav instead

     R & G space division:  proc/nbgrp/npool/nimage =       4
     Subspace diagonalization in iterative solution of the eigenvalue problem:
     a serial algorithm will be used


     Parallelization info
     --------------------
     sticks:   dense  smooth     PW     G-vecs:    dense   smooth      PW
     Min       12790   10232   2556              2176002  1556778  194608
     Max       12792   10240   2558              2176012  1556780  194611
     Sum       51165   40945  10229              8704035  6227117  778439

     Using Slab Decomposition



     bravais-lattice index     =            0
     lattice parameter (alat)  =      56.6918  a.u.
     unit-cell volume          =  182205.0314 (a.u.)^3
     number of atoms/cell      =            1
     number of atomic types    =            1
     number of electrons       =         5.00
     number of Kohn-Sham states=            7
     kinetic-energy cutoff     =      40.0000  Ry
     charge density cutoff     =     200.0000  Ry
     scf convergence threshold =      1.0E-08
     mixing beta               =       0.4000
     number of iterations used =            8  plain     mixing
     Exchange-correlation=  SLA  PW   PBE  PBE
                           (   1   4   3   4   0   0   0)

     celldm(1)=  56.691784  celldm(2)=   0.000000  celldm(3)=   0.000000
     celldm(4)=   0.000000  celldm(5)=   0.000000  celldm(6)=   0.000000

     crystal axes: (cart. coord. in units of alat)
               a(1) = (   1.000000   0.000000   0.000000 )  
               a(2) = (   0.000000   1.000000   0.000000 )  
               a(3) = (   0.000000   0.000000   1.000000 )  

     reciprocal axes: (cart. coord. in units 2 pi/alat)
               b(1) = (  1.000000  0.000000  0.000000 )  
               b(2) = (  0.000000  1.000000  0.000000 )  
               b(3) = (  0.000000  0.000000  1.000000 )  


     PseudoPot. # 1 for N  read from file:
     ./../../pseudopot/N.pbe-rrkjus.UPF
     MD5 check sum: 0c3fbe5807a93f9ba59d5a7019aa238b
     Pseudo is Ultrasoft, Zval =  5.0
     Generated by new atomic code, or converted to UPF format
     Using radial grid of 1257 points,  4 beta functions with: 
                l(1) =   0
                l(2) =   0
                l(3) =   1
                l(4) =   1
     Q(r) pseudized with 0 coefficients 


     atomic species   valence    mass     pseudopotential
     N                 5.00    14.00600     N ( 1.00)

     Starting magnetic structure 
     atomic species   magnetization
     N               0.100

     48 Sym. Ops., with inversion, found



   Cartesian axes

     site n.     atom                  positions (alat units)
         1        N      tau(   1) = (   0.5000000   0.5000000   0.5000000  )

     number of k points=     1  Gaussian smearing, width (Ry)=  0.0100
                       cart. coord. in units 2pi/alat
        k(    1) = (   0.0000000   0.0000000   0.0000000), wk =   1.0000000

     Dense  grid:  4352018 G-vectors     FFT dimensions: ( 256, 256, 256)

     Smooth grid:  3113559 G-vectors     FFT dimensions: ( 240, 240, 240)

     Estimated max dynamical RAM per process >       1.97 GB

     Estimated total dynamical RAM >       7.89 GB
     Generating pointlists ...
     new r_m :   0.4125 (alat units) 23.3854 (a.u.) for type    1

     Initial potential from superposition of free atoms

     starting charge       5.0000, renormalised to       5.0000

     negative rho (up, down):  7.524E-04 6.156E-04
     constraint energy (Ry) =      0.15999998
     Starting wfcs are    4 randomized atomic wfcs +    3 random wfcs

     total cpu time spent up to now is       11.1 secs

     Self-consistent Calculation

     iteration #  1     ecut=    40.00 Ry     beta= 0.40
     Davidson diagonalization with overlap
     ethr =  1.00E-02,  avg # of iterations =  4.0

     negative rho (up, down):  7.010E-04 5.246E-04
     constraint energy (Ry) =      1.91754379

     total cpu time spent up to now is       26.7 secs

     total energy              =     -19.37286690 Ry
     estimated scf accuracy    <       0.07248659 Ry

     total magnetization       =     2.96 Bohr mag/cell
     absolute magnetization    =     2.96 Bohr mag/cell
     lambda                    =       1.00 Ry

     iteration #  2     ecut=    40.00 Ry     beta= 0.40
     Davidson diagonalization with overlap
     ethr =  1.45E-03,  avg # of iterations =  1.0

     negative rho (up, down):  4.061E-03 3.156E-03
     constraint energy (Ry) =      9.16821425

     total cpu time spent up to now is       39.5 secs

     total energy              =     -19.49580458 Ry
     estimated scf accuracy    <       0.03076343 Ry

     total magnetization       =     3.00 Bohr mag/cell
     absolute magnetization    =     3.00 Bohr mag/cell
     lambda                    =       1.00 Ry

     iteration #  3     ecut=    40.00 Ry     beta= 0.40
     Davidson diagonalization with overlap
     ethr =  6.15E-04,  avg # of iterations =  4.5

     negative rho (up, down):  2.313E-03 1.671E-03
     constraint energy (Ry) =      8.50582601

     total cpu time spent up to now is       54.4 secs

     total energy              =     -19.49149457 Ry
     estimated scf accuracy    <       0.00025859 Ry

     total magnetization       =     3.00 Bohr mag/cell
     absolute magnetization    =     3.00 Bohr mag/cell
     lambda                    =       1.00 Ry

     iteration #  4     ecut=    40.00 Ry     beta= 0.40
     Davidson diagonalization with overlap
     c_bands:  3 eigenvalues not converged
     c_bands:  3 eigenvalues not converged
     ethr =  5.17E-06,  avg # of iterations = 20.0

     negative rho (up, down):  1.580E-03 1.040E-03
     constraint energy (Ry) =      8.53086649

     total cpu time spent up to now is       82.3 secs

     total energy              =     -19.49186744 Ry
     estimated scf accuracy    <       0.00002468 Ry

     total magnetization       =     3.00 Bohr mag/cell
     absolute magnetization    =     3.00 Bohr mag/cell
     lambda                    =       1.00 Ry

     iteration #  5     ecut=    40.00 Ry     beta= 0.40
     Davidson diagonalization with overlap
     c_bands:  2 eigenvalues not converged
     ethr =  4.94E-07,  avg # of iterations = 20.0

     negative rho (up, down):  1.109E-03 6.391E-04
     constraint energy (Ry) =      8.42707807

     total cpu time spent up to now is      106.2 secs

     total energy              =     -19.49075490 Ry
     estimated scf accuracy    <       0.00000404 Ry

     total magnetization       =     3.00 Bohr mag/cell
     absolute magnetization    =     3.00 Bohr mag/cell
     lambda                    =       1.00 Ry

     iteration #  6     ecut=    40.00 Ry     beta= 0.40
     Davidson diagonalization with overlap
     ethr =  8.08E-08,  avg # of iterations =  2.0

     negative rho (up, down):  9.293E-04 4.678E-04
     constraint energy (Ry) =      8.40535198

     total cpu time spent up to now is      120.0 secs

     total energy              =     -19.49052144 Ry
     estimated scf accuracy    <       0.00000121 Ry

     total magnetization       =     3.00 Bohr mag/cell
     absolute magnetization    =     3.00 Bohr mag/cell
     lambda                    =       1.00 Ry

     iteration #  7     ecut=    40.00 Ry     beta= 0.40
     Davidson diagonalization with overlap
     ethr =  2.42E-08,  avg # of iterations =  1.5

     negative rho (up, down):  8.618E-04 4.036E-04
     constraint energy (Ry) =      8.40799356

     total cpu time spent up to now is      133.2 secs

     total energy              =     -19.49055073 Ry
     estimated scf accuracy    <       0.00000003 Ry

     total magnetization       =     3.00 Bohr mag/cell
     absolute magnetization    =     3.00 Bohr mag/cell
     lambda                    =       1.00 Ry

     iteration #  8     ecut=    40.00 Ry     beta= 0.40
     Davidson diagonalization with overlap
     ethr =  6.21E-10,  avg # of iterations =  3.0

     negative rho (up, down):  8.352E-04 3.777E-04
     constraint energy (Ry) =      8.41075042

     total cpu time spent up to now is      147.8 secs

     total energy              =     -19.49058079 Ry
     estimated scf accuracy    <       0.00000013 Ry

     total magnetization       =     3.00 Bohr mag/cell
     absolute magnetization    =     3.00 Bohr mag/cell
     lambda                    =       1.00 Ry

     iteration #  9     ecut=    40.00 Ry     beta= 0.40
     Davidson diagonalization with overlap
     ethr =  6.21E-10,  avg # of iterations =  2.5

     negative rho (up, down):  8.217E-04 3.578E-04
     constraint energy (Ry) =      8.40999898

     Magnetic moment per site  (integrated on atomic sphere of radius R)
     atom   1 (R=0.413)  charge=  5.0000  magn=  3.0000   constr=  0.1000

     total cpu time spent up to now is      160.9 secs

     End of self-consistent calculation

 ------ SPIN UP ------------


          k = 0.0000 0.0000 0.0000 (389220 PWs)   bands (ev):

   -19.0199  -7.4911  -7.4911  -7.4911  -0.0109   0.1672   0.1713

 ------ SPIN DOWN ----------


          k = 0.0000 0.0000 0.0000 (389220 PWs)   bands (ev):

   -15.8914  -4.6740  -4.6740  -4.6740  -0.9012  -0.6844  -0.6840

     the Fermi energy is    -6.6853 ev

!    total energy              =     -19.49057215 Ry
     estimated scf accuracy    <          4.0E-09 Ry
     smearing contrib. (-TS)   =      -0.00000000 Ry
     internal energy E=F+TS    =     -19.49057215 Ry

     The total energy is F=E-TS. E is the sum of the following terms:
     one-electron contribution =     -28.72168655 Ry
     hartree contribution      =      15.24749556 Ry
     xc contribution           =      -4.76518681 Ry
     ewald contribution        =      -1.25119436 Ry

     total magnetization       =     3.00 Bohr mag/cell
     absolute magnetization    =     3.00 Bohr mag/cell
     lambda                    =       1.00 Ry

     convergence has been achieved in   9 iterations

     Writing all to output data dir ./N.save/ :
     XML data file, charge density, pseudopotentials, collected wavefunctions

     init_run     :      9.22s CPU     10.97s WALL (       1 calls)
     electrons    :    137.19s CPU    150.13s WALL (       1 calls)

     Called by init_run:
     wfcinit      :      1.32s CPU      1.43s WALL (       1 calls)
     potinit      :      4.73s CPU      5.89s WALL (       1 calls)
     hinit0       :      0.67s CPU      0.77s WALL (       1 calls)

     Called by electrons:
     c_bands      :     57.85s CPU     59.58s WALL (       9 calls)
     sum_band     :     26.57s CPU     28.94s WALL (       9 calls)
     v_of_rho     :     33.70s CPU     40.11s WALL (      10 calls)
     newd         :     10.32s CPU     12.67s WALL (      10 calls)
     mix_rho      :      6.26s CPU      6.86s WALL (       9 calls)

     Called by c_bands:
     init_us_2    :      0.58s CPU      0.59s WALL (      38 calls)
     regterg      :     57.29s CPU     59.02s WALL (      18 calls)

     Called by *egterg:
     rdiaghg      :      0.01s CPU      0.01s WALL (     135 calls)
     h_psi        :     48.39s CPU     50.14s WALL (     137 calls)
     s_psi        :      1.07s CPU      1.07s WALL (     137 calls)
     g_psi        :      0.14s CPU      0.14s WALL (     117 calls)

     Called by h_psi:
     h_psi:calbec :      1.11s CPU      1.12s WALL (     137 calls)
     vloc_psi     :     45.95s CPU     47.69s WALL (     137 calls)
     add_vuspsi   :      1.05s CPU      1.05s WALL (     137 calls)

     General routines
     calbec       :      1.35s CPU      1.36s WALL (     155 calls)
     fft          :     25.24s CPU     29.12s WALL (     177 calls)
     ffts         :      3.63s CPU      3.96s WALL (      29 calls)
     fftw         :     39.84s CPU     41.75s WALL (     734 calls)
     interpolate  :      6.61s CPU      7.28s WALL (      20 calls)

     Parallel routines

     PWSCF        :   2m26.66s CPU   2m41.65s WALL


   This run was terminated on:  20:21:38  22Apr2025            

=------------------------------------------------------------------------------=
   JOB DONE.
=------------------------------------------------------------------------------=
