
     Program PWSCF v.7.3.1 starts on 22Feb2025 at 19:19:50 

     This program is part of the open-source Quantum ESPRESSO suite
     for quantum simulation of materials; please cite
         "P. Giannozzi et al., J. Phys.:Condens. Matter 21 395502 (2009);
         "P. Giannozzi et al., J. Phys.:Condens. Matter 29 465901 (2017);
         "P. Giannozzi et al., J. Chem. Phys. 152 154105 (2020);
          URL http://www.quantum-espresso.org", 
     in publications or presentations arising from this work. More details at
     http://www.quantum-espresso.org/quote

     Parallel version (MPI), running on     4 processors

     MPI processes distributed on     1 nodes
     5231 MiB available memory on the printing compute node when the environment starts

     Waiting for input...
     Reading input from standard input

     Current dimensions of program PWSCF are:
     Max number of different atomic species (ntypx) = 10
     Max number of k-points (npk) =  40000
     Max angular momentum in pseudopotentials (lmaxx) =  4

     IMPORTANT: XC functional enforced from input :
     Exchange-correlation= VDW-DF
                           (   1   4   4   0   1   0   0)
     Any further DFT definition will be discarded
     Please, verify this is what you really want


     R & G space division:  proc/nbgrp/npool/nimage =       4
     Subspace diagonalization in iterative solution of the eigenvalue problem:
     a serial algorithm will be used


     Parallelization info
     --------------------
     sticks:   dense  smooth     PW     G-vecs:    dense   smooth      PW
     Min         153     124     37                25729    18498    3175
     Max         154     125     38                25747    18533    3206
     Sum         613     499    151               102959    74077   12791

     Using Slab Decomposition



     bravais-lattice index     =            0
     lattice parameter (alat)  =       5.4714  a.u.
     unit-cell volume          =    1175.8321 (a.u.)^3
     number of atoms/cell      =            7
     number of atomic types    =            3
     number of electrons       =        42.00
     number of Kohn-Sham states=           21
     kinetic-energy cutoff     =      60.0000  Ry
     charge density cutoff     =     300.0000  Ry
     scf convergence threshold =      1.0E-06
     mixing beta               =       0.7000
     number of iterations used =            8  plain     mixing
     Exchange-correlation= VDW-DF
                           (   1   4   4   0   1   0   0)

     celldm(1)=   5.471446  celldm(2)=   0.000000  celldm(3)=   0.000000
     celldm(4)=   0.000000  celldm(5)=   0.000000  celldm(6)=   0.000000

     crystal axes: (cart. coord. in units of alat)
               a(1) = (   1.000000   0.000000   0.000000 )  
               a(2) = (   0.500000   0.866026   0.000000 )  
               a(3) = (   0.000000   0.000000   8.289111 )  

     reciprocal axes: (cart. coord. in units 2 pi/alat)
               b(1) = (  1.000000 -0.577350  0.000000 )  
               b(2) = ( -0.000000  1.154700  0.000000 )  
               b(3) = (  0.000000  0.000000  0.120640 )  


     PseudoPot. # 1 for Cr read from file:
     ./../../pseudo/ONCVPSP/abinit/Cr_ONCV_PBE_sr.upf
     MD5 check sum: 3baa404e46b6888915b3a385d4a3464a
     Pseudo is Norm-conserving + core correction, Zval = 14.0
     Generated using ONCVPSP code by D. R. Hamann
     Using radial grid of 1638 points,  6 beta functions with: 
                l(1) =   0
                l(2) =   0
                l(3) =   1
                l(4) =   1
                l(5) =   2
                l(6) =   2

     PseudoPot. # 2 for Si read from file:
     ./../../pseudo/ONCVPSP/abinit/Si_ONCV_PBE_sr.upf
     MD5 check sum: e543d271109d17c80368dfa7c482276d
     Pseudo is Norm-conserving + core correction, Zval =  4.0
     Generated using ONCVPSP code by D. R. Hamann
     Using radial grid of 1510 points,  6 beta functions with: 
                l(1) =   0
                l(2) =   0
                l(3) =   1
                l(4) =   1
                l(5) =   2
                l(6) =   2

     PseudoPot. # 3 for N  read from file:
     ./../../pseudo/ONCVPSP/abinit/N_ONCV_PBE_sr.upf
     MD5 check sum: 18c6af81dac9c5a2d6d52ed11cf7bfee
     Pseudo is Norm-conserving + core correction, Zval =  5.0
     Generated using ONCVPSP code by D. R. Hamann
     Using radial grid of 1058 points,  4 beta functions with: 
                l(1) =   0
                l(2) =   0
                l(3) =   1
                l(4) =   1

     atomic species   valence    mass     pseudopotential
     Cr               14.00    51.99600     Cr( 1.00)
     Si                4.00    28.08600     Si( 1.00)
     N                 5.00    14.00700     N ( 1.00)

     No symmetry found


                                    s                        frac. trans.

      isym =  1     identity                                     

 cryst.   s( 1) = (     1          0          0      )
                  (     0          1          0      )
                  (     0          0          1      )

 cart.    s( 1) = (  1.0000000  0.0000000  0.0000000 )
                  (  0.0000000  1.0000000  0.0000000 )
                  (  0.0000000  0.0000000  1.0000000 )


   Cartesian axes

     site n.     atom                  positions (alat units)
         1        Cr     tau(   1) = (   1.5000085   0.8659334   3.5505897  )
         2        N      tau(   2) = (   0.4999782   0.2886960   3.1632369  )
         3        N      tau(   3) = (   0.9999772   0.5773726   3.9378634  )
         4        N      tau(   4) = (   0.4999849   0.2886762   4.7183517  )
         5        N      tau(   5) = (   0.9999835   0.5773473   2.3827060  )
         6        Si     tau(   6) = (   0.4999837   0.2886710   2.5593336  )
         7        Si     tau(   7) = (   0.9999851   0.5773510   4.5417435  )

   Crystallographic axes

     site n.     atom                  positions (cryst. coord.)
         1        Cr     tau(   1) = (  1.0000620  0.9998928  0.4283438  )
         2        N      tau(   2) = (  0.3332996  0.3333571  0.3816135  )
         3        N      tau(   3) = (  0.6666312  0.6666919  0.4750646  )
         4        N      tau(   4) = (  0.3333178  0.3333342  0.5692229  )
         5        N      tau(   5) = (  0.6666521  0.6666626  0.2874501  )
         6        Si     tau(   6) = (  0.3333195  0.3333282  0.3087585  )
         7        Si     tau(   7) = (  0.6666516  0.6666669  0.5479168  )

     number of k points=    34
                       cart. coord. in units 2pi/alat
        k(    1) = (   0.0000000   0.0000000   0.0000000), wk =   0.0312500
        k(    2) = (  -0.0000000   0.1443375   0.0000000), wk =   0.0625000
        k(    3) = (  -0.0000000   0.2886749   0.0000000), wk =   0.0625000
        k(    4) = (  -0.0000001   0.4330124   0.0000000), wk =   0.0625000
        k(    5) = (   0.0000001  -0.5773499   0.0000000), wk =   0.0312500
        k(    6) = (   0.1250000   0.2165062   0.0000000), wk =   0.0625000
        k(    7) = (   0.1250000   0.3608437   0.0000000), wk =   0.0625000
        k(    8) = (   0.1250001  -0.6495186   0.0000000), wk =   0.0625000
        k(    9) = (   0.2500001  -0.7216874   0.0000000), wk =   0.0625000
        k(   10) = (   0.2500001  -0.5773499   0.0000000), wk =   0.0625000
        k(   11) = (  -0.1250000   0.0721688   0.0000000), wk =   0.0625000
        k(   12) = (   0.1250000   0.0721687   0.0000000), wk =   0.0625000
        k(   13) = (  -0.2500000   0.1443375   0.0000000), wk =   0.0625000
        k(   14) = (   0.2500000   0.1443374   0.0000000), wk =   0.0625000
        k(   15) = (  -0.3750000   0.2165063   0.0000000), wk =   0.0625000
        k(   16) = (   0.3750000   0.2165062   0.0000000), wk =   0.0625000
        k(   17) = (   0.5000000  -0.2886750   0.0000000), wk =   0.0312500
        k(   18) = (  -0.5000000  -0.2886749   0.0000000), wk =   0.0312500
        k(   19) = (  -0.1250000   0.2165062   0.0000000), wk =   0.0625000
        k(   20) = (   0.2500000  -0.0000000   0.0000000), wk =   0.0625000
        k(   21) = (  -0.1250000   0.3608437   0.0000000), wk =   0.0625000
        k(   22) = (  -0.2500000   0.2886750   0.0000000), wk =   0.0625000
        k(   23) = (   0.3750000   0.0721687   0.0000000), wk =   0.0625000
        k(   24) = (  -0.2500000  -0.2886749   0.0000000), wk =   0.0625000
        k(   25) = (   0.3750000  -0.0721688   0.0000000), wk =   0.0625000
        k(   26) = (  -0.1249999  -0.6495186   0.0000000), wk =   0.0625000
        k(   27) = (   0.6250000  -0.2165063   0.0000000), wk =   0.0625000
        k(   28) = (  -0.4999999  -0.4330123   0.0000000), wk =   0.0625000
        k(   29) = (   0.6250000   0.2165061   0.0000000), wk =   0.0625000
        k(   30) = (  -0.5000001   0.4330125   0.0000000), wk =   0.0625000
        k(   31) = (  -0.2499999  -0.7216873   0.0000000), wk =   0.0625000
        k(   32) = (  -0.4999999  -0.5773498   0.0000000), wk =   0.0625000
        k(   33) = (   0.6250000  -0.0721688   0.0000000), wk =   0.0625000
        k(   34) = (  -0.3749999  -0.5051811   0.0000000), wk =   0.0625000

                       cryst. coord.
        k(    1) = (   0.0000000   0.0000000   0.0000000), wk =   0.0312500
        k(    2) = (   0.0000000   0.1250000   0.0000000), wk =   0.0625000
        k(    3) = (   0.0000000   0.2500000   0.0000000), wk =   0.0625000
        k(    4) = (   0.0000000   0.3750000   0.0000000), wk =   0.0625000
        k(    5) = (  -0.0000000  -0.5000000   0.0000000), wk =   0.0312500
        k(    6) = (   0.1250000   0.2500000   0.0000000), wk =   0.0625000
        k(    7) = (   0.1250000   0.3750000   0.0000000), wk =   0.0625000
        k(    8) = (   0.1250000  -0.5000000   0.0000000), wk =   0.0625000
        k(    9) = (   0.2500000  -0.5000000   0.0000000), wk =   0.0625000
        k(   10) = (   0.2500000  -0.3750000   0.0000000), wk =   0.0625000
        k(   11) = (  -0.1250000   0.0000000   0.0000000), wk =   0.0625000
        k(   12) = (   0.1250000   0.1250000   0.0000000), wk =   0.0625000
        k(   13) = (  -0.2500000   0.0000000   0.0000000), wk =   0.0625000
        k(   14) = (   0.2500000   0.2500000   0.0000000), wk =   0.0625000
        k(   15) = (  -0.3750000  -0.0000000   0.0000000), wk =   0.0625000
        k(   16) = (   0.3750000   0.3750000   0.0000000), wk =   0.0625000
        k(   17) = (   0.5000000   0.0000000   0.0000000), wk =   0.0312500
        k(   18) = (  -0.5000000  -0.5000000   0.0000000), wk =   0.0312500
        k(   19) = (  -0.1250000   0.1250000   0.0000000), wk =   0.0625000
        k(   20) = (   0.2500000   0.1250000   0.0000000), wk =   0.0625000
        k(   21) = (  -0.1250000   0.2500000   0.0000000), wk =   0.0625000
        k(   22) = (  -0.2500000   0.1250000   0.0000000), wk =   0.0625000
        k(   23) = (   0.3750000   0.2500000   0.0000000), wk =   0.0625000
        k(   24) = (  -0.2500000  -0.3750000   0.0000000), wk =   0.0625000
        k(   25) = (   0.3750000   0.1250000   0.0000000), wk =   0.0625000
        k(   26) = (  -0.1250000  -0.6250000   0.0000000), wk =   0.0625000
        k(   27) = (   0.6250000   0.1250000   0.0000000), wk =   0.0625000
        k(   28) = (  -0.5000000  -0.6250000   0.0000000), wk =   0.0625000
        k(   29) = (   0.6250000   0.5000000   0.0000000), wk =   0.0625000
        k(   30) = (  -0.5000000   0.1250000   0.0000000), wk =   0.0625000
        k(   31) = (  -0.2500000  -0.7500000   0.0000000), wk =   0.0625000
        k(   32) = (  -0.5000000  -0.7500000   0.0000000), wk =   0.0625000
        k(   33) = (   0.6250000   0.2500000   0.0000000), wk =   0.0625000
        k(   34) = (  -0.3750000  -0.6250000   0.0000000), wk =   0.0625000

     Dense  grid:   102959 G-vectors     FFT dimensions: (  32,  32, 256)

     Smooth grid:    74077 G-vectors     FFT dimensions: (  27,  27, 225)

     Dynamical RAM for                 wfc:       0.74 MB

     Dynamical RAM for     wfc (w. buffer):      25.87 MB

     Dynamical RAM for           str. fact:       1.18 MB

     Dynamical RAM for           local pot:       0.00 MB

     Dynamical RAM for          nlocal pot:       3.03 MB

     Dynamical RAM for                qrad:       4.17 MB

     Dynamical RAM for          rho,v,vnew:       2.68 MB

     Dynamical RAM for               rhoin:       0.89 MB

     Dynamical RAM for            rho*nmix:       6.28 MB

     Dynamical RAM for           G-vectors:       1.61 MB

     Dynamical RAM for          h,s,v(r/c):       0.08 MB

     Dynamical RAM for          <psi|beta>:       0.03 MB

     Dynamical RAM for                 psi:       1.48 MB

     Dynamical RAM for                hpsi:       1.48 MB

     Dynamical RAM for      wfcinit/wfcrot:       2.42 MB

     Estimated static dynamical RAM per process >      43.51 MB

     Estimated max dynamical RAM per process >      52.86 MB

     Estimated total dynamical RAM >     211.43 MB

     Initial potential from superposition of free atoms

     starting charge      41.9973, renormalised to      42.0000

     negative rho (up, down):  4.806E-05 0.000E+00


     %%%%%%%%%%%%%%%%%%%%%%%%%%%%%%%%%%%%%%%%%%%%%%%%%%%%%%%%%%%%%%%%%%%%%%%%
     %                                                                      %
     % You are using vdW-DF, which was implemented by the Thonhauser group. %
     % Please cite the following two papers that made this development      %
     % possible and the two reviews that describe the various versions:     %
     %                                                                      %
     %   T. Thonhauser et al., PRL 115, 136402 (2015).                      %
     %   T. Thonhauser et al., PRB 76, 125112 (2007).                       %
     %   K. Berland et al., Rep. Prog. Phys. 78, 066501 (2015).             %
     %   D.C. Langreth et al., J. Phys.: Condens. Matter 21, 084203 (2009). %
     %                                                                      %
     % If you are calculating stress with vdW-DF, please also cite:         %
     %                                                                      %
     %   R. Sabatini et al., J. Phys.: Condens. Matter 24, 424209 (2012).   %
     %                                                                      %
     %%%%%%%%%%%%%%%%%%%%%%%%%%%%%%%%%%%%%%%%%%%%%%%%%%%%%%%%%%%%%%%%%%%%%%%%

     %%%%%%%%%%%%%%%%%%%%%%%%%%%%%%%%%%%%%%%%%%%%%%%%%%%%%%%%%%%%%%%%%%%%%%%%
     %                                                                      %
     %  vdW-DF NEWS:                                                        %
     %                                                                      %
     %  * vdW-DF3 is now available. DOI: 10.1021/acs.jctc.0c00471           %
     %    use with input_dft = 'vdW-DF3-opt1' or 'vdW-DF3-opt2'             %
     %                                                                      %
     %  * Unscreened and range-separated hybrid vdW-DF-cx functionals       %
     %    DOI: 10.1063/1.4986522 and 10.1088/1361-648X/ac2ad2               %
     %    use with input_dft = 'vdW-DF-cx0'    and 'vdW-DF-ahcx'            %
     %  * Unscreened and range-separated hybrid vdW-DF2-b86r functionals    %
     %    DOI: 10.1063/1.4986522 and DOI: 10.1103/PhysRevX.12.041003        %
     %    use with input_dft = 'vdW-DF2-br0' and 'vdW-DF2-ahbr'             %
     %                                                                      %
     %%%%%%%%%%%%%%%%%%%%%%%%%%%%%%%%%%%%%%%%%%%%%%%%%%%%%%%%%%%%%%%%%%%%%%%%


     Carrying out vdW-DF run using the following parameters:
     Nqs    =  20  Npoints =  1024  r_max =  100.000
     q_mesh =  0.00001000  0.04494208  0.09755937  0.15916263
               0.23128650  0.31572767  0.41458969  0.53033537
               0.66584808  0.82450364  1.01025438  1.22772762
               1.48234092  1.78043706  2.12944203  2.53805004
               3.01644009  3.57652955  4.23227104  5.00000000


     -----------------------------------------------
     Non-local corr. energy    =       0.55792995 Ry
     -----------------------------------------------

     Starting wfcs are   34 randomized atomic wfcs

     total cpu time spent up to now is       17.8 secs

     Self-consistent Calculation

     iteration #  1     ecut=    60.00 Ry     beta= 0.70
     Davidson diagonalization with overlap

---- Real-time Memory Report at c_bands before calling an iterative solver
            87 MiB given to the printing process from OS
             0 MiB allocation reported by mallinfo(arena+hblkhd)
          4921 MiB available memory on the node where the printing process lives
------------------
     ethr =  1.00E-02,  avg # of iterations =  2.0


     -----------------------------------------------
     Non-local corr. energy    =       0.62026956 Ry
     -----------------------------------------------


     total cpu time spent up to now is       22.6 secs

     total energy              =    -276.89089842 Ry
     estimated scf accuracy    <       4.54442206 Ry

     iteration #  2     ecut=    60.00 Ry     beta= 0.70
     Davidson diagonalization with overlap

---- Real-time Memory Report at c_bands before calling an iterative solver
           123 MiB given to the printing process from OS
             0 MiB allocation reported by mallinfo(arena+hblkhd)
          4771 MiB available memory on the node where the printing process lives
------------------
     ethr =  1.00E-02,  avg # of iterations =  7.6

     negative rho (up, down):  5.813E-07 0.000E+00


     -----------------------------------------------
     Non-local corr. energy    =       0.61565563 Ry
     -----------------------------------------------


     total cpu time spent up to now is       32.4 secs

     total energy              =    -273.36012959 Ry
     estimated scf accuracy    <      54.16984233 Ry

     iteration #  3     ecut=    60.00 Ry     beta= 0.70
     Davidson diagonalization with overlap

---- Real-time Memory Report at c_bands before calling an iterative solver
           124 MiB given to the printing process from OS
             0 MiB allocation reported by mallinfo(arena+hblkhd)
          4770 MiB available memory on the node where the printing process lives
------------------
     ethr =  1.00E-02,  avg # of iterations =  9.6


     -----------------------------------------------
     Non-local corr. energy    =       0.60200092 Ry
     -----------------------------------------------


     total cpu time spent up to now is       41.0 secs

     total energy              =    -274.04202474 Ry
     estimated scf accuracy    <      79.96127427 Ry

     iteration #  4     ecut=    60.00 Ry     beta= 0.70
     Davidson diagonalization with overlap

---- Real-time Memory Report at c_bands before calling an iterative solver
           124 MiB given to the printing process from OS
             0 MiB allocation reported by mallinfo(arena+hblkhd)
          4757 MiB available memory on the node where the printing process lives
------------------
     ethr =  1.00E-02,  avg # of iterations = 11.4


     -----------------------------------------------
     Non-local corr. energy    =       0.59626594 Ry
     -----------------------------------------------


     total cpu time spent up to now is       47.6 secs

     total energy              =    -278.91845736 Ry
     estimated scf accuracy    <       1.79848582 Ry

     iteration #  5     ecut=    60.00 Ry     beta= 0.70
     Davidson diagonalization with overlap

---- Real-time Memory Report at c_bands before calling an iterative solver
           125 MiB given to the printing process from OS
             0 MiB allocation reported by mallinfo(arena+hblkhd)
          4734 MiB available memory on the node where the printing process lives
------------------
     ethr =  4.28E-03,  avg # of iterations =  5.7


     -----------------------------------------------
     Non-local corr. energy    =       0.59612889 Ry
     -----------------------------------------------


     total cpu time spent up to now is       52.0 secs

     total energy              =    -279.28682071 Ry
     estimated scf accuracy    <       0.28784400 Ry

     iteration #  6     ecut=    60.00 Ry     beta= 0.70
     Davidson diagonalization with overlap

---- Real-time Memory Report at c_bands before calling an iterative solver
           126 MiB given to the printing process from OS
             0 MiB allocation reported by mallinfo(arena+hblkhd)
          4751 MiB available memory on the node where the printing process lives
------------------
     ethr =  6.85E-04,  avg # of iterations =  8.4


     -----------------------------------------------
     Non-local corr. energy    =       0.59652908 Ry
     -----------------------------------------------


     total cpu time spent up to now is       57.6 secs

     total energy              =    -279.40982183 Ry
     estimated scf accuracy    <       0.11007794 Ry

     iteration #  7     ecut=    60.00 Ry     beta= 0.70
     Davidson diagonalization with overlap

---- Real-time Memory Report at c_bands before calling an iterative solver
           126 MiB given to the printing process from OS
             0 MiB allocation reported by mallinfo(arena+hblkhd)
          4737 MiB available memory on the node where the printing process lives
------------------
     ethr =  2.62E-04,  avg # of iterations =  4.0


     -----------------------------------------------
     Non-local corr. energy    =       0.59762319 Ry
     -----------------------------------------------


     total cpu time spent up to now is       61.7 secs

     total energy              =    -279.40952621 Ry
     estimated scf accuracy    <       0.06778226 Ry

     iteration #  8     ecut=    60.00 Ry     beta= 0.70
     Davidson diagonalization with overlap

---- Real-time Memory Report at c_bands before calling an iterative solver
           126 MiB given to the printing process from OS
             0 MiB allocation reported by mallinfo(arena+hblkhd)
          4731 MiB available memory on the node where the printing process lives
------------------
     ethr =  1.61E-04,  avg # of iterations =  2.6


     -----------------------------------------------
     Non-local corr. energy    =       0.59904378 Ry
     -----------------------------------------------


     total cpu time spent up to now is       65.8 secs

     total energy              =    -279.40621489 Ry
     estimated scf accuracy    <       0.04532362 Ry

     iteration #  9     ecut=    60.00 Ry     beta= 0.70
     Davidson diagonalization with overlap

---- Real-time Memory Report at c_bands before calling an iterative solver
           127 MiB given to the printing process from OS
             0 MiB allocation reported by mallinfo(arena+hblkhd)
          4687 MiB available memory on the node where the printing process lives
------------------
     ethr =  1.08E-04,  avg # of iterations =  5.5


     -----------------------------------------------
     Non-local corr. energy    =       0.59925892 Ry
     -----------------------------------------------


     total cpu time spent up to now is       70.7 secs

     total energy              =    -279.40894405 Ry
     estimated scf accuracy    <       0.04445144 Ry

     iteration # 10     ecut=    60.00 Ry     beta= 0.70
     Davidson diagonalization with overlap

---- Real-time Memory Report at c_bands before calling an iterative solver
           128 MiB given to the printing process from OS
             0 MiB allocation reported by mallinfo(arena+hblkhd)
          4749 MiB available memory on the node where the printing process lives
------------------
     ethr =  1.06E-04,  avg # of iterations =  1.2


     -----------------------------------------------
     Non-local corr. energy    =       0.59974553 Ry
     -----------------------------------------------


     total cpu time spent up to now is       74.2 secs

     total energy              =    -279.40576527 Ry
     estimated scf accuracy    <       0.02461478 Ry

     iteration # 11     ecut=    60.00 Ry     beta= 0.70
     Davidson diagonalization with overlap

---- Real-time Memory Report at c_bands before calling an iterative solver
           128 MiB given to the printing process from OS
             0 MiB allocation reported by mallinfo(arena+hblkhd)
          4796 MiB available memory on the node where the printing process lives
------------------
     ethr =  5.86E-05,  avg # of iterations =  3.2


     -----------------------------------------------
     Non-local corr. energy    =       0.60005120 Ry
     -----------------------------------------------


     total cpu time spent up to now is       78.2 secs

     total energy              =    -279.40696319 Ry
     estimated scf accuracy    <       0.01043392 Ry

     iteration # 12     ecut=    60.00 Ry     beta= 0.70
     Davidson diagonalization with overlap

---- Real-time Memory Report at c_bands before calling an iterative solver
           128 MiB given to the printing process from OS
             0 MiB allocation reported by mallinfo(arena+hblkhd)
          4743 MiB available memory on the node where the printing process lives
------------------
     ethr =  2.48E-05,  avg # of iterations =  2.7


     -----------------------------------------------
     Non-local corr. energy    =       0.60137458 Ry
     -----------------------------------------------


     total cpu time spent up to now is       82.1 secs

     total energy              =    -279.40363016 Ry
     estimated scf accuracy    <       0.00867103 Ry

     iteration # 13     ecut=    60.00 Ry     beta= 0.70
     Davidson diagonalization with overlap

---- Real-time Memory Report at c_bands before calling an iterative solver
           128 MiB given to the printing process from OS
             0 MiB allocation reported by mallinfo(arena+hblkhd)
          4782 MiB available memory on the node where the printing process lives
------------------
     ethr =  2.06E-05,  avg # of iterations =  6.4


     -----------------------------------------------
     Non-local corr. energy    =       0.60113810 Ry
     -----------------------------------------------


     total cpu time spent up to now is       88.0 secs

     total energy              =    -279.40635238 Ry
     estimated scf accuracy    <       0.00571905 Ry

     iteration # 14     ecut=    60.00 Ry     beta= 0.70
     Davidson diagonalization with overlap

---- Real-time Memory Report at c_bands before calling an iterative solver
           128 MiB given to the printing process from OS
             0 MiB allocation reported by mallinfo(arena+hblkhd)
          4811 MiB available memory on the node where the printing process lives
------------------
     ethr =  1.36E-05,  avg # of iterations =  2.2


     -----------------------------------------------
     Non-local corr. energy    =       0.60159034 Ry
     -----------------------------------------------


     total cpu time spent up to now is       92.1 secs

     total energy              =    -279.40626150 Ry
     estimated scf accuracy    <       0.00306356 Ry

     iteration # 15     ecut=    60.00 Ry     beta= 0.70
     Davidson diagonalization with overlap

---- Real-time Memory Report at c_bands before calling an iterative solver
           128 MiB given to the printing process from OS
             0 MiB allocation reported by mallinfo(arena+hblkhd)
          4838 MiB available memory on the node where the printing process lives
------------------
     ethr =  7.29E-06,  avg # of iterations =  3.4


     -----------------------------------------------
     Non-local corr. energy    =       0.60129971 Ry
     -----------------------------------------------


     total cpu time spent up to now is       96.2 secs

     total energy              =    -279.40629138 Ry
     estimated scf accuracy    <       0.00077705 Ry

     iteration # 16     ecut=    60.00 Ry     beta= 0.70
     Davidson diagonalization with overlap

---- Real-time Memory Report at c_bands before calling an iterative solver
           128 MiB given to the printing process from OS
             0 MiB allocation reported by mallinfo(arena+hblkhd)
          4807 MiB available memory on the node where the printing process lives
------------------
     ethr =  1.85E-06,  avg # of iterations =  8.4


     -----------------------------------------------
     Non-local corr. energy    =       0.60132561 Ry
     -----------------------------------------------


     total cpu time spent up to now is      102.8 secs

     total energy              =    -279.40663018 Ry
     estimated scf accuracy    <       0.00105076 Ry

     iteration # 17     ecut=    60.00 Ry     beta= 0.70
     Davidson diagonalization with overlap

---- Real-time Memory Report at c_bands before calling an iterative solver
           128 MiB given to the printing process from OS
             0 MiB allocation reported by mallinfo(arena+hblkhd)
          4837 MiB available memory on the node where the printing process lives
------------------
     ethr =  1.85E-06,  avg # of iterations =  2.6


     -----------------------------------------------
     Non-local corr. energy    =       0.60129758 Ry
     -----------------------------------------------


     total cpu time spent up to now is      106.8 secs

     total energy              =    -279.40661290 Ry
     estimated scf accuracy    <       0.00057568 Ry

     iteration # 18     ecut=    60.00 Ry     beta= 0.70
     Davidson diagonalization with overlap

---- Real-time Memory Report at c_bands before calling an iterative solver
           128 MiB given to the printing process from OS
             0 MiB allocation reported by mallinfo(arena+hblkhd)
          4856 MiB available memory on the node where the printing process lives
------------------
     ethr =  1.37E-06,  avg # of iterations =  2.6


     -----------------------------------------------
     Non-local corr. energy    =       0.60130246 Ry
     -----------------------------------------------


     total cpu time spent up to now is      110.6 secs

     total energy              =    -279.40658533 Ry
     estimated scf accuracy    <       0.00030226 Ry

     iteration # 19     ecut=    60.00 Ry     beta= 0.70
     Davidson diagonalization with overlap

---- Real-time Memory Report at c_bands before calling an iterative solver
           128 MiB given to the printing process from OS
             0 MiB allocation reported by mallinfo(arena+hblkhd)
          4841 MiB available memory on the node where the printing process lives
------------------
     ethr =  7.20E-07,  avg # of iterations =  6.6


     -----------------------------------------------
     Non-local corr. energy    =       0.60128050 Ry
     -----------------------------------------------


     total cpu time spent up to now is      115.8 secs

     total energy              =    -279.40663856 Ry
     estimated scf accuracy    <       0.00010140 Ry

     iteration # 20     ecut=    60.00 Ry     beta= 0.70
     Davidson diagonalization with overlap

---- Real-time Memory Report at c_bands before calling an iterative solver
           128 MiB given to the printing process from OS
             0 MiB allocation reported by mallinfo(arena+hblkhd)
          4832 MiB available memory on the node where the printing process lives
------------------
     ethr =  2.41E-07,  avg # of iterations =  7.0


     -----------------------------------------------
     Non-local corr. energy    =       0.60127028 Ry
     -----------------------------------------------


     total cpu time spent up to now is      121.0 secs

     total energy              =    -279.40666432 Ry
     estimated scf accuracy    <       0.00003781 Ry

     iteration # 21     ecut=    60.00 Ry     beta= 0.70
     Davidson diagonalization with overlap

---- Real-time Memory Report at c_bands before calling an iterative solver
           128 MiB given to the printing process from OS
             0 MiB allocation reported by mallinfo(arena+hblkhd)
          4843 MiB available memory on the node where the printing process lives
------------------
     ethr =  9.00E-08,  avg # of iterations =  2.6


     -----------------------------------------------
     Non-local corr. energy    =       0.60127383 Ry
     -----------------------------------------------


     total cpu time spent up to now is      124.8 secs

     total energy              =    -279.40666364 Ry
     estimated scf accuracy    <       0.00002329 Ry

     iteration # 22     ecut=    60.00 Ry     beta= 0.70
     Davidson diagonalization with overlap

---- Real-time Memory Report at c_bands before calling an iterative solver
           128 MiB given to the printing process from OS
             0 MiB allocation reported by mallinfo(arena+hblkhd)
          4854 MiB available memory on the node where the printing process lives
------------------
     ethr =  5.55E-08,  avg # of iterations =  3.6


     -----------------------------------------------
     Non-local corr. energy    =       0.60127424 Ry
     -----------------------------------------------


     total cpu time spent up to now is      128.9 secs

     total energy              =    -279.40666426 Ry
     estimated scf accuracy    <       0.00000649 Ry

     iteration # 23     ecut=    60.00 Ry     beta= 0.70
     Davidson diagonalization with overlap

---- Real-time Memory Report at c_bands before calling an iterative solver
           128 MiB given to the printing process from OS
             0 MiB allocation reported by mallinfo(arena+hblkhd)
          4873 MiB available memory on the node where the printing process lives
------------------
     c_bands:  1 eigenvalues not converged
     ethr =  1.55E-08,  avg # of iterations =  9.0


     -----------------------------------------------
     Non-local corr. energy    =       0.60127344 Ry
     -----------------------------------------------


     total cpu time spent up to now is      135.3 secs

     total energy              =    -279.40666790 Ry
     estimated scf accuracy    <       0.00000477 Ry

     iteration # 24     ecut=    60.00 Ry     beta= 0.70
     Davidson diagonalization with overlap

---- Real-time Memory Report at c_bands before calling an iterative solver
           128 MiB given to the printing process from OS
             0 MiB allocation reported by mallinfo(arena+hblkhd)
          4861 MiB available memory on the node where the printing process lives
------------------
     c_bands:  1 eigenvalues not converged
     ethr =  1.13E-08,  avg # of iterations =  1.6


     -----------------------------------------------
     Non-local corr. energy    =       0.60127353 Ry
     -----------------------------------------------


     total cpu time spent up to now is      138.8 secs

     total energy              =    -279.40669139 Ry
     estimated scf accuracy    <       0.00013001 Ry

     iteration # 25     ecut=    60.00 Ry     beta= 0.70
     Davidson diagonalization with overlap

---- Real-time Memory Report at c_bands before calling an iterative solver
           128 MiB given to the printing process from OS
             0 MiB allocation reported by mallinfo(arena+hblkhd)
          4884 MiB available memory on the node where the printing process lives
------------------
     ethr =  1.13E-08,  avg # of iterations =  1.5


     -----------------------------------------------
     Non-local corr. energy    =       0.60127338 Ry
     -----------------------------------------------


     total cpu time spent up to now is      142.3 secs

     total energy              =    -279.40669489 Ry
     estimated scf accuracy    <       0.00013103 Ry

     iteration # 26     ecut=    60.00 Ry     beta= 0.70
     Davidson diagonalization with overlap

---- Real-time Memory Report at c_bands before calling an iterative solver
           128 MiB given to the printing process from OS
             0 MiB allocation reported by mallinfo(arena+hblkhd)
          4878 MiB available memory on the node where the printing process lives
------------------
     ethr =  1.13E-08,  avg # of iterations =  1.0


     -----------------------------------------------
     Non-local corr. energy    =       0.60127345 Ry
     -----------------------------------------------


     total cpu time spent up to now is      145.8 secs

     total energy              =    -279.40669442 Ry
     estimated scf accuracy    <       0.00013096 Ry

     iteration # 27     ecut=    60.00 Ry     beta= 0.70
     Davidson diagonalization with overlap

---- Real-time Memory Report at c_bands before calling an iterative solver
           128 MiB given to the printing process from OS
             0 MiB allocation reported by mallinfo(arena+hblkhd)
          4876 MiB available memory on the node where the printing process lives
------------------
     ethr =  1.13E-08,  avg # of iterations =  1.0


     -----------------------------------------------
     Non-local corr. energy    =       0.60127232 Ry
     -----------------------------------------------


     total cpu time spent up to now is      149.3 secs

     total energy              =    -279.40669405 Ry
     estimated scf accuracy    <       0.00012952 Ry

     iteration # 28     ecut=    60.00 Ry     beta= 0.70
     Davidson diagonalization with overlap

---- Real-time Memory Report at c_bands before calling an iterative solver
           128 MiB given to the printing process from OS
             0 MiB allocation reported by mallinfo(arena+hblkhd)
          4903 MiB available memory on the node where the printing process lives
------------------
     ethr =  1.13E-08,  avg # of iterations =  1.0


     -----------------------------------------------
     Non-local corr. energy    =       0.60126910 Ry
     -----------------------------------------------


     total cpu time spent up to now is      152.7 secs

     total energy              =    -279.40669283 Ry
     estimated scf accuracy    <       0.00012819 Ry

     iteration # 29     ecut=    60.00 Ry     beta= 0.70
     Davidson diagonalization with overlap

---- Real-time Memory Report at c_bands before calling an iterative solver
           128 MiB given to the printing process from OS
             0 MiB allocation reported by mallinfo(arena+hblkhd)
          4870 MiB available memory on the node where the printing process lives
------------------
     ethr =  1.13E-08,  avg # of iterations =  6.0


     -----------------------------------------------
     Non-local corr. energy    =       0.60127027 Ry
     -----------------------------------------------


     total cpu time spent up to now is      157.8 secs

     total energy              =    -279.40669399 Ry
     estimated scf accuracy    <       0.00012829 Ry

     iteration # 30     ecut=    60.00 Ry     beta= 0.70
     Davidson diagonalization with overlap

---- Real-time Memory Report at c_bands before calling an iterative solver
           128 MiB given to the printing process from OS
             0 MiB allocation reported by mallinfo(arena+hblkhd)
          4891 MiB available memory on the node where the printing process lives
------------------
     ethr =  1.13E-08,  avg # of iterations =  1.0


     -----------------------------------------------
     Non-local corr. energy    =       0.60127129 Ry
     -----------------------------------------------


     total cpu time spent up to now is      161.3 secs

     total energy              =    -279.40669387 Ry
     estimated scf accuracy    <       0.00012765 Ry

     iteration # 31     ecut=    60.00 Ry     beta= 0.70
     Davidson diagonalization with overlap

---- Real-time Memory Report at c_bands before calling an iterative solver
           128 MiB given to the printing process from OS
             0 MiB allocation reported by mallinfo(arena+hblkhd)
          4874 MiB available memory on the node where the printing process lives
------------------
     ethr =  1.13E-08,  avg # of iterations =  1.0


     -----------------------------------------------
     Non-local corr. energy    =       0.60127154 Ry
     -----------------------------------------------


     total cpu time spent up to now is      164.7 secs

     total energy              =    -279.40669369 Ry
     estimated scf accuracy    <       0.00012694 Ry

     iteration # 32     ecut=    60.00 Ry     beta= 0.70
     Davidson diagonalization with overlap

---- Real-time Memory Report at c_bands before calling an iterative solver
           128 MiB given to the printing process from OS
             0 MiB allocation reported by mallinfo(arena+hblkhd)
          4880 MiB available memory on the node where the printing process lives
------------------
     ethr =  1.13E-08,  avg # of iterations =  2.9


     -----------------------------------------------
     Non-local corr. energy    =       0.60120692 Ry
     -----------------------------------------------


     total cpu time spent up to now is      168.6 secs

     total energy              =    -279.40679665 Ry
     estimated scf accuracy    <       0.00012576 Ry

     iteration # 33     ecut=    60.00 Ry     beta= 0.70
     Davidson diagonalization with overlap

---- Real-time Memory Report at c_bands before calling an iterative solver
           128 MiB given to the printing process from OS
             0 MiB allocation reported by mallinfo(arena+hblkhd)
          4902 MiB available memory on the node where the printing process lives
------------------
     c_bands:  1 eigenvalues not converged
     c_bands:  2 eigenvalues not converged
     c_bands:  4 eigenvalues not converged
     c_bands:  2 eigenvalues not converged
     c_bands:  5 eigenvalues not converged
     c_bands:  1 eigenvalues not converged
     c_bands:  1 eigenvalues not converged
     c_bands:  1 eigenvalues not converged
     c_bands:  1 eigenvalues not converged
     c_bands:  3 eigenvalues not converged
     c_bands:  3 eigenvalues not converged
     c_bands:  2 eigenvalues not converged
     c_bands:  4 eigenvalues not converged
     c_bands:  1 eigenvalues not converged
     c_bands:  1 eigenvalues not converged
     c_bands:  4 eigenvalues not converged
     c_bands:  4 eigenvalues not converged
     c_bands:  1 eigenvalues not converged
     c_bands:  1 eigenvalues not converged
     c_bands:  1 eigenvalues not converged
     c_bands:  1 eigenvalues not converged
     c_bands:  2 eigenvalues not converged
     c_bands:  2 eigenvalues not converged
     c_bands:  1 eigenvalues not converged
     c_bands:  1 eigenvalues not converged
     c_bands:  1 eigenvalues not converged
     c_bands:  1 eigenvalues not converged
     c_bands:  1 eigenvalues not converged
     c_bands:  1 eigenvalues not converged
     c_bands:  1 eigenvalues not converged
     c_bands:  1 eigenvalues not converged
     ethr =  1.13E-08,  avg # of iterations = 19.9


     -----------------------------------------------
     Non-local corr. energy    =       0.60123907 Ry
     -----------------------------------------------


     total cpu time spent up to now is      187.9 secs

     total energy              =    -279.40599289 Ry
     estimated scf accuracy    <       0.01304968 Ry

     iteration # 34     ecut=    60.00 Ry     beta= 0.70
     Davidson diagonalization with overlap

---- Real-time Memory Report at c_bands before calling an iterative solver
           128 MiB given to the printing process from OS
             0 MiB allocation reported by mallinfo(arena+hblkhd)
          4934 MiB available memory on the node where the printing process lives
------------------
     c_bands:  2 eigenvalues not converged
     c_bands:  1 eigenvalues not converged
     c_bands:  1 eigenvalues not converged
     c_bands:  1 eigenvalues not converged
     c_bands:  2 eigenvalues not converged
     c_bands:  1 eigenvalues not converged
     c_bands:  1 eigenvalues not converged
     c_bands:  1 eigenvalues not converged
     c_bands:  3 eigenvalues not converged
     c_bands:  1 eigenvalues not converged
     c_bands:  1 eigenvalues not converged
     c_bands:  1 eigenvalues not converged
     c_bands:  2 eigenvalues not converged
     c_bands:  2 eigenvalues not converged
     c_bands:  2 eigenvalues not converged
     c_bands:  2 eigenvalues not converged
     c_bands:  1 eigenvalues not converged
     c_bands:  1 eigenvalues not converged
     c_bands:  1 eigenvalues not converged
     c_bands:  1 eigenvalues not converged
     c_bands:  1 eigenvalues not converged
     c_bands:  1 eigenvalues not converged
     c_bands:  1 eigenvalues not converged
     c_bands:  1 eigenvalues not converged
     c_bands:  1 eigenvalues not converged
     c_bands:  1 eigenvalues not converged
     c_bands:  1 eigenvalues not converged
     ethr =  1.13E-08,  avg # of iterations = 19.4


     -----------------------------------------------
     Non-local corr. energy    =       0.60127820 Ry
     -----------------------------------------------


     total cpu time spent up to now is      206.2 secs

     total energy              =    -279.40665747 Ry
     estimated scf accuracy    <       0.00062308 Ry

     iteration # 35     ecut=    60.00 Ry     beta= 0.70
     Davidson diagonalization with overlap

---- Real-time Memory Report at c_bands before calling an iterative solver
           128 MiB given to the printing process from OS
             0 MiB allocation reported by mallinfo(arena+hblkhd)
          4981 MiB available memory on the node where the printing process lives
------------------
     c_bands:  1 eigenvalues not converged
     c_bands:  1 eigenvalues not converged
     c_bands:  1 eigenvalues not converged
     c_bands:  1 eigenvalues not converged
     c_bands:  1 eigenvalues not converged
     ethr =  1.13E-08,  avg # of iterations = 14.5


     -----------------------------------------------
     Non-local corr. energy    =       0.60127414 Ry
     -----------------------------------------------


     total cpu time spent up to now is      216.1 secs

     total energy              =    -279.40665175 Ry
     estimated scf accuracy    <       0.00012920 Ry

     iteration # 36     ecut=    60.00 Ry     beta= 0.70
     Davidson diagonalization with overlap

---- Real-time Memory Report at c_bands before calling an iterative solver
           128 MiB given to the printing process from OS
             0 MiB allocation reported by mallinfo(arena+hblkhd)
          4986 MiB available memory on the node where the printing process lives
------------------
     ethr =  1.13E-08,  avg # of iterations = 12.3


     -----------------------------------------------
     Non-local corr. energy    =       0.60127236 Ry
     -----------------------------------------------


     total cpu time spent up to now is      225.0 secs

     total energy              =    -279.40666576 Ry
     estimated scf accuracy    <       0.00000485 Ry

     iteration # 37     ecut=    60.00 Ry     beta= 0.70
     Davidson diagonalization with overlap

---- Real-time Memory Report at c_bands before calling an iterative solver
           128 MiB given to the printing process from OS
             0 MiB allocation reported by mallinfo(arena+hblkhd)
          4974 MiB available memory on the node where the printing process lives
------------------
     ethr =  1.13E-08,  avg # of iterations =  6.9


     -----------------------------------------------
     Non-local corr. energy    =       0.60127360 Ry
     -----------------------------------------------


     total cpu time spent up to now is      230.3 secs

     total energy              =    -279.40666617 Ry
     estimated scf accuracy    <       0.00000461 Ry

     iteration # 38     ecut=    60.00 Ry     beta= 0.70
     Davidson diagonalization with overlap

---- Real-time Memory Report at c_bands before calling an iterative solver
           128 MiB given to the printing process from OS
             0 MiB allocation reported by mallinfo(arena+hblkhd)
          4992 MiB available memory on the node where the printing process lives
------------------
     ethr =  1.10E-08,  avg # of iterations =  2.0


     -----------------------------------------------
     Non-local corr. energy    =       0.60127168 Ry
     -----------------------------------------------


     total cpu time spent up to now is      234.1 secs

     total energy              =    -279.40666620 Ry
     estimated scf accuracy    <       0.00000194 Ry

     iteration # 39     ecut=    60.00 Ry     beta= 0.70
     Davidson diagonalization with overlap

---- Real-time Memory Report at c_bands before calling an iterative solver
           128 MiB given to the printing process from OS
             0 MiB allocation reported by mallinfo(arena+hblkhd)
          5000 MiB available memory on the node where the printing process lives
------------------
     ethr =  4.63E-09,  avg # of iterations =  3.8


     -----------------------------------------------
     Non-local corr. energy    =       0.60127001 Ry
     -----------------------------------------------


     total cpu time spent up to now is      238.1 secs

     End of self-consistent calculation

          k = 0.0000 0.0000 0.0000 (  9219 PWs)   bands (ev):

   -71.6905 -43.0489 -43.0382 -42.7335 -17.7564 -17.6794 -15.0015 -13.7806
    -7.0540  -4.8044  -3.0979  -3.0941  -2.8530  -2.8530  -2.7141  -2.7122
    -2.7102  -1.2944   0.4354   0.4368   0.7429

     occupation numbers 
     1.0000   1.0000   1.0000   1.0000   1.0000   1.0000   1.0000   1.0000
     1.0000   1.0000   1.0000   1.0000   1.0000   1.0000   1.0000   1.0000
     1.0000   1.0000   1.0000   1.0000   1.0000

          k =-0.0000 0.1443 0.0000 (  9255 PWs)   bands (ev):

   -71.6870 -43.0766 -43.0501 -42.7280 -17.5044 -17.4340 -14.7997 -13.7196
    -6.8281  -5.0238  -3.9528  -3.9318  -3.2197  -3.0997  -2.8175  -2.7076
    -2.5039  -1.1024  -0.8086  -0.2756   0.8716

     occupation numbers 
     1.0000   1.0000   1.0000   1.0000   1.0000   1.0000   1.0000   1.0000
     1.0000   1.0000   1.0000   1.0000   1.0000   1.0000   1.0000   1.0000
     1.0000   1.0000   1.0000   1.0000   1.0000

          k =-0.0000 0.2887 0.0000 (  9202 PWs)   bands (ev):

   -71.6758 -43.1520 -43.0680 -42.7137 -16.7939 -16.7425 -14.2922 -13.5892
    -6.6750  -6.1745  -5.4678  -5.0713  -3.6732  -3.6182  -3.0529  -2.5393
    -2.4167  -1.8143  -1.3282  -0.8283   0.6040

     occupation numbers 
     1.0000   1.0000   1.0000   1.0000   1.0000   1.0000   1.0000   1.0000
     1.0000   1.0000   1.0000   1.0000   1.0000   1.0000   1.0000   1.0000
     1.0000   1.0000   1.0000   1.0000   1.0000

          k =-0.0000 0.4330 0.0000 (  9238 PWs)   bands (ev):

   -71.6664 -43.2281 -43.0858 -42.6998 -15.8204 -15.7971 -13.8375 -13.5083
    -8.0853  -8.0024  -5.5326  -4.6540  -4.2248  -4.1053  -4.0602  -2.8797
    -2.5332  -1.8354  -1.1452  -0.8684   0.3070

     occupation numbers 
     1.0000   1.0000   1.0000   1.0000   1.0000   1.0000   1.0000   1.0000
     1.0000   1.0000   1.0000   1.0000   1.0000   1.0000   1.0000   1.0000
     1.0000   1.0000   1.0000   1.0000   1.0000

          k = 0.0000-0.5773 0.0000 (  9270 PWs)   bands (ev):

   -71.6629 -43.2595 -43.0933 -42.6941 -15.2303 -15.2217 -13.8065 -13.5075
    -8.8112  -8.7787  -5.7266  -4.2726  -4.2604  -4.2264  -4.1285  -3.7241
    -2.5945  -1.7571  -0.9004  -0.7542   0.1898

     occupation numbers 
     1.0000   1.0000   1.0000   1.0000   1.0000   1.0000   1.0000   1.0000
     1.0000   1.0000   1.0000   1.0000   1.0000   1.0000   1.0000   1.0000
     1.0000   1.0000   1.0000   1.0000   1.0000

          k = 0.1250 0.2165 0.0000 (  9237 PWs)   bands (ev):

   -71.6795 -43.1306 -43.0624 -42.7179 -17.0219 -16.9644 -14.4419 -13.6240
    -6.5469  -5.5812  -5.0404  -4.9712  -3.7826  -3.7187  -2.8832  -2.5045
    -2.3757  -1.4702  -1.3683  -0.9694   0.9133

     occupation numbers 
     1.0000   1.0000   1.0000   1.0000   1.0000   1.0000   1.0000   1.0000
     1.0000   1.0000   1.0000   1.0000   1.0000   1.0000   1.0000   1.0000
     1.0000   1.0000   1.0000   1.0000   1.0000

          k = 0.1250 0.3608 0.0000 (  9206 PWs)   bands (ev):

   -71.6688 -43.1968 -43.0895 -42.7038 -16.1633 -16.1302 -13.9336 -13.5271
    -7.3215  -7.1665  -5.3821  -4.9910  -4.6173  -4.5480  -3.7080  -2.6690
    -2.0974  -1.8826  -1.5197  -1.3164   0.8010

     occupation numbers 
     1.0000   1.0000   1.0000   1.0000   1.0000   1.0000   1.0000   1.0000
     1.0000   1.0000   1.0000   1.0000   1.0000   1.0000   1.0000   1.0000
     1.0000   1.0000   1.0000   1.0000   1.0000

          k = 0.1250-0.6495 0.0000 (  9237 PWs)   bands (ev):

   -71.6624 -43.2431 -43.1097 -42.6939 -15.2869 -15.2784 -13.7281 -13.5069
    -8.4506  -8.4272  -5.6251  -5.0851  -4.8335  -4.3145  -4.2094  -3.5413
    -2.3242  -1.7112  -1.6233  -1.0298   0.7916

     occupation numbers 
     1.0000   1.0000   1.0000   1.0000   1.0000   1.0000   1.0000   1.0000
     1.0000   1.0000   1.0000   1.0000   1.0000   1.0000   1.0000   1.0000
     1.0000   1.0000   1.0000   1.0000   1.0000

          k = 0.2500-0.7217 0.0000 (  9223 PWs)   bands (ev):

   -71.6622 -43.2227 -43.1303 -42.6939 -15.3400 -15.3307 -13.6283 -13.5371
    -7.9037  -7.8776  -6.1211  -5.9698  -4.9179  -4.3755  -4.2776  -3.1994
    -2.6297  -1.8608  -1.5077  -1.4454   1.1135

     occupation numbers 
     1.0000   1.0000   1.0000   1.0000   1.0000   1.0000   1.0000   1.0000
     1.0000   1.0000   1.0000   1.0000   1.0000   1.0000   1.0000   1.0000
     1.0000   1.0000   1.0000   1.0000   1.0000

          k = 0.2500-0.5773 0.0000 (  9234 PWs)   bands (ev):

   -71.6594 -43.2200 -43.1604 -42.6899 -14.8769 -14.8761 -13.6335 -13.5497
    -8.1343  -8.1291  -6.6795  -6.5987  -4.7453  -4.3075  -3.9119  -3.8491
    -2.9584  -2.0812  -1.4671  -1.2675   1.3564

     occupation numbers 
     1.0000   1.0000   1.0000   1.0000   1.0000   1.0000   1.0000   1.0000
     1.0000   1.0000   1.0000   1.0000   1.0000   1.0000   1.0000   1.0000
     1.0000   1.0000   1.0000   1.0000   1.0000

          k =-0.1250 0.0722 0.0000 (  9255 PWs)   bands (ev):

   -71.6870 -43.0714 -43.0552 -42.7281 -17.5044 -17.4340 -14.7997 -13.7196
    -6.8282  -5.0242  -3.9529  -3.9318  -3.2190  -3.0997  -2.8191  -2.7057
    -2.5039  -1.1024  -0.8084  -0.2771   0.8754

     occupation numbers 
     1.0000   1.0000   1.0000   1.0000   1.0000   1.0000   1.0000   1.0000
     1.0000   1.0000   1.0000   1.0000   1.0000   1.0000   1.0000   1.0000
     1.0000   1.0000   1.0000   1.0000   1.0000

          k = 0.1250 0.0722 0.0000 (  9255 PWs)   bands (ev):

   -71.6870 -43.0804 -43.0462 -42.7280 -17.5044 -17.4340 -14.7997 -13.7196
    -6.8281  -5.0234  -3.9528  -3.9318  -3.2203  -3.0997  -2.8158  -2.7094
    -2.5040  -1.1023  -0.8087  -0.2741   0.8680

     occupation numbers 
     1.0000   1.0000   1.0000   1.0000   1.0000   1.0000   1.0000   1.0000
     1.0000   1.0000   1.0000   1.0000   1.0000   1.0000   1.0000   1.0000
     1.0000   1.0000   1.0000   1.0000   1.0000

          k =-0.2500 0.1443 0.0000 (  9202 PWs)   bands (ev):

   -71.6758 -43.1471 -43.0727 -42.7139 -16.7938 -16.7425 -14.2922 -13.5892
    -6.6750  -6.1747  -5.4684  -5.0714  -3.6731  -3.6182  -3.0530  -2.5371
    -2.4170  -1.8152  -1.3283  -0.8295   0.6070

     occupation numbers 
     1.0000   1.0000   1.0000   1.0000   1.0000   1.0000   1.0000   1.0000
     1.0000   1.0000   1.0000   1.0000   1.0000   1.0000   1.0000   1.0000
     1.0000   1.0000   1.0000   1.0000   1.0000

          k = 0.2500 0.1443 0.0000 (  9202 PWs)   bands (ev):

   -71.6758 -43.1565 -43.0635 -42.7137 -16.7939 -16.7425 -14.2923 -13.5892
    -6.6749  -6.1743  -5.4672  -5.0713  -3.6734  -3.6182  -3.0528  -2.5414
    -2.4163  -1.8135  -1.3281  -0.8271   0.6010

     occupation numbers 
     1.0000   1.0000   1.0000   1.0000   1.0000   1.0000   1.0000   1.0000
     1.0000   1.0000   1.0000   1.0000   1.0000   1.0000   1.0000   1.0000
     1.0000   1.0000   1.0000   1.0000   1.0000

          k =-0.3750 0.2165 0.0000 (  9238 PWs)   bands (ev):

   -71.6664 -43.2233 -43.0904 -42.7000 -15.8204 -15.7971 -13.8376 -13.5082
    -8.0853  -8.0025  -5.5334  -4.6537  -4.2256  -4.1052  -4.0602  -2.8804
    -2.5318  -1.8353  -1.1455  -0.8684   0.3094

     occupation numbers 
     1.0000   1.0000   1.0000   1.0000   1.0000   1.0000   1.0000   1.0000
     1.0000   1.0000   1.0000   1.0000   1.0000   1.0000   1.0000   1.0000
     1.0000   1.0000   1.0000   1.0000   1.0000

          k = 0.3750 0.2165 0.0000 (  9238 PWs)   bands (ev):

   -71.6664 -43.2327 -43.0812 -42.6997 -15.8204 -15.7971 -13.8375 -13.5085
    -8.0852  -8.0023  -5.5318  -4.6542  -4.2240  -4.1054  -4.0603  -2.8790
    -2.5345  -1.8355  -1.1449  -0.8683   0.3046

     occupation numbers 
     1.0000   1.0000   1.0000   1.0000   1.0000   1.0000   1.0000   1.0000
     1.0000   1.0000   1.0000   1.0000   1.0000   1.0000   1.0000   1.0000
     1.0000   1.0000   1.0000   1.0000   1.0000

          k = 0.5000-0.2887 0.0000 (  9270 PWs)   bands (ev):

   -71.6629 -43.2547 -43.0979 -42.6943 -15.2302 -15.2217 -13.8067 -13.5072
    -8.8113  -8.7787  -5.7270  -4.2725  -4.2606  -4.2264  -4.1302  -3.7243
    -2.5935  -1.7567  -0.9006  -0.7537   0.1919

     occupation numbers 
     1.0000   1.0000   1.0000   1.0000   1.0000   1.0000   1.0000   1.0000
     1.0000   1.0000   1.0000   1.0000   1.0000   1.0000   1.0000   1.0000
     1.0000   1.0000   1.0000   1.0000   1.0000

          k =-0.5000-0.2887 0.0000 (  9270 PWs)   bands (ev):

   -71.6629 -43.2642 -43.0887 -42.6940 -15.2303 -15.2218 -13.8064 -13.5078
    -8.8111  -8.7788  -5.7262  -4.2726  -4.2601  -4.2265  -4.1269  -3.7240
    -2.5955  -1.7575  -0.9002  -0.7548   0.1878

     occupation numbers 
     1.0000   1.0000   1.0000   1.0000   1.0000   1.0000   1.0000   1.0000
     1.0000   1.0000   1.0000   1.0000   1.0000   1.0000   1.0000   1.0000
     1.0000   1.0000   1.0000   1.0000   1.0000

          k =-0.1250 0.2165 0.0000 (  9237 PWs)   bands (ev):

   -71.6795 -43.1214 -43.0715 -42.7181 -17.0219 -16.9644 -14.4418 -13.6240
    -6.5471  -5.5819  -5.0405  -4.9722  -3.7827  -3.7187  -2.8803  -2.5061
    -2.3750  -1.4715  -1.3673  -0.9668   0.9058

     occupation numbers 
     1.0000   1.0000   1.0000   1.0000   1.0000   1.0000   1.0000   1.0000
     1.0000   1.0000   1.0000   1.0000   1.0000   1.0000   1.0000   1.0000
     1.0000   1.0000   1.0000   1.0000   1.0000

          k = 0.2500-0.0000 0.0000 (  9237 PWs)   bands (ev):

   -71.6795 -43.1265 -43.0665 -42.7181 -17.0219 -16.9644 -14.4418 -13.6240
    -6.5470  -5.5815  -5.0404  -4.9717  -3.7827  -3.7187  -2.8818  -2.5053
    -2.3753  -1.4708  -1.3678  -0.9681   0.9095

     occupation numbers 
     1.0000   1.0000   1.0000   1.0000   1.0000   1.0000   1.0000   1.0000
     1.0000   1.0000   1.0000   1.0000   1.0000   1.0000   1.0000   1.0000
     1.0000   1.0000   1.0000   1.0000   1.0000

          k =-0.1250 0.3608 0.0000 (  9206 PWs)   bands (ev):

   -71.6689 -43.1916 -43.0946 -42.7040 -16.1633 -16.1301 -13.9335 -13.5272
    -7.3215  -7.1666  -5.3824  -4.9922  -4.6176  -4.5481  -3.7089  -2.6658
    -2.0977  -1.8824  -1.5187  -1.3154   0.7928

     occupation numbers 
     1.0000   1.0000   1.0000   1.0000   1.0000   1.0000   1.0000   1.0000
     1.0000   1.0000   1.0000   1.0000   1.0000   1.0000   1.0000   1.0000
     1.0000   1.0000   1.0000   1.0000   1.0000

          k =-0.2500 0.2887 0.0000 (  9206 PWs)   bands (ev):

   -71.6689 -43.1886 -43.0975 -42.7041 -16.1633 -16.1301 -13.9335 -13.5271
    -7.3215  -7.1666  -5.3832  -4.9916  -4.6177  -4.5481  -3.7089  -2.6661
    -2.0967  -1.8829  -1.5188  -1.3158   0.7950

     occupation numbers 
     1.0000   1.0000   1.0000   1.0000   1.0000   1.0000   1.0000   1.0000
     1.0000   1.0000   1.0000   1.0000   1.0000   1.0000   1.0000   1.0000
     1.0000   1.0000   1.0000   1.0000   1.0000

          k = 0.3750 0.0722 0.0000 (  9206 PWs)   bands (ev):

   -71.6688 -43.1970 -43.0893 -42.7039 -16.1633 -16.1302 -13.9335 -13.5272
    -7.3215  -7.1664  -5.3815  -4.9922  -4.6174  -4.5480  -3.7085  -2.6672
    -2.0985  -1.8820  -1.5191  -1.3156   0.7946

     occupation numbers 
     1.0000   1.0000   1.0000   1.0000   1.0000   1.0000   1.0000   1.0000
     1.0000   1.0000   1.0000   1.0000   1.0000   1.0000   1.0000   1.0000
     1.0000   1.0000   1.0000   1.0000   1.0000

          k =-0.2500-0.2887 0.0000 (  9206 PWs)   bands (ev):

   -71.6688 -43.1994 -43.0870 -42.7038 -16.1634 -16.1302 -13.9336 -13.5271
    -7.3215  -7.1664  -5.3813  -4.9916  -4.6173  -4.5480  -3.7080  -2.6688
    -2.0984  -1.8821  -1.5196  -1.3161   0.7988

     occupation numbers 
     1.0000   1.0000   1.0000   1.0000   1.0000   1.0000   1.0000   1.0000
     1.0000   1.0000   1.0000   1.0000   1.0000   1.0000   1.0000   1.0000
     1.0000   1.0000   1.0000   1.0000   1.0000

          k = 0.3750-0.0722 0.0000 (  9206 PWs)   bands (ev):

   -71.6689 -43.1916 -43.0946 -42.7040 -16.1633 -16.1301 -13.9336 -13.5271
    -7.3215  -7.1666  -5.3830  -4.9909  -4.6175  -4.5481  -3.7085  -2.6677
    -2.0965  -1.8830  -1.5193  -1.3163   0.7991

     occupation numbers 
     1.0000   1.0000   1.0000   1.0000   1.0000   1.0000   1.0000   1.0000
     1.0000   1.0000   1.0000   1.0000   1.0000   1.0000   1.0000   1.0000
     1.0000   1.0000   1.0000   1.0000   1.0000

          k =-0.1250-0.6495 0.0000 (  9237 PWs)   bands (ev):

   -71.6624 -43.2414 -43.1113 -42.6939 -15.2869 -15.2784 -13.7279 -13.5070
    -8.4506  -8.4273  -5.6254  -5.0851  -4.8336  -4.3151  -4.2095  -3.5409
    -2.3236  -1.7112  -1.6221  -1.0297   0.7872

     occupation numbers 
     1.0000   1.0000   1.0000   1.0000   1.0000   1.0000   1.0000   1.0000
     1.0000   1.0000   1.0000   1.0000   1.0000   1.0000   1.0000   1.0000
     1.0000   1.0000   1.0000   1.0000   1.0000

          k = 0.6250-0.2165 0.0000 (  9237 PWs)   bands (ev):

   -71.6624 -43.2370 -43.1156 -42.6941 -15.2869 -15.2784 -13.7281 -13.5067
    -8.4506  -8.4273  -5.6257  -5.0851  -4.8336  -4.3160  -4.2095  -3.5414
    -2.3232  -1.7110  -1.6212  -1.0300   0.7892

     occupation numbers 
     1.0000   1.0000   1.0000   1.0000   1.0000   1.0000   1.0000   1.0000
     1.0000   1.0000   1.0000   1.0000   1.0000   1.0000   1.0000   1.0000
     1.0000   1.0000   1.0000   1.0000   1.0000

          k =-0.5000-0.4330 0.0000 (  9237 PWs)   bands (ev):

   -71.6624 -43.2464 -43.1064 -42.6938 -15.2869 -15.2784 -13.7278 -13.5072
    -8.4505  -8.4272  -5.6250  -5.0852  -4.8335  -4.3140  -4.2094  -3.5405
    -2.3244  -1.7114  -1.6236  -1.0295   0.7874

     occupation numbers 
     1.0000   1.0000   1.0000   1.0000   1.0000   1.0000   1.0000   1.0000
     1.0000   1.0000   1.0000   1.0000   1.0000   1.0000   1.0000   1.0000
     1.0000   1.0000   1.0000   1.0000   1.0000

          k = 0.6250 0.2165 0.0000 (  9237 PWs)   bands (ev):

   -71.6624 -43.2472 -43.1057 -42.6938 -15.2869 -15.2784 -13.7279 -13.5071
    -8.4505  -8.4272  -5.6248  -5.0852  -4.8335  -4.3136  -4.2094  -3.5407
    -2.3247  -1.7114  -1.6242  -1.0296   0.7896

     occupation numbers 
     1.0000   1.0000   1.0000   1.0000   1.0000   1.0000   1.0000   1.0000
     1.0000   1.0000   1.0000   1.0000   1.0000   1.0000   1.0000   1.0000
     1.0000   1.0000   1.0000   1.0000   1.0000

          k =-0.5000 0.4330 0.0000 (  9237 PWs)   bands (ev):

   -71.6624 -43.2379 -43.1147 -42.6941 -15.2869 -15.2784 -13.7282 -13.5067
    -8.4507  -8.4273  -5.6256  -5.0851  -4.8335  -4.3157  -4.2094  -3.5416
    -2.3235  -1.7110  -1.6218  -1.0300   0.7914

     occupation numbers 
     1.0000   1.0000   1.0000   1.0000   1.0000   1.0000   1.0000   1.0000
     1.0000   1.0000   1.0000   1.0000   1.0000   1.0000   1.0000   1.0000
     1.0000   1.0000   1.0000   1.0000   1.0000

          k =-0.2500-0.7217 0.0000 (  9223 PWs)   bands (ev):

   -71.6622 -43.2135 -43.1393 -42.6941 -15.3399 -15.3307 -13.6280 -13.5373
    -7.9036  -7.8778  -6.1212  -5.9698  -4.9190  -4.3760  -4.2790  -3.1993
    -2.6268  -1.8592  -1.5080  -1.4456   1.1058

     occupation numbers 
     1.0000   1.0000   1.0000   1.0000   1.0000   1.0000   1.0000   1.0000
     1.0000   1.0000   1.0000   1.0000   1.0000   1.0000   1.0000   1.0000
     1.0000   1.0000   1.0000   1.0000   1.0000

          k =-0.5000-0.5773 0.0000 (  9223 PWs)   bands (ev):

   -71.6622 -43.2184 -43.1345 -42.6940 -15.3399 -15.3307 -13.6281 -13.5372
    -7.9036  -7.8777  -6.1211  -5.9698  -4.9185  -4.3757  -4.2783  -3.1993
    -2.6283  -1.8600  -1.5078  -1.4455   1.1096

     occupation numbers 
     1.0000   1.0000   1.0000   1.0000   1.0000   1.0000   1.0000   1.0000
     1.0000   1.0000   1.0000   1.0000   1.0000   1.0000   1.0000   1.0000
     1.0000   1.0000   1.0000   1.0000   1.0000

          k = 0.6250-0.0722 0.0000 (  9234 PWs)   bands (ev):

   -71.6595 -43.2151 -43.1653 -42.6899 -14.8769 -14.8761 -13.6337 -13.5495
    -8.1344  -8.1290  -6.6796  -6.5986  -4.7453  -4.3081  -3.9112  -3.8505
    -2.9575  -2.0810  -1.4666  -1.2677   1.3561

     occupation numbers 
     1.0000   1.0000   1.0000   1.0000   1.0000   1.0000   1.0000   1.0000
     1.0000   1.0000   1.0000   1.0000   1.0000   1.0000   1.0000   1.0000
     1.0000   1.0000   1.0000   1.0000   1.0000

          k =-0.3750-0.5052 0.0000 (  9234 PWs)   bands (ev):

   -71.6594 -43.2244 -43.1561 -42.6898 -14.8769 -14.8761 -13.6334 -13.5499
    -8.1341  -8.1291  -6.6795  -6.5987  -4.7452  -4.3069  -3.9126  -3.8478
    -2.9593  -2.0814  -1.4677  -1.2673   1.3568

     occupation numbers 
     1.0000   1.0000   1.0000   1.0000   1.0000   1.0000   1.0000   1.0000
     1.0000   1.0000   1.0000   1.0000   1.0000   1.0000   1.0000   1.0000
     1.0000   1.0000   1.0000   1.0000   1.0000

     highest occupied level (ev):     1.3568

!    total energy              =    -279.40666598 Ry
     estimated scf accuracy    <       0.00000042 Ry

     The total energy is the sum of the following terms:
     one-electron contribution =   -3141.42598802 Ry
     hartree contribution      =    1578.97427337 Ry
     xc contribution           =     -58.65185602 Ry
     ewald contribution        =    1341.69690469 Ry

     convergence has been achieved in  39 iterations

     Writing all to output data dir ./crsi2n4.save/ :
     XML data file, charge density, pseudopotentials, collected wavefunctions

     init_run     :     17.57s CPU     17.66s WALL (       1 calls)
     electrons    :    215.16s CPU    220.35s WALL (       1 calls)

     Called by init_run:
     wfcinit      :      2.29s CPU      2.34s WALL (       1 calls)
     wfcinit:atom :      0.02s CPU      0.02s WALL (      34 calls)
     wfcinit:wfcr :      2.12s CPU      2.18s WALL (      34 calls)
     potinit      :     15.07s CPU     15.10s WALL (       1 calls)
     hinit0       :      0.19s CPU      0.19s WALL (       1 calls)

     Called by electrons:
     c_bands      :    195.09s CPU    198.90s WALL (      39 calls)
     sum_band     :     14.64s CPU     15.26s WALL (      39 calls)
     v_of_rho     :     20.12s CPU     20.88s WALL (      40 calls)
     v_h          :      0.04s CPU      0.05s WALL (      40 calls)
     v_xc         :     20.08s CPU     20.84s WALL (      40 calls)
     mix_rho      :      0.20s CPU      0.21s WALL (      39 calls)
     vdW_kernel   :     14.86s CPU     14.86s WALL (       1 calls)

     Called by c_bands:
     init_us_2    :      3.18s CPU      3.22s WALL (    2686 calls)
     cegterg      :    188.00s CPU    191.79s WALL (    1326 calls)

     Called by sum_band:
     sum_band:wei :      0.00s CPU      0.00s WALL (      39 calls)
     sum_band:loo :     14.58s CPU     15.20s WALL (      39 calls)
     sum_band:buf :      0.20s CPU      0.21s WALL (    1326 calls)
     sum_band:ini :      1.64s CPU      1.66s WALL (    1326 calls)

     Called by *egterg:
     cdiaghg      :      4.38s CPU      4.39s WALL (    8609 calls)
     cegterg:over :     15.52s CPU     15.59s WALL (    7283 calls)
     cegterg:upda :     10.47s CPU     10.48s WALL (    7283 calls)
     cegterg:last :     19.12s CPU     19.13s WALL (    3770 calls)
     h_psi        :    134.68s CPU    138.39s WALL (    8643 calls)
     g_psi        :      0.44s CPU      0.44s WALL (    7283 calls)

     Called by h_psi:
     h_psi:calbec :     27.38s CPU     27.61s WALL (    8643 calls)
     vloc_psi     :     80.34s CPU     83.78s WALL (    8643 calls)
     add_vuspsi   :     26.44s CPU     26.48s WALL (    8643 calls)

     General routines
     calbec       :     27.36s CPU     27.60s WALL (    8643 calls)
     fft          :      1.54s CPU      1.73s WALL (    2478 calls)
     ffts         :      0.11s CPU      0.11s WALL (      79 calls)
     fftw         :     83.62s CPU     87.26s WALL (  208026 calls)
     interpolate  :      0.12s CPU      0.12s WALL (      40 calls)

     Parallel routines

     PWSCF        :   3m52.88s CPU   3m58.19s WALL


   This run was terminated on:  19:23:48  22Feb2025            

=------------------------------------------------------------------------------=
   JOB DONE.
=------------------------------------------------------------------------------=
