
     Program PWSCF v.7.4.1 starts on 13Mar2026 at  2:35: 7 

     This program is part of the open-source Quantum ESPRESSO suite
     for quantum simulation of materials; please cite
         "P. Giannozzi et al., J. Phys.:Condens. Matter 21 395502 (2009);
         "P. Giannozzi et al., J. Phys.:Condens. Matter 29 465901 (2017);
         "P. Giannozzi et al., J. Chem. Phys. 152 154105 (2020);
          URL http://www.quantum-espresso.org", 
     in publications or presentations arising from this work. More details at
     http://www.quantum-espresso.org/quote

     Parallel version (MPI), running on     1 processors

     MPI processes distributed on     1 nodes
     3504 MiB available memory on the printing compute node when the environment starts
 
     Reading input from scf.in

     Current dimensions of program PWSCF are:
     Max number of different atomic species (ntypx) = 10
     Max number of k-points (npk) =  40000
     Max angular momentum in pseudopotentials (lmaxx) =  4
     Message from routine setup:
     no reason to have ecutrho>4*ecutwfc
 
     Subspace diagonalization in iterative solution of the eigenvalue problem:
     a serial algorithm will be used

 
     G-vector sticks info
     --------------------
     sticks:   dense  smooth     PW     G-vecs:    dense   smooth      PW
     Sum         721     583    163               119529    85897   13699
 
     Using Slab Decomposition
 


     bravais-lattice index     =            4
     lattice parameter (alat)  =       5.1057  a.u.
     unit-cell volume          =     885.9079 (a.u.)^3
     number of atoms/cell      =            7
     number of atomic types    =            3
     number of electrons       =        42.00
     number of Kohn-Sham states=           21
     kinetic-energy cutoff     =      80.0000  Ry
     charge density cutoff     =     400.0000  Ry
     scf convergence threshold =      1.0E-10
     mixing beta               =       0.5000
     number of iterations used =            8  plain     mixing
     Exchange-correlation= PBE
                           (   1   4   3   4   0   0   0)

     GPU acceleration is ACTIVE.  1 visible GPUs per MPI rank
     GPU-aware MPI enabled


     GPU used by master process:

        Device Number: 0
        Device name: NVIDIA RTX A2000 12GB
        Compute capability : 86
        Ratio of single to double precision performance  : 64
        Memory Clock Rate (KHz): 6001000
        Memory Bus Width (bits): 192
        Peak Memory Bandwidth (GB/s): 288.05

     celldm(1)=   5.105662  celldm(2)=   0.000000  celldm(3)=   7.686024
     celldm(4)=   0.000000  celldm(5)=   0.000000  celldm(6)=   0.000000

     crystal axes: (cart. coord. in units of alat)
               a(1) = (   1.000000   0.000000   0.000000 )  
               a(2) = (  -0.500000   0.866025   0.000000 )  
               a(3) = (   0.000000   0.000000   7.686024 )  

     reciprocal axes: (cart. coord. in units 2 pi/alat)
               b(1) = (  1.000000  0.577350 -0.000000 )  
               b(2) = (  0.000000  1.154701  0.000000 )  
               b(3) = (  0.000000 -0.000000  0.130106 )  


     PseudoPot. # 1 for Cr read from file:
     /home/rao/Desktop/pseudo/ONCVPSP/sg15/Cr_ONCV_PBE_sr.upf
     MD5 check sum: 8c25700f94aee329d8014e8d8708abb4
     Pseudo is Norm-conserving, Zval = 14.0
     Generated using ONCVPSP code by D. R. Hamann
     Using radial grid of 1490 points,  6 beta functions with: 
                l(1) =   0
                l(2) =   0
                l(3) =   1
                l(4) =   1
                l(5) =   2
                l(6) =   2

     PseudoPot. # 2 for Si read from file:
     /home/rao/Desktop/pseudo/ONCVPSP/sg15/Si_ONCV_PBE_sr.upf
     MD5 check sum: 8553c464762ac42b85b1eed164b4d029
     Pseudo is Norm-conserving, Zval =  4.0
     Generated using ONCVPSP code by D. R. Hamann
     Using radial grid of 1510 points,  4 beta functions with: 
                l(1) =   0
                l(2) =   0
                l(3) =   1
                l(4) =   1

     PseudoPot. # 3 for N  read from file:
     /home/rao/Desktop/pseudo/ONCVPSP/sg15/N_ONCV_PBE_sr.upf
     MD5 check sum: 584dff68b02d160f04ff099e3496afa1
     Pseudo is Norm-conserving, Zval =  5.0
     Generated using ONCVPSP code by D. R. Hamann
     Using radial grid of 1058 points,  4 beta functions with: 
                l(1) =   0
                l(2) =   0
                l(3) =   1
                l(4) =   1

     atomic species   valence    mass     pseudopotential
     Cr               14.00    51.99600     Cr( 1.00)
     Si                4.00    28.08600     Si( 1.00)
     N                 5.00    14.00700     N ( 1.00)

     No symmetry found


                                    s                        frac. trans.

      isym =  1     identity                                     

 cryst.   s( 1) = (     1          0          0      )
                  (     0          1          0      )
                  (     0          0          1      )

 cart.    s( 1) = (  1.0000000  0.0000000  0.0000000 )
                  (  0.0000000  1.0000000  0.0000000 )
                  (  0.0000000  0.0000000  1.0000000 )


     point group C_1 (1)    
     there are  1 classes
     the character table:

       E    
A      1.00

     the symmetry operations in each class and the name of the first element:

     E        1
          identity                                               

   Cartesian axes

     site n.     atom                  positions (alat units)
         1        Cr     tau(   1) = (   0.7856961   0.1237180   3.2888952  )
         2        N      tau(   2) = (   0.2857044   0.4123893   2.8554500  )
         3        N      tau(   3) = (   0.2856527   0.4124174   3.7263079  )
         4        N      tau(   4) = (   0.7857256   0.1236950   4.6026528  )
         5        N      tau(   5) = (  -0.2142776   0.7010574   1.9858750  )
         6        Si     tau(   6) = (   0.2857344   0.4123752   2.2115137  )
         7        Si     tau(   7) = (   0.2857314   0.4123669   4.3748034  )

   Crystallographic axes

     site n.     atom                  positions (cryst. coord.)
         1        Cr     tau(   1) = (  0.8571247  0.1428573  0.4279059  )
         2        N      tau(   2) = (  0.5237974  0.4761861  0.3715120  )
         3        N      tau(   3) = (  0.5237620  0.4762186  0.4848161  )
         4        N      tau(   4) = (  0.8571410  0.1428307  0.5988340  )
         5        N      tau(   5) = (  0.1904780  0.8095113  0.2583748  )
         6        Si     tau(   6) = (  0.5238194  0.4761699  0.2877318  )
         7        Si     tau(   7) = (  0.5238115  0.4761603  0.5691894  )

     number of k points=    61
                       cart. coord. in units 2pi/alat
        k(    1) = (   0.0000000   0.0000000   0.0000000), wk =   0.0165289
        k(    2) = (   0.0000000   0.1049728   0.0000000), wk =   0.0330579
        k(    3) = (   0.0000000   0.2099456   0.0000000), wk =   0.0330579
        k(    4) = (   0.0000000   0.3149183   0.0000000), wk =   0.0330579
        k(    5) = (   0.0000000   0.4198911   0.0000000), wk =   0.0330579
        k(    6) = (   0.0000000   0.5248639   0.0000000), wk =   0.0330579
        k(    7) = (   0.0909091   0.1574592   0.0000000), wk =   0.0330579
        k(    8) = (   0.0909091   0.2624319   0.0000000), wk =   0.0330579
        k(    9) = (   0.0909091   0.3674047   0.0000000), wk =   0.0330579
        k(   10) = (   0.0909091   0.4723775   0.0000000), wk =   0.0330579
        k(   11) = (   0.0909091   0.5773503   0.0000000), wk =   0.0330579
        k(   12) = (   0.1818182   0.3149183   0.0000000), wk =   0.0330579
        k(   13) = (   0.1818182   0.4198911   0.0000000), wk =   0.0330579
        k(   14) = (   0.1818182   0.5248639   0.0000000), wk =   0.0330579
        k(   15) = (   0.2727273   0.4723775   0.0000000), wk =   0.0330579
        k(   16) = (   0.2727273   0.5773503   0.0000000), wk =   0.0330579
        k(   17) = (  -0.0909091   0.0524864   0.0000000), wk =   0.0330579
        k(   18) = (   0.0909091   0.0524864   0.0000000), wk =   0.0330579
        k(   19) = (  -0.1818182   0.1049728   0.0000000), wk =   0.0330579
        k(   20) = (   0.1818182   0.1049728   0.0000000), wk =   0.0330579
        k(   21) = (  -0.2727273   0.1574592   0.0000000), wk =   0.0330579
        k(   22) = (   0.2727273   0.1574592   0.0000000), wk =   0.0330579
        k(   23) = (  -0.3636364   0.2099456   0.0000000), wk =   0.0330579
        k(   24) = (   0.3636364   0.2099456   0.0000000), wk =   0.0330579
        k(   25) = (  -0.4545455   0.2624319   0.0000000), wk =   0.0330579
        k(   26) = (   0.4545455   0.2624319   0.0000000), wk =   0.0330579
        k(   27) = (  -0.0909091   0.1574592   0.0000000), wk =   0.0330579
        k(   28) = (   0.1818182  -0.0000000   0.0000000), wk =   0.0330579
        k(   29) = (  -0.0909091   0.2624319   0.0000000), wk =   0.0330579
        k(   30) = (  -0.1818182   0.2099456   0.0000000), wk =   0.0330579
        k(   31) = (   0.2727273   0.0524864   0.0000000), wk =   0.0330579
        k(   32) = (  -0.1818182  -0.2099456   0.0000000), wk =   0.0330579
        k(   33) = (   0.2727273  -0.0524864   0.0000000), wk =   0.0330579
        k(   34) = (  -0.0909091   0.3674047   0.0000000), wk =   0.0330579
        k(   35) = (  -0.2727273   0.2624319   0.0000000), wk =   0.0330579
        k(   36) = (   0.3636364   0.1049728   0.0000000), wk =   0.0330579
        k(   37) = (  -0.2727273  -0.2624319   0.0000000), wk =   0.0330579
        k(   38) = (   0.3636364  -0.1049728   0.0000000), wk =   0.0330579
        k(   39) = (  -0.0909091   0.4723775   0.0000000), wk =   0.0330579
        k(   40) = (  -0.3636364   0.3149183   0.0000000), wk =   0.0330579
        k(   41) = (   0.4545455   0.1574592   0.0000000), wk =   0.0330579
        k(   42) = (  -0.3636364  -0.3149183   0.0000000), wk =   0.0330579
        k(   43) = (   0.4545455  -0.1574592   0.0000000), wk =   0.0330579
        k(   44) = (  -0.4545455   0.3674047   0.0000000), wk =   0.0330579
        k(   45) = (   0.5454545   0.2099456   0.0000000), wk =   0.0330579
        k(   46) = (  -0.1818182   0.3149183   0.0000000), wk =   0.0330579
        k(   47) = (   0.3636364  -0.0000000   0.0000000), wk =   0.0330579
        k(   48) = (  -0.1818182   0.4198911   0.0000000), wk =   0.0330579
        k(   49) = (  -0.2727273   0.3674047   0.0000000), wk =   0.0330579
        k(   50) = (   0.4545455   0.0524864   0.0000000), wk =   0.0330579
        k(   51) = (  -0.2727273  -0.3674047   0.0000000), wk =   0.0330579
        k(   52) = (   0.4545455  -0.0524864   0.0000000), wk =   0.0330579
        k(   53) = (  -0.1818182   0.5248639   0.0000000), wk =   0.0330579
        k(   54) = (  -0.3636364   0.4198911   0.0000000), wk =   0.0330579
        k(   55) = (   0.5454545   0.1049728   0.0000000), wk =   0.0330579
        k(   56) = (  -0.3636364  -0.4198911   0.0000000), wk =   0.0330579
        k(   57) = (   0.5454545  -0.1049728   0.0000000), wk =   0.0330579
        k(   58) = (  -0.2727273   0.4723775   0.0000000), wk =   0.0330579
        k(   59) = (   0.5454545  -0.0000000   0.0000000), wk =   0.0330579
        k(   60) = (  -0.3636364   0.5248639   0.0000000), wk =   0.0330579
        k(   61) = (   0.6363636   0.0524864   0.0000000), wk =   0.0330579

                       cryst. coord.
        k(    1) = (   0.0000000   0.0000000   0.0000000), wk =   0.0165289
        k(    2) = (   0.0000000   0.0909091   0.0000000), wk =   0.0330579
        k(    3) = (   0.0000000   0.1818182   0.0000000), wk =   0.0330579
        k(    4) = (   0.0000000   0.2727273   0.0000000), wk =   0.0330579
        k(    5) = (   0.0000000   0.3636364   0.0000000), wk =   0.0330579
        k(    6) = (   0.0000000   0.4545455   0.0000000), wk =   0.0330579
        k(    7) = (   0.0909091   0.0909091   0.0000000), wk =   0.0330579
        k(    8) = (   0.0909091   0.1818182   0.0000000), wk =   0.0330579
        k(    9) = (   0.0909091   0.2727273   0.0000000), wk =   0.0330579
        k(   10) = (   0.0909091   0.3636364   0.0000000), wk =   0.0330579
        k(   11) = (   0.0909091   0.4545455   0.0000000), wk =   0.0330579
        k(   12) = (   0.1818182   0.1818182   0.0000000), wk =   0.0330579
        k(   13) = (   0.1818182   0.2727273   0.0000000), wk =   0.0330579
        k(   14) = (   0.1818182   0.3636364   0.0000000), wk =   0.0330579
        k(   15) = (   0.2727273   0.2727273   0.0000000), wk =   0.0330579
        k(   16) = (   0.2727273   0.3636364   0.0000000), wk =   0.0330579
        k(   17) = (  -0.0909091   0.0909091   0.0000000), wk =   0.0330579
        k(   18) = (   0.0909091  -0.0000000   0.0000000), wk =   0.0330579
        k(   19) = (  -0.1818182   0.1818182   0.0000000), wk =   0.0330579
        k(   20) = (   0.1818182  -0.0000000   0.0000000), wk =   0.0330579
        k(   21) = (  -0.2727273   0.2727273   0.0000000), wk =   0.0330579
        k(   22) = (   0.2727273  -0.0000000   0.0000000), wk =   0.0330579
        k(   23) = (  -0.3636364   0.3636364   0.0000000), wk =   0.0330579
        k(   24) = (   0.3636364  -0.0000000   0.0000000), wk =   0.0330579
        k(   25) = (  -0.4545455   0.4545455   0.0000000), wk =   0.0330579
        k(   26) = (   0.4545455   0.0000000   0.0000000), wk =   0.0330579
        k(   27) = (  -0.0909091   0.1818182   0.0000000), wk =   0.0330579
        k(   28) = (   0.1818182  -0.0909091   0.0000000), wk =   0.0330579
        k(   29) = (  -0.0909091   0.2727273   0.0000000), wk =   0.0330579
        k(   30) = (  -0.1818182   0.2727273   0.0000000), wk =   0.0330579
        k(   31) = (   0.2727273  -0.0909091   0.0000000), wk =   0.0330579
        k(   32) = (  -0.1818182  -0.0909091   0.0000000), wk =   0.0330579
        k(   33) = (   0.2727273  -0.1818182   0.0000000), wk =   0.0330579
        k(   34) = (  -0.0909091   0.3636364   0.0000000), wk =   0.0330579
        k(   35) = (  -0.2727273   0.3636364   0.0000000), wk =   0.0330579
        k(   36) = (   0.3636364  -0.0909091   0.0000000), wk =   0.0330579
        k(   37) = (  -0.2727273  -0.0909091   0.0000000), wk =   0.0330579
        k(   38) = (   0.3636364  -0.2727273   0.0000000), wk =   0.0330579
        k(   39) = (  -0.0909091   0.4545455   0.0000000), wk =   0.0330579
        k(   40) = (  -0.3636364   0.4545455   0.0000000), wk =   0.0330579
        k(   41) = (   0.4545455  -0.0909091   0.0000000), wk =   0.0330579
        k(   42) = (  -0.3636364  -0.0909091   0.0000000), wk =   0.0330579
        k(   43) = (   0.4545455  -0.3636364   0.0000000), wk =   0.0330579
        k(   44) = (  -0.4545455   0.5454545   0.0000000), wk =   0.0330579
        k(   45) = (   0.5454545  -0.0909091   0.0000000), wk =   0.0330579
        k(   46) = (  -0.1818182   0.3636364   0.0000000), wk =   0.0330579
        k(   47) = (   0.3636364  -0.1818182   0.0000000), wk =   0.0330579
        k(   48) = (  -0.1818182   0.4545455   0.0000000), wk =   0.0330579
        k(   49) = (  -0.2727273   0.4545455   0.0000000), wk =   0.0330579
        k(   50) = (   0.4545455  -0.1818182   0.0000000), wk =   0.0330579
        k(   51) = (  -0.2727273  -0.1818182   0.0000000), wk =   0.0330579
        k(   52) = (   0.4545455  -0.2727273   0.0000000), wk =   0.0330579
        k(   53) = (  -0.1818182   0.5454545   0.0000000), wk =   0.0330579
        k(   54) = (  -0.3636364   0.5454545   0.0000000), wk =   0.0330579
        k(   55) = (   0.5454545  -0.1818182   0.0000000), wk =   0.0330579
        k(   56) = (  -0.3636364  -0.1818182   0.0000000), wk =   0.0330579
        k(   57) = (   0.5454545  -0.3636364   0.0000000), wk =   0.0330579
        k(   58) = (  -0.2727273   0.5454545   0.0000000), wk =   0.0330579
        k(   59) = (   0.5454545  -0.2727273   0.0000000), wk =   0.0330579
        k(   60) = (  -0.3636364   0.6363636   0.0000000), wk =   0.0330579
        k(   61) = (   0.6363636  -0.2727273   0.0000000), wk =   0.0330579

     Dense  grid:   119529 G-vectors     FFT dimensions: (  36,  36, 250)

     Smooth grid:    85897 G-vectors     FFT dimensions: (  30,  30, 225)

     Dynamical RAM for                 wfc:       3.43 MB

     Dynamical RAM for     wfc (w. buffer):     212.68 MB

     Dynamical RAM for           str. fact:       5.47 MB

     Dynamical RAM for           local pot:       0.00 MB

     Dynamical RAM for          nlocal pot:      10.78 MB

     Dynamical RAM for                qrad:       4.82 MB

     Dynamical RAM for          rho,v,vnew:      12.89 MB

     Dynamical RAM for               rhoin:       4.30 MB

     Dynamical RAM for            rho*nmix:      29.18 MB

     Dynamical RAM for           G-vectors:       7.49 MB

     Dynamical RAM for          h,s,v(r/c):       0.08 MB

     Dynamical RAM for          <psi|beta>:       0.02 MB

     Dynamical RAM for                 psi:       6.86 MB

     Dynamical RAM for                hpsi:       6.86 MB

     Dynamical RAM for      wfcinit/wfcrot:       6.87 MB

     Estimated static dynamical RAM per process >     278.08 MB

     Estimated max dynamical RAM per process >     321.08 MB
 ----2D----2D----2D----2D----2D----2D----2D----2D----2D----2D----2D----2D
  The code is running with the 2D cutoff
  Please refer to:
  Sohier, T., Calandra, M., & Mauri, F. (2017), 
  Density functional perturbation theory for gated two-dimensional heterostructures:
  Theoretical developments and application to flexural phonons in graphene.
  Physical Review B, 96(7), 75448. https://doi.org/10.1103/PhysRevB.96.075448
 ----2D----2D----2D----2D----2D----2D----2D----2D----2D----2D----2D----2D

     Initial potential from superposition of free atoms

     starting charge      41.9980, renormalised to      42.0000

     negative rho (up, down):  9.210E-07 0.000E+00
     Starting wfcs are   34 randomized atomic wfcs

     total cpu time spent up to now is        3.8 secs

     Self-consistent Calculation
[tb_dev] Currently allocated     1.51E+00 Mbytes, locked:    0 /   5
[tb_pin] Currently allocated     0.00E+00 Mbytes, locked:    0 /   0

     iteration #  1     ecut=    80.00 Ry     beta= 0.50
     Davidson diagonalization with overlap

---- Real-time Memory Report at c_bands before calling an iterative solver
           885 MiB given to the printing process from OS
             0 MiB allocation reported by mallinfo(arena+hblkhd)
          2881 MiB available memory on the node where the printing process lives
     GPU memory used/free/total (MiB): 2030 / 9883 / 11914
------------------
     ethr =  1.00E-02,  avg # of iterations =  2.0

     total cpu time spent up to now is        8.2 secs

     total energy              =    -262.50336658 Ry
     estimated scf accuracy    <       2.17794455 Ry
[tb_dev] Currently allocated     2.67E-05 Mbytes, locked:    0 /   1
[tb_pin] Currently allocated     0.00E+00 Mbytes, locked:    0 /   0

     iteration #  2     ecut=    80.00 Ry     beta= 0.50
     Davidson diagonalization with overlap

---- Real-time Memory Report at c_bands before calling an iterative solver
           897 MiB given to the printing process from OS
             0 MiB allocation reported by mallinfo(arena+hblkhd)
          2814 MiB available memory on the node where the printing process lives
     GPU memory used/free/total (MiB): 2034 / 9879 / 11914
------------------
     ethr =  5.19E-03,  avg # of iterations =  5.6

     total cpu time spent up to now is       15.4 secs

     total energy              =    -262.90637211 Ry
     estimated scf accuracy    <       1.78563825 Ry
[tb_dev] Currently allocated     2.67E-05 Mbytes, locked:    0 /   1
[tb_pin] Currently allocated     0.00E+00 Mbytes, locked:    0 /   0

     iteration #  3     ecut=    80.00 Ry     beta= 0.50
     Davidson diagonalization with overlap

---- Real-time Memory Report at c_bands before calling an iterative solver
           913 MiB given to the printing process from OS
             0 MiB allocation reported by mallinfo(arena+hblkhd)
          2974 MiB available memory on the node where the printing process lives
     GPU memory used/free/total (MiB): 2034 / 9879 / 11914
------------------
     ethr =  4.25E-03,  avg # of iterations =  4.3

     total cpu time spent up to now is       21.1 secs

     total energy              =    -263.25723340 Ry
     estimated scf accuracy    <       0.14730906 Ry
[tb_dev] Currently allocated     2.67E-05 Mbytes, locked:    0 /   1
[tb_pin] Currently allocated     0.00E+00 Mbytes, locked:    0 /   0

     iteration #  4     ecut=    80.00 Ry     beta= 0.50
     Davidson diagonalization with overlap

---- Real-time Memory Report at c_bands before calling an iterative solver
           918 MiB given to the printing process from OS
             0 MiB allocation reported by mallinfo(arena+hblkhd)
          2972 MiB available memory on the node where the printing process lives
     GPU memory used/free/total (MiB): 2034 / 9879 / 11914
------------------
     ethr =  3.51E-04,  avg # of iterations =  4.1

     total cpu time spent up to now is       26.9 secs

     total energy              =    -263.28149528 Ry
     estimated scf accuracy    <       0.01785354 Ry
[tb_dev] Currently allocated     2.67E-05 Mbytes, locked:    0 /   1
[tb_pin] Currently allocated     0.00E+00 Mbytes, locked:    0 /   0

     iteration #  5     ecut=    80.00 Ry     beta= 0.50
     Davidson diagonalization with overlap

---- Real-time Memory Report at c_bands before calling an iterative solver
           922 MiB given to the printing process from OS
             0 MiB allocation reported by mallinfo(arena+hblkhd)
          2965 MiB available memory on the node where the printing process lives
     GPU memory used/free/total (MiB): 2036 / 9877 / 11914
------------------
     ethr =  4.25E-05,  avg # of iterations =  6.6

     total cpu time spent up to now is       34.5 secs

     total energy              =    -263.28753339 Ry
     estimated scf accuracy    <       0.02204057 Ry
[tb_dev] Currently allocated     2.67E-05 Mbytes, locked:    0 /   1
[tb_pin] Currently allocated     0.00E+00 Mbytes, locked:    0 /   0

     iteration #  6     ecut=    80.00 Ry     beta= 0.50
     Davidson diagonalization with overlap

---- Real-time Memory Report at c_bands before calling an iterative solver
           927 MiB given to the printing process from OS
             0 MiB allocation reported by mallinfo(arena+hblkhd)
          2959 MiB available memory on the node where the printing process lives
     GPU memory used/free/total (MiB): 2036 / 9877 / 11914
------------------
     ethr =  4.25E-05,  avg # of iterations =  4.3

     total cpu time spent up to now is       40.3 secs

     total energy              =    -263.28932360 Ry
     estimated scf accuracy    <       0.00396952 Ry
[tb_dev] Currently allocated     2.67E-05 Mbytes, locked:    0 /   1
[tb_pin] Currently allocated     0.00E+00 Mbytes, locked:    0 /   0

     iteration #  7     ecut=    80.00 Ry     beta= 0.50
     Davidson diagonalization with overlap

---- Real-time Memory Report at c_bands before calling an iterative solver
           930 MiB given to the printing process from OS
             0 MiB allocation reported by mallinfo(arena+hblkhd)
          2956 MiB available memory on the node where the printing process lives
     GPU memory used/free/total (MiB): 2036 / 9877 / 11914
------------------
     ethr =  9.45E-06,  avg # of iterations =  6.0

     total cpu time spent up to now is       46.9 secs

     total energy              =    -263.29062840 Ry
     estimated scf accuracy    <       0.00463741 Ry
[tb_dev] Currently allocated     2.67E-05 Mbytes, locked:    0 /   1
[tb_pin] Currently allocated     0.00E+00 Mbytes, locked:    0 /   0

     iteration #  8     ecut=    80.00 Ry     beta= 0.50
     Davidson diagonalization with overlap

---- Real-time Memory Report at c_bands before calling an iterative solver
           935 MiB given to the printing process from OS
             0 MiB allocation reported by mallinfo(arena+hblkhd)
          2953 MiB available memory on the node where the printing process lives
     GPU memory used/free/total (MiB): 2036 / 9877 / 11914
------------------
     ethr =  9.45E-06,  avg # of iterations =  2.0

     total cpu time spent up to now is       50.7 secs

     total energy              =    -263.29002187 Ry
     estimated scf accuracy    <       0.00251998 Ry
[tb_dev] Currently allocated     2.67E-05 Mbytes, locked:    0 /   1
[tb_pin] Currently allocated     0.00E+00 Mbytes, locked:    0 /   0

     iteration #  9     ecut=    80.00 Ry     beta= 0.50
     Davidson diagonalization with overlap

---- Real-time Memory Report at c_bands before calling an iterative solver
           939 MiB given to the printing process from OS
             0 MiB allocation reported by mallinfo(arena+hblkhd)
          2947 MiB available memory on the node where the printing process lives
     GPU memory used/free/total (MiB): 2036 / 9877 / 11914
------------------
     ethr =  6.00E-06,  avg # of iterations =  5.6

     total cpu time spent up to now is       57.1 secs

     total energy              =    -263.29072071 Ry
     estimated scf accuracy    <       0.00072570 Ry
[tb_dev] Currently allocated     2.67E-05 Mbytes, locked:    0 /   1
[tb_pin] Currently allocated     0.00E+00 Mbytes, locked:    0 /   0

     iteration # 10     ecut=    80.00 Ry     beta= 0.50
     Davidson diagonalization with overlap

---- Real-time Memory Report at c_bands before calling an iterative solver
           943 MiB given to the printing process from OS
             0 MiB allocation reported by mallinfo(arena+hblkhd)
          2942 MiB available memory on the node where the printing process lives
     GPU memory used/free/total (MiB): 2036 / 9877 / 11914
------------------
     ethr =  1.73E-06,  avg # of iterations =  1.8

     total cpu time spent up to now is       61.1 secs

     total energy              =    -263.29057098 Ry
     estimated scf accuracy    <       0.00066417 Ry
[tb_dev] Currently allocated     2.67E-05 Mbytes, locked:    0 /   1
[tb_pin] Currently allocated     0.00E+00 Mbytes, locked:    0 /   0

     iteration # 11     ecut=    80.00 Ry     beta= 0.50
     Davidson diagonalization with overlap

---- Real-time Memory Report at c_bands before calling an iterative solver
           943 MiB given to the printing process from OS
             0 MiB allocation reported by mallinfo(arena+hblkhd)
          2941 MiB available memory on the node where the printing process lives
     GPU memory used/free/total (MiB): 2036 / 9877 / 11914
------------------
     ethr =  1.58E-06,  avg # of iterations =  4.9

     total cpu time spent up to now is       67.3 secs

     total energy              =    -263.29066278 Ry
     estimated scf accuracy    <       0.00006740 Ry
[tb_dev] Currently allocated     2.67E-05 Mbytes, locked:    0 /   1
[tb_pin] Currently allocated     0.00E+00 Mbytes, locked:    0 /   0

     iteration # 12     ecut=    80.00 Ry     beta= 0.50
     Davidson diagonalization with overlap

---- Real-time Memory Report at c_bands before calling an iterative solver
           943 MiB given to the printing process from OS
             0 MiB allocation reported by mallinfo(arena+hblkhd)
          2942 MiB available memory on the node where the printing process lives
     GPU memory used/free/total (MiB): 2036 / 9877 / 11914
------------------
     ethr =  1.60E-07,  avg # of iterations =  5.0

     total cpu time spent up to now is       73.3 secs

     total energy              =    -263.29066137 Ry
     estimated scf accuracy    <       0.00004930 Ry
[tb_dev] Currently allocated     2.67E-05 Mbytes, locked:    0 /   1
[tb_pin] Currently allocated     0.00E+00 Mbytes, locked:    0 /   0

     iteration # 13     ecut=    80.00 Ry     beta= 0.50
     Davidson diagonalization with overlap

---- Real-time Memory Report at c_bands before calling an iterative solver
           945 MiB given to the printing process from OS
             0 MiB allocation reported by mallinfo(arena+hblkhd)
          2884 MiB available memory on the node where the printing process lives
     GPU memory used/free/total (MiB): 2036 / 9877 / 11914
------------------
     ethr =  1.17E-07,  avg # of iterations =  6.0

     total cpu time spent up to now is       79.8 secs

     total energy              =    -263.29066450 Ry
     estimated scf accuracy    <       0.00006804 Ry
[tb_dev] Currently allocated     2.67E-05 Mbytes, locked:    0 /   1
[tb_pin] Currently allocated     0.00E+00 Mbytes, locked:    0 /   0

     iteration # 14     ecut=    80.00 Ry     beta= 0.50
     Davidson diagonalization with overlap

---- Real-time Memory Report at c_bands before calling an iterative solver
           945 MiB given to the printing process from OS
             0 MiB allocation reported by mallinfo(arena+hblkhd)
          2941 MiB available memory on the node where the printing process lives
     GPU memory used/free/total (MiB): 2036 / 9877 / 11914
------------------
     ethr =  1.17E-07,  avg # of iterations =  5.2

     total cpu time spent up to now is       86.3 secs

     total energy              =    -263.29067198 Ry
     estimated scf accuracy    <       0.00000732 Ry
[tb_dev] Currently allocated     2.67E-05 Mbytes, locked:    0 /   1
[tb_pin] Currently allocated     0.00E+00 Mbytes, locked:    0 /   0

     iteration # 15     ecut=    80.00 Ry     beta= 0.50
     Davidson diagonalization with overlap

---- Real-time Memory Report at c_bands before calling an iterative solver
           945 MiB given to the printing process from OS
             0 MiB allocation reported by mallinfo(arena+hblkhd)
          2952 MiB available memory on the node where the printing process lives
     GPU memory used/free/total (MiB): 2036 / 9877 / 11914
------------------
     ethr =  1.74E-08,  avg # of iterations =  5.4

     total cpu time spent up to now is       92.5 secs

     total energy              =    -263.29067327 Ry
     estimated scf accuracy    <       0.00000248 Ry
[tb_dev] Currently allocated     2.67E-05 Mbytes, locked:    0 /   1
[tb_pin] Currently allocated     0.00E+00 Mbytes, locked:    0 /   0

     iteration # 16     ecut=    80.00 Ry     beta= 0.50
     Davidson diagonalization with overlap

---- Real-time Memory Report at c_bands before calling an iterative solver
           945 MiB given to the printing process from OS
             0 MiB allocation reported by mallinfo(arena+hblkhd)
          2949 MiB available memory on the node where the printing process lives
     GPU memory used/free/total (MiB): 2036 / 9877 / 11914
------------------
     ethr =  5.90E-09,  avg # of iterations =  4.6

     total cpu time spent up to now is       98.7 secs

     total energy              =    -263.29067369 Ry
     estimated scf accuracy    <       0.00000008 Ry
[tb_dev] Currently allocated     2.67E-05 Mbytes, locked:    0 /   1
[tb_pin] Currently allocated     0.00E+00 Mbytes, locked:    0 /   0

     iteration # 17     ecut=    80.00 Ry     beta= 0.50
     Davidson diagonalization with overlap

---- Real-time Memory Report at c_bands before calling an iterative solver
           945 MiB given to the printing process from OS
             0 MiB allocation reported by mallinfo(arena+hblkhd)
          2950 MiB available memory on the node where the printing process lives
     GPU memory used/free/total (MiB): 2036 / 9877 / 11914
------------------
     ethr =  1.92E-10,  avg # of iterations =  7.4

     total cpu time spent up to now is      106.7 secs

     total energy              =    -263.29067371 Ry
     estimated scf accuracy    <       0.00000038 Ry
[tb_dev] Currently allocated     2.67E-05 Mbytes, locked:    0 /   1
[tb_pin] Currently allocated     0.00E+00 Mbytes, locked:    0 /   0

     iteration # 18     ecut=    80.00 Ry     beta= 0.50
     Davidson diagonalization with overlap

---- Real-time Memory Report at c_bands before calling an iterative solver
           945 MiB given to the printing process from OS
             0 MiB allocation reported by mallinfo(arena+hblkhd)
          2954 MiB available memory on the node where the printing process lives
     GPU memory used/free/total (MiB): 2036 / 9877 / 11914
------------------
     ethr =  1.92E-10,  avg # of iterations =  5.7

     total cpu time spent up to now is      113.3 secs

     total energy              =    -263.29067371 Ry
     estimated scf accuracy    <       0.00000006 Ry
[tb_dev] Currently allocated     2.67E-05 Mbytes, locked:    0 /   1
[tb_pin] Currently allocated     0.00E+00 Mbytes, locked:    0 /   0

     iteration # 19     ecut=    80.00 Ry     beta= 0.50
     Davidson diagonalization with overlap

---- Real-time Memory Report at c_bands before calling an iterative solver
           945 MiB given to the printing process from OS
             0 MiB allocation reported by mallinfo(arena+hblkhd)
          3818 MiB available memory on the node where the printing process lives
     GPU memory used/free/total (MiB): 2036 / 9877 / 11914
------------------
     ethr =  1.54E-10,  avg # of iterations =  5.5

     total cpu time spent up to now is      119.8 secs

     total energy              =    -263.29067373 Ry
     estimated scf accuracy    <          2.3E-09 Ry
[tb_dev] Currently allocated     2.67E-05 Mbytes, locked:    0 /   1
[tb_pin] Currently allocated     0.00E+00 Mbytes, locked:    0 /   0

     iteration # 20     ecut=    80.00 Ry     beta= 0.50
     Davidson diagonalization with overlap

---- Real-time Memory Report at c_bands before calling an iterative solver
           945 MiB given to the printing process from OS
             0 MiB allocation reported by mallinfo(arena+hblkhd)
          3821 MiB available memory on the node where the printing process lives
     GPU memory used/free/total (MiB): 2036 / 9877 / 11914
------------------
     ethr =  5.47E-12,  avg # of iterations =  7.5

     total cpu time spent up to now is      128.1 secs

     total energy              =    -263.29067373 Ry
     estimated scf accuracy    <          1.1E-09 Ry
[tb_dev] Currently allocated     2.67E-05 Mbytes, locked:    0 /   1
[tb_pin] Currently allocated     0.00E+00 Mbytes, locked:    0 /   0

     iteration # 21     ecut=    80.00 Ry     beta= 0.50
     Davidson diagonalization with overlap

---- Real-time Memory Report at c_bands before calling an iterative solver
           946 MiB given to the printing process from OS
             0 MiB allocation reported by mallinfo(arena+hblkhd)
          3824 MiB available memory on the node where the printing process lives
     GPU memory used/free/total (MiB): 2036 / 9877 / 11914
------------------
     ethr =  2.56E-12,  avg # of iterations =  5.4

     total cpu time spent up to now is      134.4 secs

     total energy              =    -263.29067373 Ry
     estimated scf accuracy    <          5.6E-10 Ry
[tb_dev] Currently allocated     2.67E-05 Mbytes, locked:    0 /   1
[tb_pin] Currently allocated     0.00E+00 Mbytes, locked:    0 /   0

     iteration # 22     ecut=    80.00 Ry     beta= 0.50
     Davidson diagonalization with overlap

---- Real-time Memory Report at c_bands before calling an iterative solver
           946 MiB given to the printing process from OS
             0 MiB allocation reported by mallinfo(arena+hblkhd)
          3823 MiB available memory on the node where the printing process lives
     GPU memory used/free/total (MiB): 2036 / 9877 / 11914
------------------
     ethr =  1.35E-12,  avg # of iterations =  3.8

     total cpu time spent up to now is      139.7 secs

     End of self-consistent calculation

          k = 0.0000 0.0000 0.0000 ( 10773 PWs)   bands (ev):

   -78.0172 -49.2702 -49.1537 -49.1537 -25.5676 -25.4928 -22.6360 -21.2671
   -14.8885 -12.3559 -10.2734  -9.1988  -9.1987  -9.0496  -9.0496  -8.9531
    -8.9530  -8.2740  -7.7142  -7.7137  -5.8907

     occupation numbers 
     1.0000   1.0000   1.0000   1.0000   1.0000   1.0000   1.0000   1.0000
     1.0000   1.0000   1.0000   1.0000   1.0000   1.0000   1.0000   1.0000
     1.0000   1.0000   1.0000   1.0000   1.0000

          k = 0.0000 0.1050 0.0000 ( 10749 PWs)   bands (ev):

   -78.0119 -49.2632 -49.1901 -49.1618 -25.4041 -25.3317 -22.4983 -21.1875
   -14.7426 -12.2893 -10.2812  -9.7984  -9.6216  -9.3200  -9.2749  -9.2060
    -8.9148  -8.3733  -7.8891  -7.7098  -5.9744

     occupation numbers 
     1.0000   1.0000   1.0000   1.0000   1.0000   1.0000   1.0000   1.0000
     1.0000   1.0000   1.0000   1.0000   1.0000   1.0000   1.0000   1.0000
     1.0000   1.0000   1.0000   1.0000   1.0000

          k = 0.0000 0.2099 0.0000 ( 10707 PWs)   bands (ev):

   -77.9977 -49.2871 -49.2446 -49.1835 -24.9261 -24.8607 -22.1148 -20.9672
   -14.3634 -12.1414 -11.3790 -11.3300 -10.0343  -9.7128  -9.6268  -9.5901
    -8.7527  -8.6312  -8.3013  -7.9438  -6.3217

     occupation numbers 
     1.0000   1.0000   1.0000   1.0000   1.0000   1.0000   1.0000   1.0000
     1.0000   1.0000   1.0000   1.0000   1.0000   1.0000   1.0000   1.0000
     1.0000   1.0000   1.0000   1.0000   1.0000

          k = 0.0000 0.3149 0.0000 ( 10685 PWs)   bands (ev):

   -77.9790 -49.4126 -49.2201 -49.2117 -24.1786 -24.1236 -21.5800 -20.6697
   -14.0786 -13.2429 -12.8947 -11.8773 -10.8425 -10.0732 -10.0303  -9.4667
    -9.2863  -8.7723  -8.2308  -8.1969  -6.7473

     occupation numbers 
     1.0000   1.0000   1.0000   1.0000   1.0000   1.0000   1.0000   1.0000
     1.0000   1.0000   1.0000   1.0000   1.0000   1.0000   1.0000   1.0000
     1.0000   1.0000   1.0000   1.0000   1.0000

          k = 0.0000 0.4199 0.0000 ( 10690 PWs)   bands (ev):

   -77.9617 -49.5263 -49.2376 -49.1976 -23.2737 -23.2319 -21.0745 -20.4201
   -15.0802 -14.8653 -13.1136 -11.9175 -11.5200 -10.4448 -10.3910  -9.9702
    -9.1422  -9.0142  -8.3117  -7.7912  -6.8850

     occupation numbers 
     1.0000   1.0000   1.0000   1.0000   1.0000   1.0000   1.0000   1.0000
     1.0000   1.0000   1.0000   1.0000   1.0000   1.0000   1.0000   1.0000
     1.0000   1.0000   1.0000   1.0000   1.0000

          k = 0.0000 0.5249 0.0000 ( 10716 PWs)   bands (ev):

   -77.9514 -49.5933 -49.2529 -49.1841 -22.5113 -22.4848 -20.8335 -20.3574
   -16.0650 -15.8880 -12.9652 -12.2581 -11.8014 -10.6501 -10.5900 -10.2016
    -9.3447  -8.6822  -8.2981  -7.5464  -6.8337

     occupation numbers 
     1.0000   1.0000   1.0000   1.0000   1.0000   1.0000   1.0000   1.0000
     1.0000   1.0000   1.0000   1.0000   1.0000   1.0000   1.0000   1.0000
     1.0000   1.0000   1.0000   1.0000   1.0000

          k = 0.0909 0.1575 0.0000 ( 10735 PWs)   bands (ev):

   -78.0022 -49.2547 -49.2504 -49.1789 -25.0832 -25.0155 -22.2375 -21.0372
   -14.4779 -12.1743 -10.8892 -10.8161  -9.9384  -9.7762  -9.5997  -9.4509
    -8.7618  -8.5414  -8.3775  -7.7111  -6.1998

     occupation numbers 
     1.0000   1.0000   1.0000   1.0000   1.0000   1.0000   1.0000   1.0000
     1.0000   1.0000   1.0000   1.0000   1.0000   1.0000   1.0000   1.0000
     1.0000   1.0000   1.0000   1.0000   1.0000

          k = 0.0909 0.2624 0.0000 ( 10716 PWs)   bands (ev):

   -77.9857 -49.3603 -49.2289 -49.2094 -24.4687 -24.4097 -21.7758 -20.7752
   -14.0934 -12.4729 -12.2513 -11.8732 -10.6660 -10.2277 -10.0474  -9.4816
    -9.1837  -8.6659  -8.4360  -7.9535  -6.6090

     occupation numbers 
     1.0000   1.0000   1.0000   1.0000   1.0000   1.0000   1.0000   1.0000
     1.0000   1.0000   1.0000   1.0000   1.0000   1.0000   1.0000   1.0000
     1.0000   1.0000   1.0000   1.0000   1.0000

          k = 0.0909 0.3674 0.0000 ( 10683 PWs)   bands (ev):

   -77.9677 -49.4736 -49.2427 -49.2054 -23.6330 -23.5856 -21.2465 -20.4918
   -14.4073 -14.0690 -13.0971 -11.7999 -11.3200 -10.8055 -10.5966  -9.9368
    -9.1792  -8.7902  -8.2921  -8.1251  -6.8457

     occupation numbers 
     1.0000   1.0000   1.0000   1.0000   1.0000   1.0000   1.0000   1.0000
     1.0000   1.0000   1.0000   1.0000   1.0000   1.0000   1.0000   1.0000
     1.0000   1.0000   1.0000   1.0000   1.0000

          k = 0.0909 0.4724 0.0000 ( 10720 PWs)   bands (ev):

   -77.9539 -49.5591 -49.2681 -49.1874 -22.7581 -22.7251 -20.8675 -20.3324
   -15.5713 -15.3875 -12.9492 -12.0881 -11.6877 -11.1168 -10.9972 -10.2843
    -9.2592  -8.7505  -8.2997  -7.9772  -6.7447

     occupation numbers 
     1.0000   1.0000   1.0000   1.0000   1.0000   1.0000   1.0000   1.0000
     1.0000   1.0000   1.0000   1.0000   1.0000   1.0000   1.0000   1.0000
     1.0000   1.0000   1.0000   1.0000   1.0000

          k = 0.0909 0.5774 0.0000 ( 10706 PWs)   bands (ev):

   -77.9488 -49.5908 -49.2775 -49.1806 -22.3113 -22.2892 -20.7777 -20.3321
   -16.0871 -15.9120 -12.8389 -12.3287 -11.8395 -11.2321 -11.1193 -10.2926
    -9.4588  -8.5663  -8.2517  -7.9504  -6.6434

     occupation numbers 
     1.0000   1.0000   1.0000   1.0000   1.0000   1.0000   1.0000   1.0000
     1.0000   1.0000   1.0000   1.0000   1.0000   1.0000   1.0000   1.0000
     1.0000   1.0000   1.0000   1.0000   1.0000

          k = 0.1818 0.3149 0.0000 ( 10701 PWs)   bands (ev):

   -77.9699 -49.4436 -49.2551 -49.2083 -23.7603 -23.7109 -21.3129 -20.5197
   -14.0917 -13.5468 -12.9133 -11.7213 -11.5774 -11.2596 -10.6020 -10.0494
    -9.2000  -8.6724  -8.3615  -8.1800  -6.8266

     occupation numbers 
     1.0000   1.0000   1.0000   1.0000   1.0000   1.0000   1.0000   1.0000
     1.0000   1.0000   1.0000   1.0000   1.0000   1.0000   1.0000   1.0000
     1.0000   1.0000   1.0000   1.0000   1.0000

          k = 0.1818 0.4199 0.0000 ( 10685 PWs)   bands (ev):

   -77.9554 -49.5137 -49.3029 -49.1893 -22.9192 -22.8822 -20.8918 -20.3092
   -14.8945 -14.6704 -12.8691 -12.3478 -12.1668 -11.4834 -11.1029 -10.6345
    -9.0635  -8.9111  -8.5650  -8.1765  -6.7099

     occupation numbers 
     1.0000   1.0000   1.0000   1.0000   1.0000   1.0000   1.0000   1.0000
     1.0000   1.0000   1.0000   1.0000   1.0000   1.0000   1.0000   1.0000
     1.0000   1.0000   1.0000   1.0000   1.0000

          k = 0.1818 0.5249 0.0000 ( 10709 PWs)   bands (ev):

   -77.9467 -49.5532 -49.3330 -49.1780 -22.2347 -22.2115 -20.6988 -20.2509
   -15.6289 -15.4527 -12.9176 -12.6971 -12.2280 -11.7288 -11.6216 -10.4896
    -9.4811  -9.0564  -8.5156  -7.9901  -6.4690

     occupation numbers 
     1.0000   1.0000   1.0000   1.0000   1.0000   1.0000   1.0000   1.0000
     1.0000   1.0000   1.0000   1.0000   1.0000   1.0000   1.0000   1.0000
     1.0000   1.0000   1.0000   1.0000   1.0000

          k = 0.2727 0.4724 0.0000 ( 10683 PWs)   bands (ev):

   -77.9460 -49.5208 -49.3723 -49.1770 -22.2254 -22.2009 -20.6603 -20.2052
   -15.1575 -14.9604 -13.5135 -13.3718 -12.3621 -11.7153 -11.2630 -10.6647
    -9.8073  -9.2718  -8.5452  -7.9681  -6.4103

     occupation numbers 
     1.0000   1.0000   1.0000   1.0000   1.0000   1.0000   1.0000   1.0000
     1.0000   1.0000   1.0000   1.0000   1.0000   1.0000   1.0000   1.0000
     1.0000   1.0000   1.0000   1.0000   1.0000

          k = 0.2727 0.5774 0.0000 ( 10717 PWs)   bands (ev):

   -77.9425 -49.5116 -49.4101 -49.1724 -21.9047 -21.8878 -20.6031 -20.1907
   -15.1892 -15.0056 -14.0195 -13.8989 -11.9873 -11.8990 -11.4571 -10.3766
   -10.2521  -9.6422  -8.4456  -7.8543  -6.2311

     occupation numbers 
     1.0000   1.0000   1.0000   1.0000   1.0000   1.0000   1.0000   1.0000
     1.0000   1.0000   1.0000   1.0000   1.0000   1.0000   1.0000   1.0000
     1.0000   1.0000   1.0000   1.0000   1.0000

          k =-0.0909 0.0525 0.0000 ( 10749 PWs)   bands (ev):

   -78.0119 -49.2632 -49.1902 -49.1618 -25.4041 -25.3317 -22.4983 -21.1875
   -14.7426 -12.2892 -10.2812  -9.7984  -9.6216  -9.3201  -9.2750  -9.2059
    -8.9146  -8.3731  -7.8895  -7.7097  -5.9743

     occupation numbers 
     1.0000   1.0000   1.0000   1.0000   1.0000   1.0000   1.0000   1.0000
     1.0000   1.0000   1.0000   1.0000   1.0000   1.0000   1.0000   1.0000
     1.0000   1.0000   1.0000   1.0000   1.0000

          k = 0.0909 0.0525 0.0000 ( 10749 PWs)   bands (ev):

   -78.0119 -49.2632 -49.1901 -49.1618 -25.4041 -25.3317 -22.4983 -21.1875
   -14.7426 -12.2893 -10.2812  -9.7984  -9.6216  -9.3200  -9.2749  -9.2060
    -8.9148  -8.3733  -7.8891  -7.7098  -5.9744

     occupation numbers 
     1.0000   1.0000   1.0000   1.0000   1.0000   1.0000   1.0000   1.0000
     1.0000   1.0000   1.0000   1.0000   1.0000   1.0000   1.0000   1.0000
     1.0000   1.0000   1.0000   1.0000   1.0000

          k =-0.1818 0.1050 0.0000 ( 10707 PWs)   bands (ev):

   -77.9977 -49.2871 -49.2446 -49.1835 -24.9261 -24.8607 -22.1148 -20.9672
   -14.3634 -12.1414 -11.3790 -11.3301 -10.0344  -9.7128  -9.6269  -9.5900
    -8.7524  -8.6310  -8.3016  -7.9439  -6.3216

     occupation numbers 
     1.0000   1.0000   1.0000   1.0000   1.0000   1.0000   1.0000   1.0000
     1.0000   1.0000   1.0000   1.0000   1.0000   1.0000   1.0000   1.0000
     1.0000   1.0000   1.0000   1.0000   1.0000

          k = 0.1818 0.1050 0.0000 ( 10707 PWs)   bands (ev):

   -77.9977 -49.2871 -49.2446 -49.1835 -24.9261 -24.8607 -22.1148 -20.9672
   -14.3634 -12.1414 -11.3790 -11.3300 -10.0343  -9.7128  -9.6268  -9.5901
    -8.7527  -8.6312  -8.3013  -7.9438  -6.3217

     occupation numbers 
     1.0000   1.0000   1.0000   1.0000   1.0000   1.0000   1.0000   1.0000
     1.0000   1.0000   1.0000   1.0000   1.0000   1.0000   1.0000   1.0000
     1.0000   1.0000   1.0000   1.0000   1.0000

          k =-0.2727 0.1575 0.0000 ( 10685 PWs)   bands (ev):

   -77.9790 -49.4126 -49.2201 -49.2117 -24.1786 -24.1236 -21.5801 -20.6696
   -14.0786 -13.2429 -12.8947 -11.8771 -10.8427 -10.0733 -10.0302  -9.4667
    -9.2862  -8.7725  -8.2309  -8.1968  -6.7472

     occupation numbers 
     1.0000   1.0000   1.0000   1.0000   1.0000   1.0000   1.0000   1.0000
     1.0000   1.0000   1.0000   1.0000   1.0000   1.0000   1.0000   1.0000
     1.0000   1.0000   1.0000   1.0000   1.0000

          k = 0.2727 0.1575 0.0000 ( 10685 PWs)   bands (ev):

   -77.9790 -49.4126 -49.2201 -49.2117 -24.1786 -24.1236 -21.5800 -20.6697
   -14.0786 -13.2429 -12.8947 -11.8773 -10.8425 -10.0732 -10.0303  -9.4667
    -9.2863  -8.7723  -8.2308  -8.1969  -6.7473

     occupation numbers 
     1.0000   1.0000   1.0000   1.0000   1.0000   1.0000   1.0000   1.0000
     1.0000   1.0000   1.0000   1.0000   1.0000   1.0000   1.0000   1.0000
     1.0000   1.0000   1.0000   1.0000   1.0000

          k =-0.3636 0.2099 0.0000 ( 10690 PWs)   bands (ev):

   -77.9617 -49.5264 -49.2376 -49.1976 -23.2737 -23.2319 -21.0745 -20.4200
   -15.0802 -14.8654 -13.1137 -11.9173 -11.5201 -10.4449 -10.3909  -9.9703
    -9.1423  -9.0140  -8.3118  -7.7911  -6.8849

     occupation numbers 
     1.0000   1.0000   1.0000   1.0000   1.0000   1.0000   1.0000   1.0000
     1.0000   1.0000   1.0000   1.0000   1.0000   1.0000   1.0000   1.0000
     1.0000   1.0000   1.0000   1.0000   1.0000

          k = 0.3636 0.2099 0.0000 ( 10690 PWs)   bands (ev):

   -77.9617 -49.5263 -49.2376 -49.1976 -23.2737 -23.2319 -21.0745 -20.4201
   -15.0802 -14.8653 -13.1136 -11.9175 -11.5200 -10.4448 -10.3910  -9.9702
    -9.1422  -9.0142  -8.3117  -7.7912  -6.8850

     occupation numbers 
     1.0000   1.0000   1.0000   1.0000   1.0000   1.0000   1.0000   1.0000
     1.0000   1.0000   1.0000   1.0000   1.0000   1.0000   1.0000   1.0000
     1.0000   1.0000   1.0000   1.0000   1.0000

          k =-0.4545 0.2624 0.0000 ( 10716 PWs)   bands (ev):

   -77.9514 -49.5933 -49.2529 -49.1841 -22.5113 -22.4849 -20.8335 -20.3573
   -16.0650 -15.8881 -12.9654 -12.2580 -11.8013 -10.6501 -10.5899 -10.2017
    -9.3448  -8.6819  -8.2982  -7.5464  -6.8337

     occupation numbers 
     1.0000   1.0000   1.0000   1.0000   1.0000   1.0000   1.0000   1.0000
     1.0000   1.0000   1.0000   1.0000   1.0000   1.0000   1.0000   1.0000
     1.0000   1.0000   1.0000   1.0000   1.0000

          k = 0.4545 0.2624 0.0000 ( 10716 PWs)   bands (ev):

   -77.9514 -49.5933 -49.2529 -49.1841 -22.5113 -22.4848 -20.8335 -20.3574
   -16.0650 -15.8880 -12.9652 -12.2581 -11.8015 -10.6501 -10.5900 -10.2016
    -9.3447  -8.6822  -8.2981  -7.5464  -6.8337

     occupation numbers 
     1.0000   1.0000   1.0000   1.0000   1.0000   1.0000   1.0000   1.0000
     1.0000   1.0000   1.0000   1.0000   1.0000   1.0000   1.0000   1.0000
     1.0000   1.0000   1.0000   1.0000   1.0000

          k =-0.0909 0.1575 0.0000 ( 10735 PWs)   bands (ev):

   -78.0022 -49.2547 -49.2504 -49.1789 -25.0832 -25.0155 -22.2375 -21.0372
   -14.4779 -12.1743 -10.8891 -10.8161  -9.9385  -9.7762  -9.5997  -9.4508
    -8.7616  -8.5412  -8.3776  -7.7113  -6.1997

     occupation numbers 
     1.0000   1.0000   1.0000   1.0000   1.0000   1.0000   1.0000   1.0000
     1.0000   1.0000   1.0000   1.0000   1.0000   1.0000   1.0000   1.0000
     1.0000   1.0000   1.0000   1.0000   1.0000

          k = 0.1818-0.0000 0.0000 ( 10735 PWs)   bands (ev):

   -78.0022 -49.2547 -49.2504 -49.1789 -25.0832 -25.0155 -22.2375 -21.0371
   -14.4779 -12.1743 -10.8891 -10.8161  -9.9385  -9.7762  -9.5997  -9.4508
    -8.7616  -8.5412  -8.3776  -7.7113  -6.1997

     occupation numbers 
     1.0000   1.0000   1.0000   1.0000   1.0000   1.0000   1.0000   1.0000
     1.0000   1.0000   1.0000   1.0000   1.0000   1.0000   1.0000   1.0000
     1.0000   1.0000   1.0000   1.0000   1.0000

          k =-0.0909 0.2624 0.0000 ( 10716 PWs)   bands (ev):

   -77.9857 -49.3603 -49.2289 -49.2094 -24.4687 -24.4097 -21.7758 -20.7752
   -14.0934 -12.4729 -12.2514 -11.8731 -10.6661 -10.2277 -10.0474  -9.4816
    -9.1838  -8.6657  -8.4359  -7.9537  -6.6088

     occupation numbers 
     1.0000   1.0000   1.0000   1.0000   1.0000   1.0000   1.0000   1.0000
     1.0000   1.0000   1.0000   1.0000   1.0000   1.0000   1.0000   1.0000
     1.0000   1.0000   1.0000   1.0000   1.0000

          k =-0.1818 0.2099 0.0000 ( 10716 PWs)   bands (ev):

   -77.9857 -49.3603 -49.2289 -49.2094 -24.4687 -24.4097 -21.7758 -20.7752
   -14.0934 -12.4729 -12.2514 -11.8731 -10.6662 -10.2277 -10.0475  -9.4816
    -9.1837  -8.6658  -8.4359  -7.9538  -6.6088

     occupation numbers 
     1.0000   1.0000   1.0000   1.0000   1.0000   1.0000   1.0000   1.0000
     1.0000   1.0000   1.0000   1.0000   1.0000   1.0000   1.0000   1.0000
     1.0000   1.0000   1.0000   1.0000   1.0000

          k = 0.2727 0.0525 0.0000 ( 10716 PWs)   bands (ev):

   -77.9857 -49.3603 -49.2289 -49.2094 -24.4687 -24.4097 -21.7758 -20.7752
   -14.0934 -12.4729 -12.2514 -11.8731 -10.6661 -10.2277 -10.0474  -9.4816
    -9.1838  -8.6657  -8.4359  -7.9537  -6.6088

     occupation numbers 
     1.0000   1.0000   1.0000   1.0000   1.0000   1.0000   1.0000   1.0000
     1.0000   1.0000   1.0000   1.0000   1.0000   1.0000   1.0000   1.0000
     1.0000   1.0000   1.0000   1.0000   1.0000

          k =-0.1818-0.2099 0.0000 ( 10716 PWs)   bands (ev):

   -77.9857 -49.3603 -49.2289 -49.2094 -24.4687 -24.4097 -21.7758 -20.7752
   -14.0934 -12.4729 -12.2513 -11.8732 -10.6660 -10.2277 -10.0474  -9.4816
    -9.1837  -8.6659  -8.4360  -7.9535  -6.6090

     occupation numbers 
     1.0000   1.0000   1.0000   1.0000   1.0000   1.0000   1.0000   1.0000
     1.0000   1.0000   1.0000   1.0000   1.0000   1.0000   1.0000   1.0000
     1.0000   1.0000   1.0000   1.0000   1.0000

          k = 0.2727-0.0525 0.0000 ( 10716 PWs)   bands (ev):

   -77.9857 -49.3603 -49.2289 -49.2094 -24.4687 -24.4097 -21.7758 -20.7752
   -14.0934 -12.4729 -12.2514 -11.8731 -10.6662 -10.2277 -10.0475  -9.4816
    -9.1837  -8.6658  -8.4359  -7.9538  -6.6088

     occupation numbers 
     1.0000   1.0000   1.0000   1.0000   1.0000   1.0000   1.0000   1.0000
     1.0000   1.0000   1.0000   1.0000   1.0000   1.0000   1.0000   1.0000
     1.0000   1.0000   1.0000   1.0000   1.0000

          k =-0.0909 0.3674 0.0000 ( 10683 PWs)   bands (ev):

   -77.9677 -49.4736 -49.2427 -49.2054 -23.6330 -23.5856 -21.2465 -20.4918
   -14.4073 -14.0690 -13.0971 -11.7999 -11.3201 -10.8055 -10.5966  -9.9367
    -9.1791  -8.7903  -8.2924  -8.1249  -6.8455

     occupation numbers 
     1.0000   1.0000   1.0000   1.0000   1.0000   1.0000   1.0000   1.0000
     1.0000   1.0000   1.0000   1.0000   1.0000   1.0000   1.0000   1.0000
     1.0000   1.0000   1.0000   1.0000   1.0000

          k =-0.2727 0.2624 0.0000 ( 10683 PWs)   bands (ev):

   -77.9677 -49.4736 -49.2427 -49.2054 -23.6330 -23.5856 -21.2465 -20.4918
   -14.4073 -14.0690 -13.0972 -11.7997 -11.3202 -10.8055 -10.5966  -9.9369
    -9.1791  -8.7903  -8.2923  -8.1249  -6.8455

     occupation numbers 
     1.0000   1.0000   1.0000   1.0000   1.0000   1.0000   1.0000   1.0000
     1.0000   1.0000   1.0000   1.0000   1.0000   1.0000   1.0000   1.0000
     1.0000   1.0000   1.0000   1.0000   1.0000

          k = 0.3636 0.1050 0.0000 ( 10683 PWs)   bands (ev):

   -77.9677 -49.4736 -49.2427 -49.2054 -23.6330 -23.5856 -21.2465 -20.4918
   -14.4073 -14.0690 -13.0971 -11.7999 -11.3201 -10.8055 -10.5966  -9.9367
    -9.1791  -8.7903  -8.2924  -8.1249  -6.8455

     occupation numbers 
     1.0000   1.0000   1.0000   1.0000   1.0000   1.0000   1.0000   1.0000
     1.0000   1.0000   1.0000   1.0000   1.0000   1.0000   1.0000   1.0000
     1.0000   1.0000   1.0000   1.0000   1.0000

          k =-0.2727-0.2624 0.0000 ( 10683 PWs)   bands (ev):

   -77.9677 -49.4736 -49.2427 -49.2054 -23.6330 -23.5856 -21.2465 -20.4918
   -14.4073 -14.0690 -13.0971 -11.7999 -11.3200 -10.8055 -10.5966  -9.9368
    -9.1791  -8.7902  -8.2921  -8.1251  -6.8457

     occupation numbers 
     1.0000   1.0000   1.0000   1.0000   1.0000   1.0000   1.0000   1.0000
     1.0000   1.0000   1.0000   1.0000   1.0000   1.0000   1.0000   1.0000
     1.0000   1.0000   1.0000   1.0000   1.0000

          k = 0.3636-0.1050 0.0000 ( 10683 PWs)   bands (ev):

   -77.9677 -49.4736 -49.2427 -49.2054 -23.6330 -23.5856 -21.2465 -20.4918
   -14.4073 -14.0690 -13.0972 -11.7997 -11.3202 -10.8055 -10.5966  -9.9369
    -9.1791  -8.7903  -8.2924  -8.1249  -6.8455

     occupation numbers 
     1.0000   1.0000   1.0000   1.0000   1.0000   1.0000   1.0000   1.0000
     1.0000   1.0000   1.0000   1.0000   1.0000   1.0000   1.0000   1.0000
     1.0000   1.0000   1.0000   1.0000   1.0000

          k =-0.0909 0.4724 0.0000 ( 10720 PWs)   bands (ev):

   -77.9539 -49.5591 -49.2681 -49.1874 -22.7581 -22.7251 -20.8675 -20.3324
   -15.5713 -15.3875 -12.9492 -12.0881 -11.6877 -11.1169 -10.9972 -10.2841
    -9.2593  -8.7507  -8.2997  -7.9771  -6.7446

     occupation numbers 
     1.0000   1.0000   1.0000   1.0000   1.0000   1.0000   1.0000   1.0000
     1.0000   1.0000   1.0000   1.0000   1.0000   1.0000   1.0000   1.0000
     1.0000   1.0000   1.0000   1.0000   1.0000

          k =-0.3636 0.3149 0.0000 ( 10720 PWs)   bands (ev):

   -77.9539 -49.5591 -49.2681 -49.1874 -22.7581 -22.7251 -20.8675 -20.3323
   -15.5713 -15.3876 -12.9493 -12.0880 -11.6876 -11.1169 -10.9971 -10.2844
    -9.2593  -8.7504  -8.2998  -7.9771  -6.7446

     occupation numbers 
     1.0000   1.0000   1.0000   1.0000   1.0000   1.0000   1.0000   1.0000
     1.0000   1.0000   1.0000   1.0000   1.0000   1.0000   1.0000   1.0000
     1.0000   1.0000   1.0000   1.0000   1.0000

          k = 0.4545 0.1575 0.0000 ( 10720 PWs)   bands (ev):

   -77.9539 -49.5591 -49.2681 -49.1874 -22.7581 -22.7251 -20.8675 -20.3323
   -15.5713 -15.3875 -12.9492 -12.0881 -11.6877 -11.1169 -10.9972 -10.2841
    -9.2593  -8.7507  -8.2997  -7.9771  -6.7446

     occupation numbers 
     1.0000   1.0000   1.0000   1.0000   1.0000   1.0000   1.0000   1.0000
     1.0000   1.0000   1.0000   1.0000   1.0000   1.0000   1.0000   1.0000
     1.0000   1.0000   1.0000   1.0000   1.0000

          k =-0.3636-0.3149 0.0000 ( 10720 PWs)   bands (ev):

   -77.9539 -49.5591 -49.2681 -49.1874 -22.7581 -22.7251 -20.8675 -20.3324
   -15.5713 -15.3875 -12.9492 -12.0881 -11.6877 -11.1168 -10.9972 -10.2843
    -9.2592  -8.7505  -8.2997  -7.9772  -6.7447

     occupation numbers 
     1.0000   1.0000   1.0000   1.0000   1.0000   1.0000   1.0000   1.0000
     1.0000   1.0000   1.0000   1.0000   1.0000   1.0000   1.0000   1.0000
     1.0000   1.0000   1.0000   1.0000   1.0000

          k = 0.4545-0.1575 0.0000 ( 10720 PWs)   bands (ev):

   -77.9539 -49.5591 -49.2681 -49.1874 -22.7581 -22.7251 -20.8675 -20.3323
   -15.5713 -15.3876 -12.9493 -12.0880 -11.6876 -11.1169 -10.9971 -10.2844
    -9.2593  -8.7504  -8.2998  -7.9771  -6.7446

     occupation numbers 
     1.0000   1.0000   1.0000   1.0000   1.0000   1.0000   1.0000   1.0000
     1.0000   1.0000   1.0000   1.0000   1.0000   1.0000   1.0000   1.0000
     1.0000   1.0000   1.0000   1.0000   1.0000

          k =-0.4545 0.3674 0.0000 ( 10706 PWs)   bands (ev):

   -77.9488 -49.5908 -49.2775 -49.1806 -22.3113 -22.2893 -20.7777 -20.3319
   -16.0871 -15.9120 -12.8391 -12.3286 -11.8394 -11.2322 -11.1192 -10.2928
    -9.4588  -8.5660  -8.2519  -7.9504  -6.6434

     occupation numbers 
     1.0000   1.0000   1.0000   1.0000   1.0000   1.0000   1.0000   1.0000
     1.0000   1.0000   1.0000   1.0000   1.0000   1.0000   1.0000   1.0000
     1.0000   1.0000   1.0000   1.0000   1.0000

          k = 0.5455 0.2099 0.0000 ( 10706 PWs)   bands (ev):

   -77.9488 -49.5908 -49.2775 -49.1806 -22.3114 -22.2892 -20.7777 -20.3321
   -16.0871 -15.9120 -12.8389 -12.3286 -11.8395 -11.2321 -11.1193 -10.2926
    -9.4588  -8.5662  -8.2517  -7.9504  -6.6434

     occupation numbers 
     1.0000   1.0000   1.0000   1.0000   1.0000   1.0000   1.0000   1.0000
     1.0000   1.0000   1.0000   1.0000   1.0000   1.0000   1.0000   1.0000
     1.0000   1.0000   1.0000   1.0000   1.0000

          k =-0.1818 0.3149 0.0000 ( 10701 PWs)   bands (ev):

   -77.9699 -49.4436 -49.2551 -49.2083 -23.7603 -23.7109 -21.3129 -20.5196
   -14.0917 -13.5468 -12.9133 -11.7213 -11.5775 -11.2596 -10.6020 -10.0494
    -9.1999  -8.6725  -8.3614  -8.1802  -6.8264

     occupation numbers 
     1.0000   1.0000   1.0000   1.0000   1.0000   1.0000   1.0000   1.0000
     1.0000   1.0000   1.0000   1.0000   1.0000   1.0000   1.0000   1.0000
     1.0000   1.0000   1.0000   1.0000   1.0000

          k = 0.3636-0.0000 0.0000 ( 10701 PWs)   bands (ev):

   -77.9699 -49.4436 -49.2551 -49.2083 -23.7603 -23.7109 -21.3129 -20.5196
   -14.0917 -13.5468 -12.9133 -11.7213 -11.5775 -11.2596 -10.6020 -10.0494
    -9.1999  -8.6725  -8.3614  -8.1802  -6.8264

     occupation numbers 
     1.0000   1.0000   1.0000   1.0000   1.0000   1.0000   1.0000   1.0000
     1.0000   1.0000   1.0000   1.0000   1.0000   1.0000   1.0000   1.0000
     1.0000   1.0000   1.0000   1.0000   1.0000

          k =-0.1818 0.4199 0.0000 ( 10685 PWs)   bands (ev):

   -77.9554 -49.5137 -49.3028 -49.1893 -22.9192 -22.8822 -20.8918 -20.3092
   -14.8945 -14.6705 -12.8691 -12.3479 -12.1668 -11.4835 -11.1030 -10.6343
    -9.0634  -8.9113  -8.5652  -8.1763  -6.7098

     occupation numbers 
     1.0000   1.0000   1.0000   1.0000   1.0000   1.0000   1.0000   1.0000
     1.0000   1.0000   1.0000   1.0000   1.0000   1.0000   1.0000   1.0000
     1.0000   1.0000   1.0000   1.0000   1.0000

          k =-0.2727 0.3674 0.0000 ( 10685 PWs)   bands (ev):

   -77.9554 -49.5137 -49.3028 -49.1893 -22.9192 -22.8822 -20.8918 -20.3091
   -14.8945 -14.6705 -12.8692 -12.3478 -12.1668 -11.4834 -11.1030 -10.6345
    -9.0634  -8.9112  -8.5651  -8.1764  -6.7098

     occupation numbers 
     1.0000   1.0000   1.0000   1.0000   1.0000   1.0000   1.0000   1.0000
     1.0000   1.0000   1.0000   1.0000   1.0000   1.0000   1.0000   1.0000
     1.0000   1.0000   1.0000   1.0000   1.0000

          k = 0.4545 0.0525 0.0000 ( 10685 PWs)   bands (ev):

   -77.9554 -49.5137 -49.3029 -49.1893 -22.9192 -22.8822 -20.8918 -20.3092
   -14.8945 -14.6705 -12.8691 -12.3479 -12.1668 -11.4835 -11.1030 -10.6343
    -9.0634  -8.9113  -8.5652  -8.1763  -6.7098

     occupation numbers 
     1.0000   1.0000   1.0000   1.0000   1.0000   1.0000   1.0000   1.0000
     1.0000   1.0000   1.0000   1.0000   1.0000   1.0000   1.0000   1.0000
     1.0000   1.0000   1.0000   1.0000   1.0000

          k =-0.2727-0.3674 0.0000 ( 10685 PWs)   bands (ev):

   -77.9554 -49.5137 -49.3029 -49.1893 -22.9192 -22.8822 -20.8918 -20.3092
   -14.8945 -14.6705 -12.8691 -12.3478 -12.1668 -11.4834 -11.1029 -10.6345
    -9.0635  -8.9111  -8.5650  -8.1765  -6.7099

     occupation numbers 
     1.0000   1.0000   1.0000   1.0000   1.0000   1.0000   1.0000   1.0000
     1.0000   1.0000   1.0000   1.0000   1.0000   1.0000   1.0000   1.0000
     1.0000   1.0000   1.0000   1.0000   1.0000

          k = 0.4545-0.0525 0.0000 ( 10685 PWs)   bands (ev):

   -77.9554 -49.5137 -49.3028 -49.1893 -22.9192 -22.8822 -20.8918 -20.3091
   -14.8945 -14.6705 -12.8692 -12.3478 -12.1668 -11.4834 -11.1030 -10.6345
    -9.0634  -8.9112  -8.5651  -8.1764  -6.7098

     occupation numbers 
     1.0000   1.0000   1.0000   1.0000   1.0000   1.0000   1.0000   1.0000
     1.0000   1.0000   1.0000   1.0000   1.0000   1.0000   1.0000   1.0000
     1.0000   1.0000   1.0000   1.0000   1.0000

          k =-0.1818 0.5249 0.0000 ( 10709 PWs)   bands (ev):

   -77.9467 -49.5532 -49.3330 -49.1780 -22.2347 -22.2115 -20.6988 -20.2509
   -15.6289 -15.4527 -12.9176 -12.6972 -12.2280 -11.7289 -11.6216 -10.4894
    -9.4813  -9.0564  -8.5157  -7.9901  -6.4689

     occupation numbers 
     1.0000   1.0000   1.0000   1.0000   1.0000   1.0000   1.0000   1.0000
     1.0000   1.0000   1.0000   1.0000   1.0000   1.0000   1.0000   1.0000
     1.0000   1.0000   1.0000   1.0000   1.0000

          k =-0.3636 0.4199 0.0000 ( 10709 PWs)   bands (ev):

   -77.9467 -49.5532 -49.3330 -49.1780 -22.2347 -22.2116 -20.6988 -20.2508
   -15.6289 -15.4527 -12.9178 -12.6970 -12.2280 -11.7289 -11.6215 -10.4896
    -9.4811  -9.0564  -8.5156  -7.9901  -6.4689

     occupation numbers 
     1.0000   1.0000   1.0000   1.0000   1.0000   1.0000   1.0000   1.0000
     1.0000   1.0000   1.0000   1.0000   1.0000   1.0000   1.0000   1.0000
     1.0000   1.0000   1.0000   1.0000   1.0000

          k = 0.5455 0.1050 0.0000 ( 10709 PWs)   bands (ev):

   -77.9467 -49.5532 -49.3330 -49.1780 -22.2347 -22.2116 -20.6988 -20.2509
   -15.6289 -15.4527 -12.9176 -12.6972 -12.2280 -11.7289 -11.6215 -10.4894
    -9.4813  -9.0564  -8.5157  -7.9901  -6.4689

     occupation numbers 
     1.0000   1.0000   1.0000   1.0000   1.0000   1.0000   1.0000   1.0000
     1.0000   1.0000   1.0000   1.0000   1.0000   1.0000   1.0000   1.0000
     1.0000   1.0000   1.0000   1.0000   1.0000

          k =-0.3636-0.4199 0.0000 ( 10709 PWs)   bands (ev):

   -77.9467 -49.5532 -49.3330 -49.1780 -22.2347 -22.2115 -20.6988 -20.2509
   -15.6289 -15.4527 -12.9176 -12.6971 -12.2280 -11.7288 -11.6216 -10.4896
    -9.4811  -9.0564  -8.5156  -7.9902  -6.4690

     occupation numbers 
     1.0000   1.0000   1.0000   1.0000   1.0000   1.0000   1.0000   1.0000
     1.0000   1.0000   1.0000   1.0000   1.0000   1.0000   1.0000   1.0000
     1.0000   1.0000   1.0000   1.0000   1.0000

          k = 0.5455-0.1050 0.0000 ( 10709 PWs)   bands (ev):

   -77.9467 -49.5532 -49.3330 -49.1780 -22.2347 -22.2116 -20.6988 -20.2508
   -15.6289 -15.4527 -12.9178 -12.6970 -12.2280 -11.7289 -11.6215 -10.4896
    -9.4811  -9.0564  -8.5156  -7.9901  -6.4689

     occupation numbers 
     1.0000   1.0000   1.0000   1.0000   1.0000   1.0000   1.0000   1.0000
     1.0000   1.0000   1.0000   1.0000   1.0000   1.0000   1.0000   1.0000
     1.0000   1.0000   1.0000   1.0000   1.0000

          k =-0.2727 0.4724 0.0000 ( 10683 PWs)   bands (ev):

   -77.9460 -49.5208 -49.3723 -49.1770 -22.2254 -22.2009 -20.6603 -20.2052
   -15.1575 -14.9604 -13.5136 -13.3718 -12.3622 -11.7154 -11.2630 -10.6645
    -9.8074  -9.2717  -8.5453  -7.9680  -6.4103

     occupation numbers 
     1.0000   1.0000   1.0000   1.0000   1.0000   1.0000   1.0000   1.0000
     1.0000   1.0000   1.0000   1.0000   1.0000   1.0000   1.0000   1.0000
     1.0000   1.0000   1.0000   1.0000   1.0000

          k = 0.5455-0.0000 0.0000 ( 10683 PWs)   bands (ev):

   -77.9460 -49.5208 -49.3723 -49.1770 -22.2254 -22.2009 -20.6603 -20.2052
   -15.1575 -14.9604 -13.5136 -13.3718 -12.3622 -11.7154 -11.2630 -10.6645
    -9.8074  -9.2717  -8.5453  -7.9680  -6.4103

     occupation numbers 
     1.0000   1.0000   1.0000   1.0000   1.0000   1.0000   1.0000   1.0000
     1.0000   1.0000   1.0000   1.0000   1.0000   1.0000   1.0000   1.0000
     1.0000   1.0000   1.0000   1.0000   1.0000

          k =-0.3636 0.5249 0.0000 ( 10717 PWs)   bands (ev):

   -77.9425 -49.5116 -49.4101 -49.1724 -21.9047 -21.8879 -20.6031 -20.1907
   -15.1893 -15.0057 -14.0195 -13.8989 -11.9873 -11.8991 -11.4571 -10.3766
   -10.2520  -9.6422  -8.4456  -7.8543  -6.2311

     occupation numbers 
     1.0000   1.0000   1.0000   1.0000   1.0000   1.0000   1.0000   1.0000
     1.0000   1.0000   1.0000   1.0000   1.0000   1.0000   1.0000   1.0000
     1.0000   1.0000   1.0000   1.0000   1.0000

          k = 0.6364 0.0525 0.0000 ( 10717 PWs)   bands (ev):

   -77.9425 -49.5116 -49.4101 -49.1724 -21.9047 -21.8878 -20.6031 -20.1907
   -15.1892 -15.0056 -14.0195 -13.8989 -11.9873 -11.8990 -11.4571 -10.3766
   -10.2521  -9.6422  -8.4456  -7.8543  -6.2311

     occupation numbers 
     1.0000   1.0000   1.0000   1.0000   1.0000   1.0000   1.0000   1.0000
     1.0000   1.0000   1.0000   1.0000   1.0000   1.0000   1.0000   1.0000
     1.0000   1.0000   1.0000   1.0000   1.0000

     highest occupied level (ev):    -5.8907

!    total energy              =    -263.29067373 Ry
     estimated scf accuracy    <          7.2E-11 Ry

     The total energy is the sum of the following terms:
     one-electron contribution =   -4896.23696535 Ry
     hartree contribution      =    2444.32180832 Ry
     xc contribution           =     -45.17195490 Ry
     ewald contribution        =    2233.79643820 Ry

     convergence has been achieved in  22 iterations

     Writing all to output data dir ./tmp/crsi2n4.save/ :
     XML data file, charge density, pseudopotentials, collected wavefunctions
 
     init_run     :      3.36s CPU      3.58s WALL (       1 calls)
     electrons    :    135.13s CPU    135.95s WALL (       1 calls)

     Called by init_run:
     wfcinit      :      2.32s CPU      2.46s WALL (       1 calls)
     wfcinit:atom :      0.05s CPU      0.05s WALL (      61 calls)
     wfcinit:wfcr :      2.15s CPU      2.21s WALL (      61 calls)
     potinit      :      0.64s CPU      0.68s WALL (       1 calls)
     hinit0       :      0.28s CPU      0.30s WALL (       1 calls)

     Called by electrons:
     c_bands      :    123.84s CPU    124.60s WALL (      22 calls)
     sum_band     :     10.13s CPU     10.15s WALL (      22 calls)
     v_of_rho     :      0.33s CPU      0.37s WALL (      23 calls)
     v_h          :      0.09s CPU      0.09s WALL (      23 calls)
     v_xc         :      0.24s CPU      0.28s WALL (      23 calls)
     mix_rho      :      0.46s CPU      0.47s WALL (      22 calls)

     Called by c_bands:
     init_us_2    :      1.82s CPU      1.83s WALL (    2745 calls)
     cegterg      :    117.37s CPU    118.09s WALL (    1342 calls)

     Called by sum_band:
     sum_band:wei :      0.00s CPU      0.00s WALL (      22 calls)
     sum_band:loo :     10.04s CPU     10.06s WALL (      22 calls)
     sum_band:buf :      1.65s CPU      1.65s WALL (    1342 calls)
     sum_band:ini :      0.89s CPU      0.89s WALL (    1342 calls)

     Called by *egterg:
     cdiaghg      :     16.60s CPU     16.75s WALL (    7972 calls)
                                       16.70s GPU  (    7972 calls)
     cegterg:over :     24.87s CPU     24.92s WALL (    6630 calls)
     cegterg:upda :      5.75s CPU      5.77s WALL (    6630 calls)
     cegterg:last :      4.30s CPU      4.32s WALL (    3153 calls)
     h_psi        :     63.27s CPU     63.97s WALL (    8033 calls)
                                       63.92s GPU  (    8033 calls)
     g_psi        :      0.05s CPU      0.50s WALL (    6630 calls)
                                        0.47s GPU  (    6630 calls)

     Called by h_psi:
     h_psi:calbec :      0.59s CPU     10.36s WALL (    8033 calls)
                                       10.30s GPU  (    8033 calls)
     vloc_psi     :     43.02s CPU     43.63s WALL (    8033 calls)
                                       43.59s GPU  (    8033 calls)
     add_vuspsi   :      2.24s CPU      9.33s WALL (    8033 calls)
                                        9.28s GPU  (    8033 calls)

     General routines
     calbec       :      0.56s CPU      0.60s WALL (    8033 calls)
     fft          :      0.46s CPU      0.56s WALL (     273 calls)
                                        0.10s GPU  (     250 calls)
     ffts         :      0.31s CPU      0.32s WALL (      45 calls)
                                        0.01s GPU  (      22 calls)
     fftw         :      0.71s CPU     42.34s WALL (   24564 calls)
                                       42.21s GPU  (   24564 calls)
     interpolate  :      0.82s CPU      0.82s WALL (      23 calls)
 
     Parallel routines
 
     PWSCF        :   2m18.83s CPU   2m20.08s WALL

 
   This run was terminated on:   2:37:27  13Mar2026            

=------------------------------------------------------------------------------=
   JOB DONE.
=------------------------------------------------------------------------------=
