
     Program PWSCF v.7.4.1 starts on 13Mar2026 at  2:15:27 

     This program is part of the open-source Quantum ESPRESSO suite
     for quantum simulation of materials; please cite
         "P. Giannozzi et al., J. Phys.:Condens. Matter 21 395502 (2009);
         "P. Giannozzi et al., J. Phys.:Condens. Matter 29 465901 (2017);
         "P. Giannozzi et al., J. Chem. Phys. 152 154105 (2020);
          URL http://www.quantum-espresso.org", 
     in publications or presentations arising from this work. More details at
     http://www.quantum-espresso.org/quote

     Parallel version (MPI), running on     1 processors

     MPI processes distributed on     1 nodes
     5240 MiB available memory on the printing compute node when the environment starts
 
     Reading input from nscf.in

     Current dimensions of program PWSCF are:
     Max number of different atomic species (ntypx) = 10
     Max number of k-points (npk) =  40000
     Max angular momentum in pseudopotentials (lmaxx) =  4

     Atomic positions and unit cell read from directory:
     ./tmp/crsi2n4.save/
 
     Message from routine setup:
     no reason to have ecutrho>4*ecutwfc
 
     Subspace diagonalization in iterative solution of the eigenvalue problem:
     a serial algorithm will be used

 
     G-vector sticks info
     --------------------
     sticks:   dense  smooth     PW     G-vecs:    dense   smooth      PW
     Sum         745     595    169               124953    89281   14101
 
     Using Slab Decomposition
 


     bravais-lattice index     =            4
     lattice parameter (alat)  =       5.2131  a.u.
     unit-cell volume          =     923.6019 (a.u.)^3
     number of atoms/cell      =            7
     number of atomic types    =            3
     number of electrons       =        42.00
     number of Kohn-Sham states=           21
     kinetic-energy cutoff     =      80.0000  Ry
     charge density cutoff     =     400.0000  Ry
     Exchange-correlation= PBE
                           (   1   4   3   4   0   0   0)

     GPU acceleration is ACTIVE.  1 visible GPUs per MPI rank
     GPU-aware MPI enabled


     GPU used by master process:

        Device Number: 0
        Device name: NVIDIA RTX A2000 12GB
        Compute capability : 86
        Ratio of single to double precision performance  : 64
        Memory Clock Rate (KHz): 6001000
        Memory Bus Width (bits): 192
        Peak Memory Bandwidth (GB/s): 288.05

     celldm(1)=   5.213150  celldm(2)=   0.000000  celldm(3)=   7.527549
     celldm(4)=   0.000000  celldm(5)=   0.000000  celldm(6)=   0.000000

     crystal axes: (cart. coord. in units of alat)
               a(1) = (   1.000000   0.000000   0.000000 )  
               a(2) = (  -0.500000   0.866025   0.000000 )  
               a(3) = (   0.000000   0.000000   7.527549 )  

     reciprocal axes: (cart. coord. in units 2 pi/alat)
               b(1) = (  1.000000  0.577350 -0.000000 )  
               b(2) = (  0.000000  1.154701  0.000000 )  
               b(3) = (  0.000000 -0.000000  0.132845 )  


     PseudoPot. # 1 for Cr read from file:
     /home/rao/Desktop/pseudo/ONCVPSP/sg15/Cr_ONCV_PBE_sr.upf
     MD5 check sum: 8c25700f94aee329d8014e8d8708abb4
     Pseudo is Norm-conserving, Zval = 14.0
     Generated using ONCVPSP code by D. R. Hamann
     Using radial grid of 1490 points,  6 beta functions with: 
                l(1) =   0
                l(2) =   0
                l(3) =   1
                l(4) =   1
                l(5) =   2
                l(6) =   2

     PseudoPot. # 2 for Si read from file:
     /home/rao/Desktop/pseudo/ONCVPSP/sg15/Si_ONCV_PBE_sr.upf
     MD5 check sum: 8553c464762ac42b85b1eed164b4d029
     Pseudo is Norm-conserving, Zval =  4.0
     Generated using ONCVPSP code by D. R. Hamann
     Using radial grid of 1510 points,  4 beta functions with: 
                l(1) =   0
                l(2) =   0
                l(3) =   1
                l(4) =   1

     PseudoPot. # 3 for N  read from file:
     /home/rao/Desktop/pseudo/ONCVPSP/sg15/N_ONCV_PBE_sr.upf
     MD5 check sum: 584dff68b02d160f04ff099e3496afa1
     Pseudo is Norm-conserving, Zval =  5.0
     Generated using ONCVPSP code by D. R. Hamann
     Using radial grid of 1058 points,  4 beta functions with: 
                l(1) =   0
                l(2) =   0
                l(3) =   1
                l(4) =   1

     atomic species   valence    mass     pseudopotential
     Cr               14.00    51.99600     Cr( 1.00)
     Si                4.00    28.08600     Si( 1.00)
     N                 5.00    14.00700     N ( 1.00)

     No symmetry found


                                    s                        frac. trans.

      isym =  1     identity                                     

 cryst.   s( 1) = (     1          0          0      )
                  (     0          1          0      )
                  (     0          0          1      )

 cart.    s( 1) = (  1.0000000  0.0000000  0.0000000 )
                  (  0.0000000  1.0000000  0.0000000 )
                  (  0.0000000  0.0000000  1.0000000 )


     point group C_1 (1)    
     there are  1 classes
     the character table:

       E    
A      1.00

     the symmetry operations in each class and the name of the first element:

     E        1
          identity                                               

   Cartesian axes

     site n.     atom                  positions (alat units)
         1        Cr     tau(   1) = (   0.7857061   0.1237121   3.2207042  )
         2        N      tau(   2) = (   0.2856999   0.4123919   2.8001646  )
         3        N      tau(   3) = (   0.2856665   0.4124092   3.6457545  )
         4        N      tau(   4) = (   0.7857236   0.1236963   4.4942100  )
         5        N      tau(   5) = (  -0.2142834   0.7010606   1.9590099  )
         6        Si     tau(   6) = (   0.2857220   0.4123823   2.1684254  )
         7        Si     tau(   7) = (   0.2857322   0.4123666   4.2820647  )

   Crystallographic axes

     site n.     atom                  positions (cryst. coord.)
         1        Cr     tau(   1) = (  0.8571314  0.1428505  0.4278556  )
         2        N      tau(   2) = (  0.5237945  0.4761892  0.3719889  )
         3        N      tau(   3) = (  0.5237710  0.4762091  0.4843216  )
         4        N      tau(   4) = (  0.8571398  0.1428322  0.5970349  )
         5        N      tau(   5) = (  0.1904741  0.8095150  0.2602454  )
         6        Si     tau(   6) = (  0.5238110  0.4761780  0.2880652  )
         7        Si     tau(   7) = (  0.5238122  0.4761600  0.5688524  )

     number of k points=   100
                       cart. coord. in units 2pi/alat
        k(    1) = (   0.0000000   0.0000000   0.0000000), wk =   0.0102041
        k(    2) = (   0.0000000   0.0824786   0.0000000), wk =   0.0204082
        k(    3) = (   0.0000000   0.1649572   0.0000000), wk =   0.0204082
        k(    4) = (   0.0000000   0.2474358   0.0000000), wk =   0.0204082
        k(    5) = (   0.0000000   0.3299144   0.0000000), wk =   0.0204082
        k(    6) = (   0.0000000   0.4123930   0.0000000), wk =   0.0204082
        k(    7) = (   0.0000000   0.4948717   0.0000000), wk =   0.0204082
        k(    8) = (   0.0000000  -0.5773503   0.0000000), wk =   0.0102041
        k(    9) = (   0.0714286   0.1237179   0.0000000), wk =   0.0204082
        k(   10) = (   0.0714286   0.2061965   0.0000000), wk =   0.0204082
        k(   11) = (   0.0714286   0.2886751   0.0000000), wk =   0.0204082
        k(   12) = (   0.0714286   0.3711537   0.0000000), wk =   0.0204082
        k(   13) = (   0.0714286   0.4536324   0.0000000), wk =   0.0204082
        k(   14) = (   0.0714286   0.5361110   0.0000000), wk =   0.0204082
        k(   15) = (   0.1428571   0.2474358   0.0000000), wk =   0.0204082
        k(   16) = (   0.1428571   0.3299144   0.0000000), wk =   0.0204082
        k(   17) = (   0.1428571   0.4123930   0.0000000), wk =   0.0204082
        k(   18) = (   0.1428571   0.4948717   0.0000000), wk =   0.0204082
        k(   19) = (   0.1428571   0.5773503   0.0000000), wk =   0.0204082
        k(   20) = (   0.2142857   0.3711537   0.0000000), wk =   0.0204082
        k(   21) = (   0.2142857   0.4536324   0.0000000), wk =   0.0204082
        k(   22) = (   0.2142857   0.5361110   0.0000000), wk =   0.0204082
        k(   23) = (   0.2857143   0.4948717   0.0000000), wk =   0.0204082
        k(   24) = (   0.2857143   0.5773503   0.0000000), wk =   0.0204082
        k(   25) = (  -0.0714286   0.0412393   0.0000000), wk =   0.0204082
        k(   26) = (   0.0714286   0.0412393   0.0000000), wk =   0.0204082
        k(   27) = (  -0.1428571   0.0824786   0.0000000), wk =   0.0204082
        k(   28) = (   0.1428571   0.0824786   0.0000000), wk =   0.0204082
        k(   29) = (  -0.2142857   0.1237179   0.0000000), wk =   0.0204082
        k(   30) = (   0.2142857   0.1237179   0.0000000), wk =   0.0204082
        k(   31) = (  -0.2857143   0.1649572   0.0000000), wk =   0.0204082
        k(   32) = (   0.2857143   0.1649572   0.0000000), wk =   0.0204082
        k(   33) = (  -0.3571429   0.2061965   0.0000000), wk =   0.0204082
        k(   34) = (   0.3571429   0.2061965   0.0000000), wk =   0.0204082
        k(   35) = (  -0.4285714   0.2474358   0.0000000), wk =   0.0204082
        k(   36) = (   0.4285714   0.2474358   0.0000000), wk =   0.0204082
        k(   37) = (   0.5000000  -0.2886751   0.0000000), wk =   0.0102041
        k(   38) = (  -0.5000000  -0.2886751   0.0000000), wk =   0.0102041
        k(   39) = (  -0.0714286   0.1237179   0.0000000), wk =   0.0204082
        k(   40) = (   0.1428571   0.0000000   0.0000000), wk =   0.0204082
        k(   41) = (  -0.0714286   0.2061965   0.0000000), wk =   0.0204082
        k(   42) = (  -0.1428571   0.1649572   0.0000000), wk =   0.0204082
        k(   43) = (   0.2142857   0.0412393   0.0000000), wk =   0.0204082
        k(   44) = (  -0.1428571  -0.1649572   0.0000000), wk =   0.0204082
        k(   45) = (   0.2142857  -0.0412393   0.0000000), wk =   0.0204082
        k(   46) = (  -0.0714286   0.2886751   0.0000000), wk =   0.0204082
        k(   47) = (  -0.2142857   0.2061965   0.0000000), wk =   0.0204082
        k(   48) = (   0.2857143   0.0824786   0.0000000), wk =   0.0204082
        k(   49) = (  -0.2142857  -0.2061965   0.0000000), wk =   0.0204082
        k(   50) = (   0.2857143  -0.0824786   0.0000000), wk =   0.0204082
        k(   51) = (  -0.0714286   0.3711537   0.0000000), wk =   0.0204082
        k(   52) = (  -0.2857143   0.2474358   0.0000000), wk =   0.0204082
        k(   53) = (   0.3571429   0.1237179   0.0000000), wk =   0.0204082
        k(   54) = (  -0.2857143  -0.2474358   0.0000000), wk =   0.0204082
        k(   55) = (   0.3571429  -0.1237179   0.0000000), wk =   0.0204082
        k(   56) = (  -0.0714286   0.4536324   0.0000000), wk =   0.0204082
        k(   57) = (  -0.3571429   0.2886751   0.0000000), wk =   0.0204082
        k(   58) = (   0.4285714   0.1649572   0.0000000), wk =   0.0204082
        k(   59) = (  -0.3571429  -0.2886751   0.0000000), wk =   0.0204082
        k(   60) = (   0.4285714  -0.1649572   0.0000000), wk =   0.0204082
        k(   61) = (  -0.0714286   0.5361110   0.0000000), wk =   0.0204082
        k(   62) = (  -0.4285714   0.3299144   0.0000000), wk =   0.0204082
        k(   63) = (   0.5000000   0.2061965   0.0000000), wk =   0.0204082
        k(   64) = (  -0.4285714  -0.3299144   0.0000000), wk =   0.0204082
        k(   65) = (   0.5000000  -0.2061965   0.0000000), wk =   0.0204082
        k(   66) = (  -0.1428571   0.2474358   0.0000000), wk =   0.0204082
        k(   67) = (   0.2857143   0.0000000   0.0000000), wk =   0.0204082
        k(   68) = (  -0.1428571   0.3299144   0.0000000), wk =   0.0204082
        k(   69) = (  -0.2142857   0.2886751   0.0000000), wk =   0.0204082
        k(   70) = (   0.3571429   0.0412393   0.0000000), wk =   0.0204082
        k(   71) = (  -0.2142857  -0.2886751   0.0000000), wk =   0.0204082
        k(   72) = (   0.3571429  -0.0412393   0.0000000), wk =   0.0204082
        k(   73) = (  -0.1428571   0.4123930   0.0000000), wk =   0.0204082
        k(   74) = (  -0.2857143   0.3299144   0.0000000), wk =   0.0204082
        k(   75) = (   0.4285714   0.0824786   0.0000000), wk =   0.0204082
        k(   76) = (  -0.2857143  -0.3299144   0.0000000), wk =   0.0204082
        k(   77) = (   0.4285714  -0.0824786   0.0000000), wk =   0.0204082
        k(   78) = (  -0.1428571   0.4948717   0.0000000), wk =   0.0204082
        k(   79) = (  -0.3571429   0.3711537   0.0000000), wk =   0.0204082
        k(   80) = (   0.5000000   0.1237179   0.0000000), wk =   0.0204082
        k(   81) = (  -0.3571429  -0.3711537   0.0000000), wk =   0.0204082
        k(   82) = (   0.5000000  -0.1237179   0.0000000), wk =   0.0204082
        k(   83) = (  -0.4285714   0.4123930   0.0000000), wk =   0.0204082
        k(   84) = (   0.5714286   0.1649572   0.0000000), wk =   0.0204082
        k(   85) = (  -0.2142857   0.3711537   0.0000000), wk =   0.0204082
        k(   86) = (   0.4285714  -0.0000000   0.0000000), wk =   0.0204082
        k(   87) = (  -0.2142857   0.4536324   0.0000000), wk =   0.0204082
        k(   88) = (  -0.2857143   0.4123930   0.0000000), wk =   0.0204082
        k(   89) = (   0.5000000   0.0412393   0.0000000), wk =   0.0204082
        k(   90) = (  -0.2857143  -0.4123930   0.0000000), wk =   0.0204082
        k(   91) = (   0.5000000  -0.0412393   0.0000000), wk =   0.0204082
        k(   92) = (  -0.2142857   0.5361110   0.0000000), wk =   0.0204082
        k(   93) = (  -0.3571429   0.4536324   0.0000000), wk =   0.0204082
        k(   94) = (   0.5714286   0.0824786   0.0000000), wk =   0.0204082
        k(   95) = (  -0.3571429  -0.4536324   0.0000000), wk =   0.0204082
        k(   96) = (   0.5714286  -0.0824786   0.0000000), wk =   0.0204082
        k(   97) = (  -0.2857143   0.4948717   0.0000000), wk =   0.0204082
        k(   98) = (   0.5714286   0.0000000   0.0000000), wk =   0.0204082
        k(   99) = (  -0.3571429   0.5361110   0.0000000), wk =   0.0204082
        k(  100) = (   0.6428571   0.0412393   0.0000000), wk =   0.0204082

                       cryst. coord.
        k(    1) = (   0.0000000   0.0000000   0.0000000), wk =   0.0102041
        k(    2) = (   0.0000000   0.0714286   0.0000000), wk =   0.0204082
        k(    3) = (   0.0000000   0.1428571   0.0000000), wk =   0.0204082
        k(    4) = (   0.0000000   0.2142857   0.0000000), wk =   0.0204082
        k(    5) = (   0.0000000   0.2857143   0.0000000), wk =   0.0204082
        k(    6) = (   0.0000000   0.3571429   0.0000000), wk =   0.0204082
        k(    7) = (   0.0000000   0.4285714   0.0000000), wk =   0.0204082
        k(    8) = (   0.0000000  -0.5000000   0.0000000), wk =   0.0102041
        k(    9) = (   0.0714286   0.0714286   0.0000000), wk =   0.0204082
        k(   10) = (   0.0714286   0.1428571   0.0000000), wk =   0.0204082
        k(   11) = (   0.0714286   0.2142857   0.0000000), wk =   0.0204082
        k(   12) = (   0.0714286   0.2857143   0.0000000), wk =   0.0204082
        k(   13) = (   0.0714286   0.3571429   0.0000000), wk =   0.0204082
        k(   14) = (   0.0714286   0.4285714   0.0000000), wk =   0.0204082
        k(   15) = (   0.1428571   0.1428571   0.0000000), wk =   0.0204082
        k(   16) = (   0.1428571   0.2142857   0.0000000), wk =   0.0204082
        k(   17) = (   0.1428571   0.2857143   0.0000000), wk =   0.0204082
        k(   18) = (   0.1428571   0.3571429   0.0000000), wk =   0.0204082
        k(   19) = (   0.1428571   0.4285714   0.0000000), wk =   0.0204082
        k(   20) = (   0.2142857   0.2142857   0.0000000), wk =   0.0204082
        k(   21) = (   0.2142857   0.2857143   0.0000000), wk =   0.0204082
        k(   22) = (   0.2142857   0.3571429   0.0000000), wk =   0.0204082
        k(   23) = (   0.2857143   0.2857143   0.0000000), wk =   0.0204082
        k(   24) = (   0.2857143   0.3571429   0.0000000), wk =   0.0204082
        k(   25) = (  -0.0714286   0.0714286   0.0000000), wk =   0.0204082
        k(   26) = (   0.0714286   0.0000000   0.0000000), wk =   0.0204082
        k(   27) = (  -0.1428571   0.1428571   0.0000000), wk =   0.0204082
        k(   28) = (   0.1428571   0.0000000   0.0000000), wk =   0.0204082
        k(   29) = (  -0.2142857   0.2142857   0.0000000), wk =   0.0204082
        k(   30) = (   0.2142857  -0.0000000   0.0000000), wk =   0.0204082
        k(   31) = (  -0.2857143   0.2857143   0.0000000), wk =   0.0204082
        k(   32) = (   0.2857143   0.0000000   0.0000000), wk =   0.0204082
        k(   33) = (  -0.3571429   0.3571429   0.0000000), wk =   0.0204082
        k(   34) = (   0.3571429   0.0000000   0.0000000), wk =   0.0204082
        k(   35) = (  -0.4285714   0.4285714   0.0000000), wk =   0.0204082
        k(   36) = (   0.4285714  -0.0000000   0.0000000), wk =   0.0204082
        k(   37) = (   0.5000000  -0.5000000   0.0000000), wk =   0.0102041
        k(   38) = (  -0.5000000  -0.0000000   0.0000000), wk =   0.0102041
        k(   39) = (  -0.0714286   0.1428571   0.0000000), wk =   0.0204082
        k(   40) = (   0.1428571  -0.0714286   0.0000000), wk =   0.0204082
        k(   41) = (  -0.0714286   0.2142857   0.0000000), wk =   0.0204082
        k(   42) = (  -0.1428571   0.2142857   0.0000000), wk =   0.0204082
        k(   43) = (   0.2142857  -0.0714286   0.0000000), wk =   0.0204082
        k(   44) = (  -0.1428571  -0.0714286   0.0000000), wk =   0.0204082
        k(   45) = (   0.2142857  -0.1428571   0.0000000), wk =   0.0204082
        k(   46) = (  -0.0714286   0.2857143   0.0000000), wk =   0.0204082
        k(   47) = (  -0.2142857   0.2857143   0.0000000), wk =   0.0204082
        k(   48) = (   0.2857143  -0.0714286   0.0000000), wk =   0.0204082
        k(   49) = (  -0.2142857  -0.0714286   0.0000000), wk =   0.0204082
        k(   50) = (   0.2857143  -0.2142857   0.0000000), wk =   0.0204082
        k(   51) = (  -0.0714286   0.3571429   0.0000000), wk =   0.0204082
        k(   52) = (  -0.2857143   0.3571429   0.0000000), wk =   0.0204082
        k(   53) = (   0.3571429  -0.0714286   0.0000000), wk =   0.0204082
        k(   54) = (  -0.2857143  -0.0714286   0.0000000), wk =   0.0204082
        k(   55) = (   0.3571429  -0.2857143   0.0000000), wk =   0.0204082
        k(   56) = (  -0.0714286   0.4285714   0.0000000), wk =   0.0204082
        k(   57) = (  -0.3571429   0.4285714   0.0000000), wk =   0.0204082
        k(   58) = (   0.4285714  -0.0714286   0.0000000), wk =   0.0204082
        k(   59) = (  -0.3571429  -0.0714286   0.0000000), wk =   0.0204082
        k(   60) = (   0.4285714  -0.3571429   0.0000000), wk =   0.0204082
        k(   61) = (  -0.0714286   0.5000000   0.0000000), wk =   0.0204082
        k(   62) = (  -0.4285714   0.5000000   0.0000000), wk =   0.0204082
        k(   63) = (   0.5000000  -0.0714286   0.0000000), wk =   0.0204082
        k(   64) = (  -0.4285714  -0.0714286   0.0000000), wk =   0.0204082
        k(   65) = (   0.5000000  -0.4285714   0.0000000), wk =   0.0204082
        k(   66) = (  -0.1428571   0.2857143   0.0000000), wk =   0.0204082
        k(   67) = (   0.2857143  -0.1428571   0.0000000), wk =   0.0204082
        k(   68) = (  -0.1428571   0.3571429   0.0000000), wk =   0.0204082
        k(   69) = (  -0.2142857   0.3571429   0.0000000), wk =   0.0204082
        k(   70) = (   0.3571429  -0.1428571   0.0000000), wk =   0.0204082
        k(   71) = (  -0.2142857  -0.1428571   0.0000000), wk =   0.0204082
        k(   72) = (   0.3571429  -0.2142857   0.0000000), wk =   0.0204082
        k(   73) = (  -0.1428571   0.4285714   0.0000000), wk =   0.0204082
        k(   74) = (  -0.2857143   0.4285714   0.0000000), wk =   0.0204082
        k(   75) = (   0.4285714  -0.1428571   0.0000000), wk =   0.0204082
        k(   76) = (  -0.2857143  -0.1428571   0.0000000), wk =   0.0204082
        k(   77) = (   0.4285714  -0.2857143   0.0000000), wk =   0.0204082
        k(   78) = (  -0.1428571   0.5000000   0.0000000), wk =   0.0204082
        k(   79) = (  -0.3571429   0.5000000   0.0000000), wk =   0.0204082
        k(   80) = (   0.5000000  -0.1428571   0.0000000), wk =   0.0204082
        k(   81) = (  -0.3571429  -0.1428571   0.0000000), wk =   0.0204082
        k(   82) = (   0.5000000  -0.3571429   0.0000000), wk =   0.0204082
        k(   83) = (  -0.4285714   0.5714286   0.0000000), wk =   0.0204082
        k(   84) = (   0.5714286  -0.1428571   0.0000000), wk =   0.0204082
        k(   85) = (  -0.2142857   0.4285714   0.0000000), wk =   0.0204082
        k(   86) = (   0.4285714  -0.2142857   0.0000000), wk =   0.0204082
        k(   87) = (  -0.2142857   0.5000000   0.0000000), wk =   0.0204082
        k(   88) = (  -0.2857143   0.5000000   0.0000000), wk =   0.0204082
        k(   89) = (   0.5000000  -0.2142857   0.0000000), wk =   0.0204082
        k(   90) = (  -0.2857143  -0.2142857   0.0000000), wk =   0.0204082
        k(   91) = (   0.5000000  -0.2857143   0.0000000), wk =   0.0204082
        k(   92) = (  -0.2142857   0.5714286   0.0000000), wk =   0.0204082
        k(   93) = (  -0.3571429   0.5714286   0.0000000), wk =   0.0204082
        k(   94) = (   0.5714286  -0.2142857   0.0000000), wk =   0.0204082
        k(   95) = (  -0.3571429  -0.2142857   0.0000000), wk =   0.0204082
        k(   96) = (   0.5714286  -0.3571429   0.0000000), wk =   0.0204082
        k(   97) = (  -0.2857143   0.5714286   0.0000000), wk =   0.0204082
        k(   98) = (   0.5714286  -0.2857143   0.0000000), wk =   0.0204082
        k(   99) = (  -0.3571429   0.6428571   0.0000000), wk =   0.0204082
        k(  100) = (   0.6428571  -0.2857143   0.0000000), wk =   0.0204082

     Dense  grid:   124953 G-vectors     FFT dimensions: (  36,  36, 250)

     Smooth grid:    89281 G-vectors     FFT dimensions: (  30,  30, 225)

     Dynamical RAM for                 wfc:       3.58 MB

     Dynamical RAM for     wfc (w. buffer):       3.58 MB

     Dynamical RAM for           str. fact:       5.72 MB

     Dynamical RAM for           local pot:       0.00 MB

     Dynamical RAM for          nlocal pot:      11.24 MB

     Dynamical RAM for                qrad:       4.82 MB

     Dynamical RAM for          rho,v,vnew:      13.14 MB

     Dynamical RAM for           G-vectors:       7.83 MB

     Dynamical RAM for          h,s,v(r/c):       0.08 MB

     Dynamical RAM for          <psi|beta>:       0.02 MB

     Dynamical RAM for                 psi:       7.15 MB

     Dynamical RAM for                hpsi:       7.15 MB

     Dynamical RAM for      wfcinit/wfcrot:       7.16 MB

     Estimated static dynamical RAM per process >      66.30 MB

     Estimated max dynamical RAM per process >      80.71 MB
 ----2D----2D----2D----2D----2D----2D----2D----2D----2D----2D----2D----2D
  The code is running with the 2D cutoff
  Please refer to:
  Sohier, T., Calandra, M., & Mauri, F. (2017), 
  Density functional perturbation theory for gated two-dimensional heterostructures:
  Theoretical developments and application to flexural phonons in graphene.
  Physical Review B, 96(7), 75448. https://doi.org/10.1103/PhysRevB.96.075448
 ----2D----2D----2D----2D----2D----2D----2D----2D----2D----2D----2D----2D

     The potential is recalculated from file :
     ./tmp/crsi2n4.save/charge-density

     Starting wfcs are   34 randomized atomic wfcs

     Band Structure Calculation
     Davidson diagonalization with overlap

     Computing kpt #:     1  of   100
     total cpu time spent up to now is        3.4 secs

     Computing kpt #:     2  of   100
     total cpu time spent up to now is        5.1 secs

     Computing kpt #:     3  of   100
     total cpu time spent up to now is        7.0 secs

     Computing kpt #:     4  of   100
     total cpu time spent up to now is        8.8 secs

     Computing kpt #:     5  of   100
     total cpu time spent up to now is       10.5 secs

     Computing kpt #:     6  of   100
     total cpu time spent up to now is       12.3 secs

     Computing kpt #:     7  of   100
     total cpu time spent up to now is       14.1 secs

     Computing kpt #:     8  of   100
     total cpu time spent up to now is       15.9 secs

     Computing kpt #:     9  of   100
     total cpu time spent up to now is       17.7 secs

     Computing kpt #:    10  of   100
     total cpu time spent up to now is       19.5 secs

     Computing kpt #:    11  of   100
     total cpu time spent up to now is       21.3 secs

     Computing kpt #:    12  of   100
     total cpu time spent up to now is       23.0 secs

     Computing kpt #:    13  of   100
     total cpu time spent up to now is       24.9 secs

     Computing kpt #:    14  of   100
     total cpu time spent up to now is       26.8 secs

     Computing kpt #:    15  of   100
     total cpu time spent up to now is       28.6 secs

     Computing kpt #:    16  of   100
     total cpu time spent up to now is       30.4 secs

     Computing kpt #:    17  of   100
     total cpu time spent up to now is       32.2 secs

     Computing kpt #:    18  of   100
     total cpu time spent up to now is       34.1 secs

     Computing kpt #:    19  of   100
     total cpu time spent up to now is       36.1 secs

     Computing kpt #:    20  of   100
     total cpu time spent up to now is       37.9 secs

     Computing kpt #:    21  of   100
     total cpu time spent up to now is       39.7 secs

     Computing kpt #:    22  of   100
     total cpu time spent up to now is       41.6 secs

     Computing kpt #:    23  of   100
     total cpu time spent up to now is       43.5 secs

     Computing kpt #:    24  of   100
     total cpu time spent up to now is       45.4 secs

     Computing kpt #:    25  of   100
     total cpu time spent up to now is       47.2 secs

     Computing kpt #:    26  of   100
     total cpu time spent up to now is       49.0 secs

     Computing kpt #:    27  of   100
     total cpu time spent up to now is       50.8 secs

     Computing kpt #:    28  of   100
     total cpu time spent up to now is       52.7 secs

     Computing kpt #:    29  of   100
     total cpu time spent up to now is       54.5 secs

     Computing kpt #:    30  of   100
     total cpu time spent up to now is       56.3 secs

     Computing kpt #:    31  of   100
     total cpu time spent up to now is       58.0 secs

     Computing kpt #:    32  of   100
     total cpu time spent up to now is       59.8 secs

     Computing kpt #:    33  of   100
     total cpu time spent up to now is       61.6 secs

     Computing kpt #:    34  of   100
     total cpu time spent up to now is       63.5 secs

     Computing kpt #:    35  of   100
     total cpu time spent up to now is       65.2 secs

     Computing kpt #:    36  of   100
     total cpu time spent up to now is       67.1 secs

     Computing kpt #:    37  of   100
     total cpu time spent up to now is       68.9 secs

     Computing kpt #:    38  of   100
     total cpu time spent up to now is       70.7 secs

     Computing kpt #:    39  of   100
     total cpu time spent up to now is       72.5 secs

     Computing kpt #:    40  of   100
     total cpu time spent up to now is       74.4 secs

     Computing kpt #:    41  of   100
     total cpu time spent up to now is       76.2 secs

     Computing kpt #:    42  of   100
     total cpu time spent up to now is       78.0 secs

     Computing kpt #:    43  of   100
     total cpu time spent up to now is       79.9 secs

     Computing kpt #:    44  of   100
     total cpu time spent up to now is       81.6 secs

     Computing kpt #:    45  of   100
     total cpu time spent up to now is       83.4 secs

     Computing kpt #:    46  of   100
     total cpu time spent up to now is       85.1 secs

     Computing kpt #:    47  of   100
     total cpu time spent up to now is       86.8 secs

     Computing kpt #:    48  of   100
     total cpu time spent up to now is       88.6 secs

     Computing kpt #:    49  of   100
     total cpu time spent up to now is       90.3 secs

     Computing kpt #:    50  of   100
     total cpu time spent up to now is       92.1 secs

     Computing kpt #:    51  of   100
     total cpu time spent up to now is       93.9 secs

     Computing kpt #:    52  of   100
     total cpu time spent up to now is       95.8 secs

     Computing kpt #:    53  of   100
     total cpu time spent up to now is       97.7 secs

     Computing kpt #:    54  of   100
     total cpu time spent up to now is       99.5 secs

     Computing kpt #:    55  of   100
     total cpu time spent up to now is      101.3 secs

     Computing kpt #:    56  of   100
     total cpu time spent up to now is      103.3 secs

     Computing kpt #:    57  of   100
     total cpu time spent up to now is      105.2 secs

     Computing kpt #:    58  of   100
     total cpu time spent up to now is      107.2 secs

     Computing kpt #:    59  of   100
     total cpu time spent up to now is      109.1 secs

     Computing kpt #:    60  of   100
     total cpu time spent up to now is      111.0 secs

     Computing kpt #:    61  of   100
     total cpu time spent up to now is      113.0 secs

     Computing kpt #:    62  of   100
     total cpu time spent up to now is      114.9 secs

     Computing kpt #:    63  of   100
     total cpu time spent up to now is      117.0 secs

     Computing kpt #:    64  of   100
     total cpu time spent up to now is      119.0 secs

     Computing kpt #:    65  of   100
     total cpu time spent up to now is      121.0 secs

     Computing kpt #:    66  of   100
     total cpu time spent up to now is      122.8 secs

     Computing kpt #:    67  of   100
     total cpu time spent up to now is      124.6 secs

     Computing kpt #:    68  of   100
     total cpu time spent up to now is      126.4 secs

     Computing kpt #:    69  of   100
     total cpu time spent up to now is      128.2 secs

     Computing kpt #:    70  of   100
     total cpu time spent up to now is      130.0 secs

     Computing kpt #:    71  of   100
     total cpu time spent up to now is      131.8 secs

     Computing kpt #:    72  of   100
     total cpu time spent up to now is      133.6 secs

     Computing kpt #:    73  of   100
     total cpu time spent up to now is      135.4 secs

     Computing kpt #:    74  of   100
     total cpu time spent up to now is      137.3 secs

     Computing kpt #:    75  of   100
     total cpu time spent up to now is      139.3 secs

     Computing kpt #:    76  of   100
     total cpu time spent up to now is      141.3 secs

     Computing kpt #:    77  of   100
     total cpu time spent up to now is      143.1 secs

     Computing kpt #:    78  of   100
     total cpu time spent up to now is      145.0 secs

     Computing kpt #:    79  of   100
     total cpu time spent up to now is      147.1 secs

     Computing kpt #:    80  of   100
     total cpu time spent up to now is      149.1 secs

     Computing kpt #:    81  of   100
     total cpu time spent up to now is      151.2 secs

     Computing kpt #:    82  of   100
     total cpu time spent up to now is      153.1 secs

     Computing kpt #:    83  of   100
     total cpu time spent up to now is      155.1 secs

     Computing kpt #:    84  of   100
     total cpu time spent up to now is      157.1 secs

     Computing kpt #:    85  of   100
     total cpu time spent up to now is      158.8 secs

     Computing kpt #:    86  of   100
     total cpu time spent up to now is      160.6 secs

     Computing kpt #:    87  of   100
     total cpu time spent up to now is      162.4 secs

     Computing kpt #:    88  of   100
     total cpu time spent up to now is      164.2 secs

     Computing kpt #:    89  of   100
     total cpu time spent up to now is      166.1 secs

     Computing kpt #:    90  of   100
     total cpu time spent up to now is      167.8 secs

     Computing kpt #:    91  of   100
     total cpu time spent up to now is      169.7 secs

     Computing kpt #:    92  of   100
     total cpu time spent up to now is      171.4 secs

     Computing kpt #:    93  of   100
     total cpu time spent up to now is      173.4 secs

     Computing kpt #:    94  of   100
     total cpu time spent up to now is      175.3 secs

     Computing kpt #:    95  of   100
     total cpu time spent up to now is      177.3 secs

     Computing kpt #:    96  of   100
     total cpu time spent up to now is      179.2 secs

     Computing kpt #:    97  of   100
     total cpu time spent up to now is      181.1 secs

     Computing kpt #:    98  of   100
     total cpu time spent up to now is      182.9 secs

     Computing kpt #:    99  of   100
     total cpu time spent up to now is      184.8 secs

     Computing kpt #:   100  of   100
     total cpu time spent up to now is      186.6 secs

     ethr =  2.38E-13,  avg # of iterations = 94.0

     total cpu time spent up to now is      186.6 secs

     End of band structure calculation

          k = 0.0000 0.0000 0.0000 ( 11265 PWs)   bands (ev):

   -77.9030 -49.1155 -49.0735 -49.0735 -25.1108 -25.0394 -22.2379 -20.8510
   -14.4805 -11.9082  -9.8877  -9.2003  -9.2001  -9.1254  -9.1251  -8.9089
    -8.9087  -7.9057  -7.6172  -7.6165  -5.6159

     occupation numbers 
     1.0000   1.0000   1.0000   1.0000   1.0000   1.0000   1.0000   1.0000
     1.0000   1.0000   1.0000   1.0000   1.0000   1.0000   1.0000   1.0000
     1.0000   1.0000   1.0000   1.0000   1.0000

          k = 0.0000 0.0825 0.0000 ( 11213 PWs)   bands (ev):

   -77.9004 -49.1121 -49.0920 -49.0777 -25.0151 -24.9453 -22.1598 -20.8070
   -14.3977 -11.8698  -9.9408  -9.5806  -9.4426  -9.2718  -9.2213  -9.1003
    -8.8608  -8.0187  -7.7194  -7.5511  -5.6728

     occupation numbers 
     1.0000   1.0000   1.0000   1.0000   1.0000   1.0000   1.0000   1.0000
     1.0000   1.0000   1.0000   1.0000   1.0000   1.0000   1.0000   1.0000
     1.0000   1.0000   1.0000   1.0000   1.0000

          k = 0.0000 0.1650 0.0000 ( 11217 PWs)   bands (ev):

   -77.8933 -49.1435 -49.1024 -49.0892 -24.7327 -24.6673 -21.9364 -20.6816
   -14.1704 -11.7718 -10.6838 -10.6232  -9.5820  -9.4964  -9.4751  -9.4696
    -8.6872  -8.2841  -7.9838  -7.5991  -5.8936

     occupation numbers 
     1.0000   1.0000   1.0000   1.0000   1.0000   1.0000   1.0000   1.0000
     1.0000   1.0000   1.0000   1.0000   1.0000   1.0000   1.0000   1.0000
     1.0000   1.0000   1.0000   1.0000   1.0000

          k = 0.0000 0.2474 0.0000 ( 11177 PWs)   bands (ev):

   -77.8829 -49.2174 -49.1059 -49.0884 -24.2786 -24.2202 -21.6013 -20.4968
   -13.8847 -12.0564 -11.8602 -11.5297 -10.1380  -9.8162  -9.8044  -9.2852
    -8.6794  -8.4233  -8.3078  -7.7965  -6.2431

     occupation numbers 
     1.0000   1.0000   1.0000   1.0000   1.0000   1.0000   1.0000   1.0000
     1.0000   1.0000   1.0000   1.0000   1.0000   1.0000   1.0000   1.0000
     1.0000   1.0000   1.0000   1.0000   1.0000

          k = 0.0000 0.3299 0.0000 ( 11173 PWs)   bands (ev):

   -77.8714 -49.2986 -49.1244 -49.0729 -23.6843 -23.6351 -21.2150 -20.2943
   -13.9291 -13.3617 -12.7796 -11.4633 -10.7261 -10.1512 -10.1274  -9.2310
    -8.9817  -8.6613  -8.0759  -7.9570  -6.5326

     occupation numbers 
     1.0000   1.0000   1.0000   1.0000   1.0000   1.0000   1.0000   1.0000
     1.0000   1.0000   1.0000   1.0000   1.0000   1.0000   1.0000   1.0000
     1.0000   1.0000   1.0000   1.0000   1.0000

          k = 0.0000 0.4124 0.0000 ( 11153 PWs)   bands (ev):

   -77.8610 -49.3712 -49.1409 -49.0589 -23.0130 -22.9754 -20.8708 -20.1381
   -14.8075 -14.5637 -12.7963 -11.5453 -11.1702 -10.4292 -10.3947  -9.6165
    -8.9314  -8.7606  -8.0190  -7.7694  -6.6282

     occupation numbers 
     1.0000   1.0000   1.0000   1.0000   1.0000   1.0000   1.0000   1.0000
     1.0000   1.0000   1.0000   1.0000   1.0000   1.0000   1.0000   1.0000
     1.0000   1.0000   1.0000   1.0000   1.0000

          k = 0.0000 0.4949 0.0000 ( 11136 PWs)   bands (ev):

   -77.8538 -49.4210 -49.1524 -49.0492 -22.4009 -22.3776 -20.6763 -20.0908
   -15.6275 -15.4230 -12.6525 -11.8560 -11.3613 -10.6099 -10.5690  -9.8135
    -9.1064  -8.5149  -8.0245  -7.5496  -6.5960

     occupation numbers 
     1.0000   1.0000   1.0000   1.0000   1.0000   1.0000   1.0000   1.0000
     1.0000   1.0000   1.0000   1.0000   1.0000   1.0000   1.0000   1.0000
     1.0000   1.0000   1.0000   1.0000   1.0000

          k = 0.0000-0.5774 0.0000 ( 11140 PWs)   bands (ev):

   -77.8513 -49.4387 -49.1565 -49.0457 -22.1233 -22.1099 -20.6395 -20.1088
   -15.9421 -15.7391 -12.5875 -12.0165 -11.4306 -10.6723 -10.6293  -9.8584
    -9.1667  -8.3865  -8.0269  -7.4697  -6.5704

     occupation numbers 
     1.0000   1.0000   1.0000   1.0000   1.0000   1.0000   1.0000   1.0000
     1.0000   1.0000   1.0000   1.0000   1.0000   1.0000   1.0000   1.0000
     1.0000   1.0000   1.0000   1.0000   1.0000

          k = 0.0714 0.1237 0.0000 ( 11215 PWs)   bands (ev):

   -77.8956 -49.1263 -49.1055 -49.0862 -24.8261 -24.7592 -22.0090 -20.7222
   -14.2422 -11.8001 -10.3728 -10.2815  -9.6034  -9.4864  -9.4517  -9.2839
    -8.7647  -8.1624  -7.9849  -7.5110  -5.8151

     occupation numbers 
     1.0000   1.0000   1.0000   1.0000   1.0000   1.0000   1.0000   1.0000
     1.0000   1.0000   1.0000   1.0000   1.0000   1.0000   1.0000   1.0000
     1.0000   1.0000   1.0000   1.0000   1.0000

          k = 0.0714 0.2062 0.0000 ( 11207 PWs)   bands (ev):

   -77.8868 -49.1871 -49.1022 -49.0937 -24.4575 -24.3963 -21.7293 -20.5665
   -13.9787 -11.7417 -11.3500 -11.3270 -10.0756  -9.8226  -9.6540  -9.3474
    -8.5730  -8.4896  -8.2868  -7.6097  -6.1110

     occupation numbers 
     1.0000   1.0000   1.0000   1.0000   1.0000   1.0000   1.0000   1.0000
     1.0000   1.0000   1.0000   1.0000   1.0000   1.0000   1.0000   1.0000
     1.0000   1.0000   1.0000   1.0000   1.0000

          k = 0.0714 0.2887 0.0000 ( 11192 PWs)   bands (ev):

   -77.8759 -49.2623 -49.1221 -49.0789 -23.9318 -23.8787 -21.3667 -20.3706
   -13.7858 -12.7313 -12.4280 -11.4720 -10.6024 -10.2456 -10.0788  -9.1716
    -9.0367  -8.4555  -8.2645  -7.8307  -6.4367

     occupation numbers 
     1.0000   1.0000   1.0000   1.0000   1.0000   1.0000   1.0000   1.0000
     1.0000   1.0000   1.0000   1.0000   1.0000   1.0000   1.0000   1.0000
     1.0000   1.0000   1.0000   1.0000   1.0000

          k = 0.0714 0.3712 0.0000 ( 11184 PWs)   bands (ev):

   -77.8650 -49.3368 -49.1420 -49.0642 -23.2937 -23.2508 -20.9971 -20.1865
   -14.3005 -13.9725 -12.8106 -11.4484 -11.0507 -10.6142 -10.4714  -9.5982
    -8.9110  -8.6250  -8.0656  -7.9347  -6.6068

     occupation numbers 
     1.0000   1.0000   1.0000   1.0000   1.0000   1.0000   1.0000   1.0000
     1.0000   1.0000   1.0000   1.0000   1.0000   1.0000   1.0000   1.0000
     1.0000   1.0000   1.0000   1.0000   1.0000

          k = 0.0714 0.4536 0.0000 ( 11142 PWs)   bands (ev):

   -77.8562 -49.3960 -49.1579 -49.0523 -22.6354 -22.6054 -20.7250 -20.0830
   -15.2131 -14.9986 -12.6788 -11.7087 -11.2834 -10.8507 -10.7660  -9.8661
    -8.9950  -8.5692  -8.0441  -7.7887  -6.5804

     occupation numbers 
     1.0000   1.0000   1.0000   1.0000   1.0000   1.0000   1.0000   1.0000
     1.0000   1.0000   1.0000   1.0000   1.0000   1.0000   1.0000   1.0000
     1.0000   1.0000   1.0000   1.0000   1.0000

          k = 0.0714 0.5361 0.0000 ( 11108 PWs)   bands (ev):

   -77.8513 -49.4288 -49.1668 -49.0457 -22.1550 -22.1391 -20.6246 -20.0841
   -15.7944 -15.5919 -12.5545 -11.9774 -11.4250 -10.9771 -10.9060  -9.9098
    -9.1781  -8.3836  -8.0105  -7.7099  -6.5002

     occupation numbers 
     1.0000   1.0000   1.0000   1.0000   1.0000   1.0000   1.0000   1.0000
     1.0000   1.0000   1.0000   1.0000   1.0000   1.0000   1.0000   1.0000
     1.0000   1.0000   1.0000   1.0000   1.0000

          k = 0.1429 0.2474 0.0000 ( 11207 PWs)   bands (ev):

   -77.8775 -49.2460 -49.1247 -49.0811 -24.0163 -23.9619 -21.4207 -20.3979
   -13.7718 -12.4051 -12.1590 -11.4620 -10.7298 -10.4333 -10.0134  -9.1776
    -9.0652  -8.4332  -8.3167  -7.7132  -6.3942

     occupation numbers 
     1.0000   1.0000   1.0000   1.0000   1.0000   1.0000   1.0000   1.0000
     1.0000   1.0000   1.0000   1.0000   1.0000   1.0000   1.0000   1.0000
     1.0000   1.0000   1.0000   1.0000   1.0000

          k = 0.1429 0.3299 0.0000 ( 11181 PWs)   bands (ev):

   -77.8671 -49.3090 -49.1514 -49.0671 -23.4419 -23.3964 -21.0698 -20.2149
   -13.9378 -13.4381 -12.6795 -11.4201 -11.2816 -11.0198 -10.4311  -9.7106
    -8.9390  -8.4443  -8.2034  -7.9367  -6.5894

     occupation numbers 
     1.0000   1.0000   1.0000   1.0000   1.0000   1.0000   1.0000   1.0000
     1.0000   1.0000   1.0000   1.0000   1.0000   1.0000   1.0000   1.0000
     1.0000   1.0000   1.0000   1.0000   1.0000

          k = 0.1429 0.4124 0.0000 ( 11157 PWs)   bands (ev):

   -77.8578 -49.3647 -49.1761 -49.0545 -22.7993 -22.7650 -20.7639 -20.0756
   -14.6908 -14.4401 -12.6482 -11.8324 -11.5876 -11.1411 -10.8504 -10.1070
    -8.8327  -8.5523  -8.2807  -7.9312  -6.5716

     occupation numbers 
     1.0000   1.0000   1.0000   1.0000   1.0000   1.0000   1.0000   1.0000
     1.0000   1.0000   1.0000   1.0000   1.0000   1.0000   1.0000   1.0000
     1.0000   1.0000   1.0000   1.0000   1.0000

          k = 0.1429 0.4949 0.0000 ( 11128 PWs)   bands (ev):

   -77.8513 -49.4028 -49.1934 -49.0457 -22.2219 -22.2014 -20.5958 -20.0327
   -15.3931 -15.1871 -12.5415 -12.1137 -11.7723 -11.2916 -11.2149 -10.1185
    -9.0745  -8.5217  -8.2925  -7.8209  -6.4275

     occupation numbers 
     1.0000   1.0000   1.0000   1.0000   1.0000   1.0000   1.0000   1.0000
     1.0000   1.0000   1.0000   1.0000   1.0000   1.0000   1.0000   1.0000
     1.0000   1.0000   1.0000   1.0000   1.0000

          k = 0.1429 0.5774 0.0000 ( 11096 PWs)   bands (ev):

   -77.8490 -49.4163 -49.1997 -49.0426 -21.9644 -21.9525 -20.5648 -20.0465
   -15.6689 -15.4672 -12.5109 -12.2094 -11.7142 -11.5488 -11.3072 -10.0106
    -9.2731  -8.4858  -8.2529  -7.7768  -6.3476

     occupation numbers 
     1.0000   1.0000   1.0000   1.0000   1.0000   1.0000   1.0000   1.0000
     1.0000   1.0000   1.0000   1.0000   1.0000   1.0000   1.0000   1.0000
     1.0000   1.0000   1.0000   1.0000   1.0000

          k = 0.2143 0.3712 0.0000 ( 11149 PWs)   bands (ev):

   -77.8583 -49.3487 -49.1876 -49.0553 -22.8577 -22.8219 -20.7791 -20.0731
   -14.4084 -14.1111 -12.5786 -12.1171 -11.9803 -11.1151 -10.7135 -10.2550
    -8.8236  -8.6538  -8.2173  -8.0177  -6.5748

     occupation numbers 
     1.0000   1.0000   1.0000   1.0000   1.0000   1.0000   1.0000   1.0000
     1.0000   1.0000   1.0000   1.0000   1.0000   1.0000   1.0000   1.0000
     1.0000   1.0000   1.0000   1.0000   1.0000

          k = 0.2143 0.4536 0.0000 ( 11153 PWs)   bands (ev):

   -77.8513 -49.3758 -49.2211 -49.0457 -22.2719 -22.2484 -20.5766 -19.9952
   -14.9345 -14.7055 -12.8037 -12.6347 -12.2283 -11.2118 -10.9868 -10.3659
    -9.1043  -8.8254  -8.3423  -7.8301  -6.4024

     occupation numbers 
     1.0000   1.0000   1.0000   1.0000   1.0000   1.0000   1.0000   1.0000
     1.0000   1.0000   1.0000   1.0000   1.0000   1.0000   1.0000   1.0000
     1.0000   1.0000   1.0000   1.0000   1.0000

          k = 0.2143 0.5361 0.0000 ( 11104 PWs)   bands (ev):

   -77.8474 -49.3889 -49.2415 -49.0405 -21.8617 -21.8493 -20.5059 -19.9921
   -15.2903 -15.0827 -13.1013 -12.9533 -11.9152 -11.4451 -11.3181 -10.1026
    -9.4323  -9.0693  -8.2545  -7.7001  -6.2310

     occupation numbers 
     1.0000   1.0000   1.0000   1.0000   1.0000   1.0000   1.0000   1.0000
     1.0000   1.0000   1.0000   1.0000   1.0000   1.0000   1.0000   1.0000
     1.0000   1.0000   1.0000   1.0000   1.0000

          k = 0.2857 0.4949 0.0000 ( 11113 PWs)   bands (ev):

   -77.8468 -49.3696 -49.2660 -49.0397 -21.8322 -21.8192 -20.4802 -19.9658
   -14.9797 -14.7497 -13.5874 -13.4598 -11.9288 -11.4367 -11.0224 -10.2176
    -9.7446  -9.1311  -8.2650  -7.6787  -6.1847

     occupation numbers 
     1.0000   1.0000   1.0000   1.0000   1.0000   1.0000   1.0000   1.0000
     1.0000   1.0000   1.0000   1.0000   1.0000   1.0000   1.0000   1.0000
     1.0000   1.0000   1.0000   1.0000   1.0000

          k = 0.2857 0.5774 0.0000 ( 11102 PWs)   bands (ev):

   -77.8452 -49.3600 -49.2894 -49.0375 -21.6530 -21.6411 -20.4604 -19.9661
   -14.9249 -14.6875 -13.9485 -13.8528 -11.6902 -11.5569 -11.0462 -10.2333
    -9.8535  -9.3899  -8.2121  -7.6141  -6.0726

     occupation numbers 
     1.0000   1.0000   1.0000   1.0000   1.0000   1.0000   1.0000   1.0000
     1.0000   1.0000   1.0000   1.0000   1.0000   1.0000   1.0000   1.0000
     1.0000   1.0000   1.0000   1.0000   1.0000

          k =-0.0714 0.0412 0.0000 ( 11213 PWs)   bands (ev):

   -77.9004 -49.1121 -49.0920 -49.0777 -25.0151 -24.9453 -22.1598 -20.8070
   -14.3977 -11.8698  -9.9408  -9.5808  -9.4427  -9.2717  -9.2211  -9.1005
    -8.8606  -8.0185  -7.7198  -7.5509  -5.6728

     occupation numbers 
     1.0000   1.0000   1.0000   1.0000   1.0000   1.0000   1.0000   1.0000
     1.0000   1.0000   1.0000   1.0000   1.0000   1.0000   1.0000   1.0000
     1.0000   1.0000   1.0000   1.0000   1.0000

          k = 0.0714 0.0412 0.0000 ( 11213 PWs)   bands (ev):

   -77.9004 -49.1121 -49.0920 -49.0777 -25.0151 -24.9453 -22.1598 -20.8070
   -14.3977 -11.8698  -9.9408  -9.5806  -9.4426  -9.2718  -9.2213  -9.1003
    -8.8608  -8.0187  -7.7194  -7.5511  -5.6728

     occupation numbers 
     1.0000   1.0000   1.0000   1.0000   1.0000   1.0000   1.0000   1.0000
     1.0000   1.0000   1.0000   1.0000   1.0000   1.0000   1.0000   1.0000
     1.0000   1.0000   1.0000   1.0000   1.0000

          k =-0.1429 0.0825 0.0000 ( 11217 PWs)   bands (ev):

   -77.8933 -49.1435 -49.1024 -49.0892 -24.7327 -24.6673 -21.9364 -20.6816
   -14.1704 -11.7717 -10.6839 -10.6233  -9.5822  -9.4964  -9.4749  -9.4696
    -8.6870  -8.2838  -7.9841  -7.5992  -5.8935

     occupation numbers 
     1.0000   1.0000   1.0000   1.0000   1.0000   1.0000   1.0000   1.0000
     1.0000   1.0000   1.0000   1.0000   1.0000   1.0000   1.0000   1.0000
     1.0000   1.0000   1.0000   1.0000   1.0000

          k = 0.1429 0.0825 0.0000 ( 11217 PWs)   bands (ev):

   -77.8933 -49.1435 -49.1024 -49.0892 -24.7327 -24.6673 -21.9364 -20.6816
   -14.1704 -11.7718 -10.6838 -10.6232  -9.5820  -9.4964  -9.4751  -9.4696
    -8.6872  -8.2841  -7.9838  -7.5991  -5.8936

     occupation numbers 
     1.0000   1.0000   1.0000   1.0000   1.0000   1.0000   1.0000   1.0000
     1.0000   1.0000   1.0000   1.0000   1.0000   1.0000   1.0000   1.0000
     1.0000   1.0000   1.0000   1.0000   1.0000

          k =-0.2143 0.1237 0.0000 ( 11177 PWs)   bands (ev):

   -77.8829 -49.2174 -49.1059 -49.0884 -24.2786 -24.2202 -21.6013 -20.4968
   -13.8847 -12.0564 -11.8603 -11.5296 -10.1382  -9.8162  -9.8042  -9.2852
    -8.6791  -8.4232  -8.3081  -7.7967  -6.2430

     occupation numbers 
     1.0000   1.0000   1.0000   1.0000   1.0000   1.0000   1.0000   1.0000
     1.0000   1.0000   1.0000   1.0000   1.0000   1.0000   1.0000   1.0000
     1.0000   1.0000   1.0000   1.0000   1.0000

          k = 0.2143 0.1237 0.0000 ( 11177 PWs)   bands (ev):

   -77.8829 -49.2174 -49.1059 -49.0884 -24.2786 -24.2202 -21.6013 -20.4968
   -13.8847 -12.0564 -11.8602 -11.5297 -10.1380  -9.8162  -9.8044  -9.2852
    -8.6794  -8.4233  -8.3078  -7.7965  -6.2431

     occupation numbers 
     1.0000   1.0000   1.0000   1.0000   1.0000   1.0000   1.0000   1.0000
     1.0000   1.0000   1.0000   1.0000   1.0000   1.0000   1.0000   1.0000
     1.0000   1.0000   1.0000   1.0000   1.0000

          k =-0.2857 0.1650 0.0000 ( 11173 PWs)   bands (ev):

   -77.8714 -49.2986 -49.1243 -49.0729 -23.6843 -23.6351 -21.2150 -20.2942
   -13.9291 -13.3617 -12.7797 -11.4631 -10.7263 -10.1512 -10.1273  -9.2310
    -8.9817  -8.6616  -8.0758  -7.9571  -6.5325

     occupation numbers 
     1.0000   1.0000   1.0000   1.0000   1.0000   1.0000   1.0000   1.0000
     1.0000   1.0000   1.0000   1.0000   1.0000   1.0000   1.0000   1.0000
     1.0000   1.0000   1.0000   1.0000   1.0000

          k = 0.2857 0.1650 0.0000 ( 11173 PWs)   bands (ev):

   -77.8714 -49.2986 -49.1244 -49.0729 -23.6843 -23.6351 -21.2150 -20.2943
   -13.9291 -13.3617 -12.7796 -11.4633 -10.7261 -10.1512 -10.1274  -9.2310
    -8.9817  -8.6613  -8.0759  -7.9570  -6.5326

     occupation numbers 
     1.0000   1.0000   1.0000   1.0000   1.0000   1.0000   1.0000   1.0000
     1.0000   1.0000   1.0000   1.0000   1.0000   1.0000   1.0000   1.0000
     1.0000   1.0000   1.0000   1.0000   1.0000

          k =-0.3571 0.2062 0.0000 ( 11153 PWs)   bands (ev):

   -77.8610 -49.3712 -49.1409 -49.0589 -23.0131 -22.9754 -20.8709 -20.1380
   -14.8076 -14.5638 -12.7965 -11.5452 -11.1702 -10.4291 -10.3946  -9.6166
    -8.9316  -8.7604  -8.0190  -7.7694  -6.6280

     occupation numbers 
     1.0000   1.0000   1.0000   1.0000   1.0000   1.0000   1.0000   1.0000
     1.0000   1.0000   1.0000   1.0000   1.0000   1.0000   1.0000   1.0000
     1.0000   1.0000   1.0000   1.0000   1.0000

          k = 0.3571 0.2062 0.0000 ( 11153 PWs)   bands (ev):

   -77.8610 -49.3712 -49.1409 -49.0589 -23.0130 -22.9754 -20.8708 -20.1381
   -14.8075 -14.5637 -12.7963 -11.5453 -11.1702 -10.4292 -10.3947  -9.6165
    -8.9314  -8.7605  -8.0190  -7.7694  -6.6282

     occupation numbers 
     1.0000   1.0000   1.0000   1.0000   1.0000   1.0000   1.0000   1.0000
     1.0000   1.0000   1.0000   1.0000   1.0000   1.0000   1.0000   1.0000
     1.0000   1.0000   1.0000   1.0000   1.0000

          k =-0.4286 0.2474 0.0000 ( 11136 PWs)   bands (ev):

   -77.8538 -49.4210 -49.1524 -49.0492 -22.4010 -22.3777 -20.6764 -20.0907
   -15.6276 -15.4231 -12.6527 -11.8559 -11.3613 -10.6098 -10.5689  -9.8136
    -9.1065  -8.5147  -8.0246  -7.5496  -6.5958

     occupation numbers 
     1.0000   1.0000   1.0000   1.0000   1.0000   1.0000   1.0000   1.0000
     1.0000   1.0000   1.0000   1.0000   1.0000   1.0000   1.0000   1.0000
     1.0000   1.0000   1.0000   1.0000   1.0000

          k = 0.4286 0.2474 0.0000 ( 11136 PWs)   bands (ev):

   -77.8538 -49.4210 -49.1524 -49.0492 -22.4009 -22.3776 -20.6763 -20.0908
   -15.6275 -15.4230 -12.6525 -11.8559 -11.3613 -10.6099 -10.5690  -9.8135
    -9.1064  -8.5149  -8.0245  -7.5496  -6.5960

     occupation numbers 
     1.0000   1.0000   1.0000   1.0000   1.0000   1.0000   1.0000   1.0000
     1.0000   1.0000   1.0000   1.0000   1.0000   1.0000   1.0000   1.0000
     1.0000   1.0000   1.0000   1.0000   1.0000

          k = 0.5000-0.2887 0.0000 ( 11140 PWs)   bands (ev):

   -77.8513 -49.4387 -49.1565 -49.0457 -22.1233 -22.1099 -20.6395 -20.1086
   -15.9422 -15.7392 -12.5878 -12.0164 -11.4306 -10.6722 -10.6291  -9.8585
    -9.1669  -8.3863  -8.0271  -7.4697  -6.5703

     occupation numbers 
     1.0000   1.0000   1.0000   1.0000   1.0000   1.0000   1.0000   1.0000
     1.0000   1.0000   1.0000   1.0000   1.0000   1.0000   1.0000   1.0000
     1.0000   1.0000   1.0000   1.0000   1.0000

          k =-0.5000-0.2887 0.0000 ( 11140 PWs)   bands (ev):

   -77.8513 -49.4387 -49.1565 -49.0457 -22.1233 -22.1099 -20.6395 -20.1088
   -15.9421 -15.7391 -12.5875 -12.0165 -11.4307 -10.6723 -10.6293  -9.8584
    -9.1667  -8.3865  -8.0269  -7.4697  -6.5704

     occupation numbers 
     1.0000   1.0000   1.0000   1.0000   1.0000   1.0000   1.0000   1.0000
     1.0000   1.0000   1.0000   1.0000   1.0000   1.0000   1.0000   1.0000
     1.0000   1.0000   1.0000   1.0000   1.0000

          k =-0.0714 0.1237 0.0000 ( 11215 PWs)   bands (ev):

   -77.8956 -49.1263 -49.1055 -49.0862 -24.8261 -24.7592 -22.0091 -20.7222
   -14.2422 -11.8000 -10.3729 -10.2816  -9.6034  -9.4865  -9.4515  -9.2839
    -8.7645  -8.1621  -7.9852  -7.5111  -5.8150

     occupation numbers 
     1.0000   1.0000   1.0000   1.0000   1.0000   1.0000   1.0000   1.0000
     1.0000   1.0000   1.0000   1.0000   1.0000   1.0000   1.0000   1.0000
     1.0000   1.0000   1.0000   1.0000   1.0000

          k = 0.1429 0.0000 0.0000 ( 11215 PWs)   bands (ev):

   -77.8956 -49.1263 -49.1055 -49.0862 -24.8261 -24.7592 -22.0091 -20.7221
   -14.2422 -11.8000 -10.3729 -10.2816  -9.6034  -9.4865  -9.4515  -9.2839
    -8.7645  -8.1621  -7.9852  -7.5111  -5.8150

     occupation numbers 
     1.0000   1.0000   1.0000   1.0000   1.0000   1.0000   1.0000   1.0000
     1.0000   1.0000   1.0000   1.0000   1.0000   1.0000   1.0000   1.0000
     1.0000   1.0000   1.0000   1.0000   1.0000

          k =-0.0714 0.2062 0.0000 ( 11207 PWs)   bands (ev):

   -77.8868 -49.1871 -49.1022 -49.0937 -24.4575 -24.3963 -21.7293 -20.5664
   -13.9787 -11.7416 -11.3501 -11.3270 -10.0757  -9.8226  -9.6539  -9.3474
    -8.5730  -8.4898  -8.2864  -7.6100  -6.1109

     occupation numbers 
     1.0000   1.0000   1.0000   1.0000   1.0000   1.0000   1.0000   1.0000
     1.0000   1.0000   1.0000   1.0000   1.0000   1.0000   1.0000   1.0000
     1.0000   1.0000   1.0000   1.0000   1.0000

          k =-0.1429 0.1650 0.0000 ( 11207 PWs)   bands (ev):

   -77.8868 -49.1871 -49.1022 -49.0937 -24.4575 -24.3963 -21.7293 -20.5664
   -13.9787 -11.7416 -11.3502 -11.3271 -10.0757  -9.8225  -9.6539  -9.3474
    -8.5729  -8.4896  -8.2867  -7.6100  -6.1108

     occupation numbers 
     1.0000   1.0000   1.0000   1.0000   1.0000   1.0000   1.0000   1.0000
     1.0000   1.0000   1.0000   1.0000   1.0000   1.0000   1.0000   1.0000
     1.0000   1.0000   1.0000   1.0000   1.0000

          k = 0.2143 0.0412 0.0000 ( 11207 PWs)   bands (ev):

   -77.8868 -49.1871 -49.1022 -49.0937 -24.4575 -24.3963 -21.7293 -20.5664
   -13.9787 -11.7416 -11.3501 -11.3270 -10.0757  -9.8226  -9.6539  -9.3474
    -8.5730  -8.4898  -8.2864  -7.6100  -6.1109

     occupation numbers 
     1.0000   1.0000   1.0000   1.0000   1.0000   1.0000   1.0000   1.0000
     1.0000   1.0000   1.0000   1.0000   1.0000   1.0000   1.0000   1.0000
     1.0000   1.0000   1.0000   1.0000   1.0000

          k =-0.1429-0.1650 0.0000 ( 11207 PWs)   bands (ev):

   -77.8868 -49.1871 -49.1022 -49.0937 -24.4575 -24.3963 -21.7293 -20.5665
   -13.9787 -11.7417 -11.3500 -11.3270 -10.0756  -9.8226  -9.6540  -9.3474
    -8.5730  -8.4896  -8.2868  -7.6097  -6.1110

     occupation numbers 
     1.0000   1.0000   1.0000   1.0000   1.0000   1.0000   1.0000   1.0000
     1.0000   1.0000   1.0000   1.0000   1.0000   1.0000   1.0000   1.0000
     1.0000   1.0000   1.0000   1.0000   1.0000

          k = 0.2143-0.0412 0.0000 ( 11207 PWs)   bands (ev):

   -77.8868 -49.1871 -49.1022 -49.0937 -24.4575 -24.3963 -21.7293 -20.5664
   -13.9787 -11.7416 -11.3502 -11.3271 -10.0757  -9.8225  -9.6539  -9.3474
    -8.5729  -8.4896  -8.2867  -7.6100  -6.1108

     occupation numbers 
     1.0000   1.0000   1.0000   1.0000   1.0000   1.0000   1.0000   1.0000
     1.0000   1.0000   1.0000   1.0000   1.0000   1.0000   1.0000   1.0000
     1.0000   1.0000   1.0000   1.0000   1.0000

          k =-0.0714 0.2887 0.0000 ( 11192 PWs)   bands (ev):

   -77.8759 -49.2623 -49.1221 -49.0789 -23.9318 -23.8787 -21.3667 -20.3705
   -13.7859 -12.7314 -12.4281 -11.4720 -10.6025 -10.2456 -10.0787  -9.1717
    -9.0368  -8.4553  -8.2645  -7.8309  -6.4366

     occupation numbers 
     1.0000   1.0000   1.0000   1.0000   1.0000   1.0000   1.0000   1.0000
     1.0000   1.0000   1.0000   1.0000   1.0000   1.0000   1.0000   1.0000
     1.0000   1.0000   1.0000   1.0000   1.0000

          k =-0.2143 0.2062 0.0000 ( 11192 PWs)   bands (ev):

   -77.8759 -49.2623 -49.1221 -49.0789 -23.9318 -23.8787 -21.3667 -20.3705
   -13.7859 -12.7314 -12.4281 -11.4719 -10.6026 -10.2455 -10.0787  -9.1717
    -9.0367  -8.4555  -8.2644  -7.8310  -6.4365

     occupation numbers 
     1.0000   1.0000   1.0000   1.0000   1.0000   1.0000   1.0000   1.0000
     1.0000   1.0000   1.0000   1.0000   1.0000   1.0000   1.0000   1.0000
     1.0000   1.0000   1.0000   1.0000   1.0000

          k = 0.2857 0.0825 0.0000 ( 11192 PWs)   bands (ev):

   -77.8759 -49.2623 -49.1221 -49.0789 -23.9318 -23.8787 -21.3667 -20.3705
   -13.7858 -12.7314 -12.4281 -11.4720 -10.6025 -10.2456 -10.0787  -9.1717
    -9.0368  -8.4553  -8.2644  -7.8309  -6.4366

     occupation numbers 
     1.0000   1.0000   1.0000   1.0000   1.0000   1.0000   1.0000   1.0000
     1.0000   1.0000   1.0000   1.0000   1.0000   1.0000   1.0000   1.0000
     1.0000   1.0000   1.0000   1.0000   1.0000

          k =-0.2143-0.2062 0.0000 ( 11192 PWs)   bands (ev):

   -77.8759 -49.2623 -49.1221 -49.0789 -23.9318 -23.8787 -21.3667 -20.3706
   -13.7858 -12.7313 -12.4280 -11.4720 -10.6024 -10.2456 -10.0788  -9.1716
    -9.0367  -8.4555  -8.2645  -7.8307  -6.4367

     occupation numbers 
     1.0000   1.0000   1.0000   1.0000   1.0000   1.0000   1.0000   1.0000
     1.0000   1.0000   1.0000   1.0000   1.0000   1.0000   1.0000   1.0000
     1.0000   1.0000   1.0000   1.0000   1.0000

          k = 0.2857-0.0825 0.0000 ( 11192 PWs)   bands (ev):

   -77.8759 -49.2623 -49.1221 -49.0789 -23.9318 -23.8787 -21.3667 -20.3705
   -13.7859 -12.7314 -12.4281 -11.4719 -10.6026 -10.2455 -10.0787  -9.1717
    -9.0367  -8.4555  -8.2644  -7.8310  -6.4365

     occupation numbers 
     1.0000   1.0000   1.0000   1.0000   1.0000   1.0000   1.0000   1.0000
     1.0000   1.0000   1.0000   1.0000   1.0000   1.0000   1.0000   1.0000
     1.0000   1.0000   1.0000   1.0000   1.0000

          k =-0.0714 0.3712 0.0000 ( 11184 PWs)   bands (ev):

   -77.8650 -49.3368 -49.1420 -49.0642 -23.2937 -23.2508 -20.9971 -20.1865
   -14.3005 -13.9725 -12.8107 -11.4484 -11.0507 -10.6141 -10.4713  -9.5982
    -8.9109  -8.6251  -8.0659  -7.9345  -6.6066

     occupation numbers 
     1.0000   1.0000   1.0000   1.0000   1.0000   1.0000   1.0000   1.0000
     1.0000   1.0000   1.0000   1.0000   1.0000   1.0000   1.0000   1.0000
     1.0000   1.0000   1.0000   1.0000   1.0000

          k =-0.2857 0.2474 0.0000 ( 11184 PWs)   bands (ev):

   -77.8650 -49.3368 -49.1420 -49.0642 -23.2937 -23.2508 -20.9971 -20.1865
   -14.3005 -13.9726 -12.8108 -11.4482 -11.0508 -10.6140 -10.4713  -9.5983
    -8.9109  -8.6251  -8.0657  -7.9346  -6.6065

     occupation numbers 
     1.0000   1.0000   1.0000   1.0000   1.0000   1.0000   1.0000   1.0000
     1.0000   1.0000   1.0000   1.0000   1.0000   1.0000   1.0000   1.0000
     1.0000   1.0000   1.0000   1.0000   1.0000

          k = 0.3571 0.1237 0.0000 ( 11184 PWs)   bands (ev):

   -77.8650 -49.3368 -49.1420 -49.0642 -23.2937 -23.2508 -20.9971 -20.1865
   -14.3005 -13.9725 -12.8107 -11.4484 -11.0508 -10.6141 -10.4713  -9.5982
    -8.9109  -8.6251  -8.0659  -7.9345  -6.6066

     occupation numbers 
     1.0000   1.0000   1.0000   1.0000   1.0000   1.0000   1.0000   1.0000
     1.0000   1.0000   1.0000   1.0000   1.0000   1.0000   1.0000   1.0000
     1.0000   1.0000   1.0000   1.0000   1.0000

          k =-0.2857-0.2474 0.0000 ( 11184 PWs)   bands (ev):

   -77.8650 -49.3368 -49.1420 -49.0642 -23.2937 -23.2508 -20.9971 -20.1865
   -14.3005 -13.9725 -12.8106 -11.4484 -11.0507 -10.6142 -10.4714  -9.5983
    -8.9110  -8.6250  -8.0656  -7.9347  -6.6068

     occupation numbers 
     1.0000   1.0000   1.0000   1.0000   1.0000   1.0000   1.0000   1.0000
     1.0000   1.0000   1.0000   1.0000   1.0000   1.0000   1.0000   1.0000
     1.0000   1.0000   1.0000   1.0000   1.0000

          k = 0.3571-0.1237 0.0000 ( 11184 PWs)   bands (ev):

   -77.8650 -49.3368 -49.1420 -49.0642 -23.2937 -23.2508 -20.9971 -20.1865
   -14.3005 -13.9726 -12.8108 -11.4482 -11.0508 -10.6140 -10.4713  -9.5983
    -8.9109  -8.6251  -8.0657  -7.9346  -6.6065

     occupation numbers 
     1.0000   1.0000   1.0000   1.0000   1.0000   1.0000   1.0000   1.0000
     1.0000   1.0000   1.0000   1.0000   1.0000   1.0000   1.0000   1.0000
     1.0000   1.0000   1.0000   1.0000   1.0000

          k =-0.0714 0.4536 0.0000 ( 11142 PWs)   bands (ev):

   -77.8562 -49.3960 -49.1579 -49.0523 -22.6354 -22.6054 -20.7250 -20.0829
   -15.2131 -14.9986 -12.6788 -11.7088 -11.2835 -10.8507 -10.7659  -9.8659
    -8.9951  -8.5693  -8.0442  -7.7887  -6.5803

     occupation numbers 
     1.0000   1.0000   1.0000   1.0000   1.0000   1.0000   1.0000   1.0000
     1.0000   1.0000   1.0000   1.0000   1.0000   1.0000   1.0000   1.0000
     1.0000   1.0000   1.0000   1.0000   1.0000

          k =-0.3571 0.2887 0.0000 ( 11142 PWs)   bands (ev):

   -77.8562 -49.3960 -49.1579 -49.0523 -22.6354 -22.6054 -20.7250 -20.0828
   -15.2132 -14.9987 -12.6789 -11.7086 -11.2834 -10.8506 -10.7658  -9.8661
    -8.9952  -8.5691  -8.0443  -7.7887  -6.5802

     occupation numbers 
     1.0000   1.0000   1.0000   1.0000   1.0000   1.0000   1.0000   1.0000
     1.0000   1.0000   1.0000   1.0000   1.0000   1.0000   1.0000   1.0000
     1.0000   1.0000   1.0000   1.0000   1.0000

          k = 0.4286 0.1650 0.0000 ( 11142 PWs)   bands (ev):

   -77.8562 -49.3960 -49.1579 -49.0523 -22.6354 -22.6054 -20.7250 -20.0829
   -15.2131 -14.9986 -12.6788 -11.7088 -11.2835 -10.8507 -10.7659  -9.8659
    -8.9951  -8.5693  -8.0442  -7.7887  -6.5803

     occupation numbers 
     1.0000   1.0000   1.0000   1.0000   1.0000   1.0000   1.0000   1.0000
     1.0000   1.0000   1.0000   1.0000   1.0000   1.0000   1.0000   1.0000
     1.0000   1.0000   1.0000   1.0000   1.0000

          k =-0.3571-0.2887 0.0000 ( 11142 PWs)   bands (ev):

   -77.8562 -49.3960 -49.1579 -49.0523 -22.6354 -22.6054 -20.7250 -20.0830
   -15.2131 -14.9986 -12.6788 -11.7087 -11.2834 -10.8507 -10.7660  -9.8661
    -8.9950  -8.5692  -8.0441  -7.7888  -6.5804

     occupation numbers 
     1.0000   1.0000   1.0000   1.0000   1.0000   1.0000   1.0000   1.0000
     1.0000   1.0000   1.0000   1.0000   1.0000   1.0000   1.0000   1.0000
     1.0000   1.0000   1.0000   1.0000   1.0000

          k = 0.4286-0.1650 0.0000 ( 11142 PWs)   bands (ev):

   -77.8562 -49.3960 -49.1579 -49.0523 -22.6354 -22.6054 -20.7250 -20.0828
   -15.2132 -14.9987 -12.6789 -11.7087 -11.2834 -10.8506 -10.7658  -9.8661
    -8.9952  -8.5691  -8.0443  -7.7887  -6.5802

     occupation numbers 
     1.0000   1.0000   1.0000   1.0000   1.0000   1.0000   1.0000   1.0000
     1.0000   1.0000   1.0000   1.0000   1.0000   1.0000   1.0000   1.0000
     1.0000   1.0000   1.0000   1.0000   1.0000

          k =-0.0714 0.5361 0.0000 ( 11108 PWs)   bands (ev):

   -77.8513 -49.4288 -49.1668 -49.0457 -22.1550 -22.1391 -20.6246 -20.0841
   -15.7944 -15.5919 -12.5545 -11.9774 -11.4250 -10.9771 -10.9060  -9.9096
    -9.1783  -8.3837  -8.0105  -7.7099  -6.5001

     occupation numbers 
     1.0000   1.0000   1.0000   1.0000   1.0000   1.0000   1.0000   1.0000
     1.0000   1.0000   1.0000   1.0000   1.0000   1.0000   1.0000   1.0000
     1.0000   1.0000   1.0000   1.0000   1.0000

          k =-0.4286 0.3299 0.0000 ( 11108 PWs)   bands (ev):

   -77.8513 -49.4288 -49.1668 -49.0457 -22.1550 -22.1391 -20.6247 -20.0839
   -15.7945 -15.5920 -12.5547 -11.9773 -11.4250 -10.9771 -10.9058  -9.9098
    -9.1783  -8.3834  -8.0106  -7.7099  -6.5000

     occupation numbers 
     1.0000   1.0000   1.0000   1.0000   1.0000   1.0000   1.0000   1.0000
     1.0000   1.0000   1.0000   1.0000   1.0000   1.0000   1.0000   1.0000
     1.0000   1.0000   1.0000   1.0000   1.0000

          k = 0.5000 0.2062 0.0000 ( 11108 PWs)   bands (ev):

   -77.8513 -49.4288 -49.1668 -49.0457 -22.1550 -22.1391 -20.6246 -20.0841
   -15.7944 -15.5920 -12.5545 -11.9774 -11.4250 -10.9771 -10.9060  -9.9097
    -9.1783  -8.3836  -8.0105  -7.7099  -6.5001

     occupation numbers 
     1.0000   1.0000   1.0000   1.0000   1.0000   1.0000   1.0000   1.0000
     1.0000   1.0000   1.0000   1.0000   1.0000   1.0000   1.0000   1.0000
     1.0000   1.0000   1.0000   1.0000   1.0000

          k =-0.4286-0.3299 0.0000 ( 11108 PWs)   bands (ev):

   -77.8513 -49.4288 -49.1668 -49.0457 -22.1550 -22.1391 -20.6246 -20.0841
   -15.7944 -15.5920 -12.5545 -11.9774 -11.4250 -10.9771 -10.9060  -9.9098
    -9.1781  -8.3836  -8.0105  -7.7099  -6.5002

     occupation numbers 
     1.0000   1.0000   1.0000   1.0000   1.0000   1.0000   1.0000   1.0000
     1.0000   1.0000   1.0000   1.0000   1.0000   1.0000   1.0000   1.0000
     1.0000   1.0000   1.0000   1.0000   1.0000

          k = 0.5000-0.2062 0.0000 ( 11108 PWs)   bands (ev):

   -77.8513 -49.4288 -49.1668 -49.0457 -22.1550 -22.1391 -20.6247 -20.0839
   -15.7945 -15.5920 -12.5547 -11.9773 -11.4250 -10.9771 -10.9058  -9.9098
    -9.1783  -8.3834  -8.0107  -7.7099  -6.5000

     occupation numbers 
     1.0000   1.0000   1.0000   1.0000   1.0000   1.0000   1.0000   1.0000
     1.0000   1.0000   1.0000   1.0000   1.0000   1.0000   1.0000   1.0000
     1.0000   1.0000   1.0000   1.0000   1.0000

          k =-0.1429 0.2474 0.0000 ( 11207 PWs)   bands (ev):

   -77.8775 -49.2460 -49.1246 -49.0811 -24.0163 -23.9619 -21.4207 -20.3979
   -13.7718 -12.4051 -12.1591 -11.4619 -10.7299 -10.4332 -10.0135  -9.1777
    -9.0653  -8.4331  -8.3164  -7.7136  -6.3940

     occupation numbers 
     1.0000   1.0000   1.0000   1.0000   1.0000   1.0000   1.0000   1.0000
     1.0000   1.0000   1.0000   1.0000   1.0000   1.0000   1.0000   1.0000
     1.0000   1.0000   1.0000   1.0000   1.0000

          k = 0.2857 0.0000 0.0000 ( 11207 PWs)   bands (ev):

   -77.8775 -49.2460 -49.1246 -49.0811 -24.0163 -23.9619 -21.4207 -20.3979
   -13.7718 -12.4051 -12.1591 -11.4619 -10.7299 -10.4332 -10.0135  -9.1777
    -9.0653  -8.4331  -8.3164  -7.7136  -6.3940

     occupation numbers 
     1.0000   1.0000   1.0000   1.0000   1.0000   1.0000   1.0000   1.0000
     1.0000   1.0000   1.0000   1.0000   1.0000   1.0000   1.0000   1.0000
     1.0000   1.0000   1.0000   1.0000   1.0000

          k =-0.1429 0.3299 0.0000 ( 11181 PWs)   bands (ev):

   -77.8671 -49.3091 -49.1514 -49.0671 -23.4419 -23.3964 -21.0698 -20.2149
   -13.9378 -13.4381 -12.6796 -11.4201 -11.2816 -11.0198 -10.4311  -9.7106
    -8.9390  -8.4443  -8.2033  -7.9369  -6.5892

     occupation numbers 
     1.0000   1.0000   1.0000   1.0000   1.0000   1.0000   1.0000   1.0000
     1.0000   1.0000   1.0000   1.0000   1.0000   1.0000   1.0000   1.0000
     1.0000   1.0000   1.0000   1.0000   1.0000

          k =-0.2143 0.2887 0.0000 ( 11181 PWs)   bands (ev):

   -77.8671 -49.3091 -49.1514 -49.0671 -23.4419 -23.3964 -21.0698 -20.2149
   -13.9378 -13.4382 -12.6796 -11.4200 -11.2816 -11.0197 -10.4312  -9.7106
    -8.9390  -8.4443  -8.2033  -7.9369  -6.5891

     occupation numbers 
     1.0000   1.0000   1.0000   1.0000   1.0000   1.0000   1.0000   1.0000
     1.0000   1.0000   1.0000   1.0000   1.0000   1.0000   1.0000   1.0000
     1.0000   1.0000   1.0000   1.0000   1.0000

          k = 0.3571 0.0412 0.0000 ( 11181 PWs)   bands (ev):

   -77.8671 -49.3091 -49.1514 -49.0671 -23.4419 -23.3964 -21.0698 -20.2149
   -13.9378 -13.4382 -12.6796 -11.4201 -11.2816 -11.0198 -10.4311  -9.7106
    -8.9390  -8.4443  -8.2033  -7.9369  -6.5892

     occupation numbers 
     1.0000   1.0000   1.0000   1.0000   1.0000   1.0000   1.0000   1.0000
     1.0000   1.0000   1.0000   1.0000   1.0000   1.0000   1.0000   1.0000
     1.0000   1.0000   1.0000   1.0000   1.0000

          k =-0.2143-0.2887 0.0000 ( 11181 PWs)   bands (ev):

   -77.8671 -49.3090 -49.1514 -49.0671 -23.4419 -23.3964 -21.0698 -20.2149
   -13.9378 -13.4381 -12.6795 -11.4201 -11.2816 -11.0198 -10.4311  -9.7106
    -8.9390  -8.4443  -8.2034  -7.9367  -6.5894

     occupation numbers 
     1.0000   1.0000   1.0000   1.0000   1.0000   1.0000   1.0000   1.0000
     1.0000   1.0000   1.0000   1.0000   1.0000   1.0000   1.0000   1.0000
     1.0000   1.0000   1.0000   1.0000   1.0000

          k = 0.3571-0.0412 0.0000 ( 11181 PWs)   bands (ev):

   -77.8671 -49.3091 -49.1514 -49.0671 -23.4419 -23.3964 -21.0698 -20.2149
   -13.9378 -13.4382 -12.6796 -11.4200 -11.2816 -11.0197 -10.4312  -9.7106
    -8.9390  -8.4443  -8.2033  -7.9369  -6.5891

     occupation numbers 
     1.0000   1.0000   1.0000   1.0000   1.0000   1.0000   1.0000   1.0000
     1.0000   1.0000   1.0000   1.0000   1.0000   1.0000   1.0000   1.0000
     1.0000   1.0000   1.0000   1.0000   1.0000

          k =-0.1429 0.4124 0.0000 ( 11157 PWs)   bands (ev):

   -77.8578 -49.3647 -49.1761 -49.0545 -22.7993 -22.7650 -20.7639 -20.0756
   -14.6908 -14.4401 -12.6482 -11.8325 -11.5876 -11.1412 -10.8504 -10.1068
    -8.8326  -8.5525  -8.2809  -7.9310  -6.5714

     occupation numbers 
     1.0000   1.0000   1.0000   1.0000   1.0000   1.0000   1.0000   1.0000
     1.0000   1.0000   1.0000   1.0000   1.0000   1.0000   1.0000   1.0000
     1.0000   1.0000   1.0000   1.0000   1.0000

          k =-0.2857 0.3299 0.0000 ( 11157 PWs)   bands (ev):

   -77.8578 -49.3647 -49.1761 -49.0545 -22.7993 -22.7650 -20.7639 -20.0755
   -14.6909 -14.4401 -12.6483 -11.8324 -11.5875 -11.1410 -10.8504 -10.1070
    -8.8326  -8.5523  -8.2809  -7.9311  -6.5714

     occupation numbers 
     1.0000   1.0000   1.0000   1.0000   1.0000   1.0000   1.0000   1.0000
     1.0000   1.0000   1.0000   1.0000   1.0000   1.0000   1.0000   1.0000
     1.0000   1.0000   1.0000   1.0000   1.0000

          k = 0.4286 0.0825 0.0000 ( 11157 PWs)   bands (ev):

   -77.8578 -49.3647 -49.1761 -49.0545 -22.7993 -22.7650 -20.7639 -20.0756
   -14.6908 -14.4401 -12.6482 -11.8325 -11.5876 -11.1412 -10.8504 -10.1068
    -8.8326  -8.5525  -8.2809  -7.9310  -6.5714

     occupation numbers 
     1.0000   1.0000   1.0000   1.0000   1.0000   1.0000   1.0000   1.0000
     1.0000   1.0000   1.0000   1.0000   1.0000   1.0000   1.0000   1.0000
     1.0000   1.0000   1.0000   1.0000   1.0000

          k =-0.2857-0.3299 0.0000 ( 11157 PWs)   bands (ev):

   -77.8578 -49.3647 -49.1761 -49.0545 -22.7993 -22.7650 -20.7639 -20.0756
   -14.6908 -14.4401 -12.6482 -11.8324 -11.5876 -11.1411 -10.8504 -10.1070
    -8.8327  -8.5522  -8.2807  -7.9312  -6.5716

     occupation numbers 
     1.0000   1.0000   1.0000   1.0000   1.0000   1.0000   1.0000   1.0000
     1.0000   1.0000   1.0000   1.0000   1.0000   1.0000   1.0000   1.0000
     1.0000   1.0000   1.0000   1.0000   1.0000

          k = 0.4286-0.0825 0.0000 ( 11157 PWs)   bands (ev):

   -77.8578 -49.3647 -49.1761 -49.0545 -22.7993 -22.7650 -20.7639 -20.0755
   -14.6909 -14.4401 -12.6483 -11.8324 -11.5875 -11.1410 -10.8504 -10.1070
    -8.8326  -8.5523  -8.2809  -7.9311  -6.5714

     occupation numbers 
     1.0000   1.0000   1.0000   1.0000   1.0000   1.0000   1.0000   1.0000
     1.0000   1.0000   1.0000   1.0000   1.0000   1.0000   1.0000   1.0000
     1.0000   1.0000   1.0000   1.0000   1.0000

          k =-0.1429 0.4949 0.0000 ( 11128 PWs)   bands (ev):

   -77.8513 -49.4028 -49.1934 -49.0457 -22.2219 -22.2014 -20.5958 -20.0327
   -15.3931 -15.1871 -12.5415 -12.1137 -11.7723 -11.2916 -11.2149 -10.1182
    -9.0747  -8.5218  -8.2926  -7.8208  -6.4273

     occupation numbers 
     1.0000   1.0000   1.0000   1.0000   1.0000   1.0000   1.0000   1.0000
     1.0000   1.0000   1.0000   1.0000   1.0000   1.0000   1.0000   1.0000
     1.0000   1.0000   1.0000   1.0000   1.0000

          k =-0.3571 0.3712 0.0000 ( 11128 PWs)   bands (ev):

   -77.8513 -49.4028 -49.1934 -49.0457 -22.2219 -22.2014 -20.5958 -20.0326
   -15.3931 -15.1872 -12.5416 -12.1136 -11.7723 -11.2916 -11.2148 -10.1185
    -9.0746  -8.5217  -8.2926  -7.8209  -6.4273

     occupation numbers 
     1.0000   1.0000   1.0000   1.0000   1.0000   1.0000   1.0000   1.0000
     1.0000   1.0000   1.0000   1.0000   1.0000   1.0000   1.0000   1.0000
     1.0000   1.0000   1.0000   1.0000   1.0000

          k = 0.5000 0.1237 0.0000 ( 11128 PWs)   bands (ev):

   -77.8513 -49.4028 -49.1934 -49.0457 -22.2219 -22.2014 -20.5958 -20.0327
   -15.3931 -15.1871 -12.5415 -12.1137 -11.7723 -11.2916 -11.2149 -10.1182
    -9.0747  -8.5218  -8.2926  -7.8208  -6.4273

     occupation numbers 
     1.0000   1.0000   1.0000   1.0000   1.0000   1.0000   1.0000   1.0000
     1.0000   1.0000   1.0000   1.0000   1.0000   1.0000   1.0000   1.0000
     1.0000   1.0000   1.0000   1.0000   1.0000

          k =-0.3571-0.3712 0.0000 ( 11128 PWs)   bands (ev):

   -77.8513 -49.4028 -49.1934 -49.0457 -22.2219 -22.2014 -20.5958 -20.0327
   -15.3931 -15.1871 -12.5415 -12.1137 -11.7723 -11.2916 -11.2149 -10.1185
    -9.0745  -8.5217  -8.2925  -7.8209  -6.4275

     occupation numbers 
     1.0000   1.0000   1.0000   1.0000   1.0000   1.0000   1.0000   1.0000
     1.0000   1.0000   1.0000   1.0000   1.0000   1.0000   1.0000   1.0000
     1.0000   1.0000   1.0000   1.0000   1.0000

          k = 0.5000-0.1237 0.0000 ( 11128 PWs)   bands (ev):

   -77.8513 -49.4028 -49.1934 -49.0457 -22.2219 -22.2014 -20.5958 -20.0326
   -15.3931 -15.1872 -12.5416 -12.1136 -11.7723 -11.2916 -11.2148 -10.1185
    -9.0746  -8.5217  -8.2926  -7.8209  -6.4273

     occupation numbers 
     1.0000   1.0000   1.0000   1.0000   1.0000   1.0000   1.0000   1.0000
     1.0000   1.0000   1.0000   1.0000   1.0000   1.0000   1.0000   1.0000
     1.0000   1.0000   1.0000   1.0000   1.0000

          k =-0.4286 0.4124 0.0000 ( 11096 PWs)   bands (ev):

   -77.8490 -49.4163 -49.1996 -49.0426 -21.9645 -21.9525 -20.5648 -20.0463
   -15.6690 -15.4673 -12.5111 -12.2092 -11.7142 -11.5488 -11.3071 -10.0107
    -9.2730  -8.4857  -8.2529  -7.7769  -6.3475

     occupation numbers 
     1.0000   1.0000   1.0000   1.0000   1.0000   1.0000   1.0000   1.0000
     1.0000   1.0000   1.0000   1.0000   1.0000   1.0000   1.0000   1.0000
     1.0000   1.0000   1.0000   1.0000   1.0000

          k = 0.5714 0.1650 0.0000 ( 11096 PWs)   bands (ev):

   -77.8490 -49.4163 -49.1997 -49.0426 -21.9645 -21.9525 -20.5648 -20.0464
   -15.6689 -15.4672 -12.5109 -12.2094 -11.7142 -11.5488 -11.3072 -10.0106
    -9.2731  -8.4858  -8.2529  -7.7768  -6.3476

     occupation numbers 
     1.0000   1.0000   1.0000   1.0000   1.0000   1.0000   1.0000   1.0000
     1.0000   1.0000   1.0000   1.0000   1.0000   1.0000   1.0000   1.0000
     1.0000   1.0000   1.0000   1.0000   1.0000

          k =-0.2143 0.3712 0.0000 ( 11149 PWs)   bands (ev):

   -77.8583 -49.3487 -49.1875 -49.0553 -22.8577 -22.8219 -20.7791 -20.0731
   -14.4084 -14.1112 -12.5787 -12.1171 -11.9802 -11.1151 -10.7136 -10.2550
    -8.8236  -8.6538  -8.2176  -8.0175  -6.5746

     occupation numbers 
     1.0000   1.0000   1.0000   1.0000   1.0000   1.0000   1.0000   1.0000
     1.0000   1.0000   1.0000   1.0000   1.0000   1.0000   1.0000   1.0000
     1.0000   1.0000   1.0000   1.0000   1.0000

          k = 0.4286-0.0000 0.0000 ( 11149 PWs)   bands (ev):

   -77.8583 -49.3487 -49.1875 -49.0553 -22.8577 -22.8219 -20.7791 -20.0731
   -14.4084 -14.1112 -12.5787 -12.1171 -11.9802 -11.1151 -10.7136 -10.2550
    -8.8236  -8.6539  -8.2176  -8.0175  -6.5746

     occupation numbers 
     1.0000   1.0000   1.0000   1.0000   1.0000   1.0000   1.0000   1.0000
     1.0000   1.0000   1.0000   1.0000   1.0000   1.0000   1.0000   1.0000
     1.0000   1.0000   1.0000   1.0000   1.0000

          k =-0.2143 0.4536 0.0000 ( 11153 PWs)   bands (ev):

   -77.8513 -49.3758 -49.2211 -49.0457 -22.2719 -22.2484 -20.5766 -19.9952
   -14.9345 -14.7055 -12.8037 -12.6346 -12.2284 -11.2120 -10.9868 -10.3656
    -9.1045  -8.8253  -8.3425  -7.8300  -6.4023

     occupation numbers 
     1.0000   1.0000   1.0000   1.0000   1.0000   1.0000   1.0000   1.0000
     1.0000   1.0000   1.0000   1.0000   1.0000   1.0000   1.0000   1.0000
     1.0000   1.0000   1.0000   1.0000   1.0000

          k =-0.2857 0.4124 0.0000 ( 11153 PWs)   bands (ev):

   -77.8513 -49.3758 -49.2210 -49.0457 -22.2719 -22.2484 -20.5766 -19.9951
   -14.9346 -14.7056 -12.8037 -12.6346 -12.2283 -11.2120 -10.9868 -10.3658
    -9.1043  -8.8253  -8.3425  -7.8300  -6.4023

     occupation numbers 
     1.0000   1.0000   1.0000   1.0000   1.0000   1.0000   1.0000   1.0000
     1.0000   1.0000   1.0000   1.0000   1.0000   1.0000   1.0000   1.0000
     1.0000   1.0000   1.0000   1.0000   1.0000

          k = 0.5000 0.0412 0.0000 ( 11153 PWs)   bands (ev):

   -77.8513 -49.3758 -49.2211 -49.0457 -22.2719 -22.2484 -20.5766 -19.9952
   -14.9345 -14.7055 -12.8037 -12.6346 -12.2284 -11.2120 -10.9868 -10.3656
    -9.1045  -8.8253  -8.3425  -7.8300  -6.4023

     occupation numbers 
     1.0000   1.0000   1.0000   1.0000   1.0000   1.0000   1.0000   1.0000
     1.0000   1.0000   1.0000   1.0000   1.0000   1.0000   1.0000   1.0000
     1.0000   1.0000   1.0000   1.0000   1.0000

          k =-0.2857-0.4124 0.0000 ( 11153 PWs)   bands (ev):

   -77.8513 -49.3758 -49.2211 -49.0457 -22.2719 -22.2484 -20.5766 -19.9952
   -14.9345 -14.7055 -12.8037 -12.6347 -12.2283 -11.2118 -10.9868 -10.3659
    -9.1043  -8.8254  -8.3423  -7.8301  -6.4024

     occupation numbers 
     1.0000   1.0000   1.0000   1.0000   1.0000   1.0000   1.0000   1.0000
     1.0000   1.0000   1.0000   1.0000   1.0000   1.0000   1.0000   1.0000
     1.0000   1.0000   1.0000   1.0000   1.0000

          k = 0.5000-0.0412 0.0000 ( 11153 PWs)   bands (ev):

   -77.8513 -49.3758 -49.2210 -49.0457 -22.2719 -22.2484 -20.5766 -19.9951
   -14.9345 -14.7056 -12.8037 -12.6346 -12.2284 -11.2120 -10.9868 -10.3658
    -9.1043  -8.8253  -8.3425  -7.8300  -6.4023

     occupation numbers 
     1.0000   1.0000   1.0000   1.0000   1.0000   1.0000   1.0000   1.0000
     1.0000   1.0000   1.0000   1.0000   1.0000   1.0000   1.0000   1.0000
     1.0000   1.0000   1.0000   1.0000   1.0000

          k =-0.2143 0.5361 0.0000 ( 11104 PWs)   bands (ev):

   -77.8474 -49.3889 -49.2415 -49.0405 -21.8617 -21.8493 -20.5059 -19.9921
   -15.2903 -15.0827 -13.1013 -12.9533 -11.9152 -11.4452 -11.3181 -10.1023
    -9.4325  -9.0693  -8.2546  -7.7001  -6.2309

     occupation numbers 
     1.0000   1.0000   1.0000   1.0000   1.0000   1.0000   1.0000   1.0000
     1.0000   1.0000   1.0000   1.0000   1.0000   1.0000   1.0000   1.0000
     1.0000   1.0000   1.0000   1.0000   1.0000

          k =-0.3571 0.4536 0.0000 ( 11104 PWs)   bands (ev):

   -77.8474 -49.3889 -49.2415 -49.0405 -21.8617 -21.8493 -20.5059 -19.9921
   -15.2904 -15.0828 -13.1013 -12.9532 -11.9153 -11.4452 -11.3180 -10.1026
    -9.4323  -9.0693  -8.2546  -7.7001  -6.2309

     occupation numbers 
     1.0000   1.0000   1.0000   1.0000   1.0000   1.0000   1.0000   1.0000
     1.0000   1.0000   1.0000   1.0000   1.0000   1.0000   1.0000   1.0000
     1.0000   1.0000   1.0000   1.0000   1.0000

          k = 0.5714 0.0825 0.0000 ( 11104 PWs)   bands (ev):

   -77.8474 -49.3889 -49.2415 -49.0405 -21.8617 -21.8493 -20.5059 -19.9921
   -15.2903 -15.0827 -13.1013 -12.9533 -11.9152 -11.4452 -11.3181 -10.1024
    -9.4325  -9.0693  -8.2546  -7.7001  -6.2309

     occupation numbers 
     1.0000   1.0000   1.0000   1.0000   1.0000   1.0000   1.0000   1.0000
     1.0000   1.0000   1.0000   1.0000   1.0000   1.0000   1.0000   1.0000
     1.0000   1.0000   1.0000   1.0000   1.0000

          k =-0.3571-0.4536 0.0000 ( 11104 PWs)   bands (ev):

   -77.8474 -49.3889 -49.2415 -49.0405 -21.8617 -21.8493 -20.5059 -19.9921
   -15.2903 -15.0827 -13.1013 -12.9533 -11.9152 -11.4451 -11.3181 -10.1026
    -9.4323  -9.0693  -8.2545  -7.7001  -6.2310

     occupation numbers 
     1.0000   1.0000   1.0000   1.0000   1.0000   1.0000   1.0000   1.0000
     1.0000   1.0000   1.0000   1.0000   1.0000   1.0000   1.0000   1.0000
     1.0000   1.0000   1.0000   1.0000   1.0000

          k = 0.5714-0.0825 0.0000 ( 11104 PWs)   bands (ev):

   -77.8474 -49.3889 -49.2415 -49.0405 -21.8617 -21.8493 -20.5059 -19.9920
   -15.2904 -15.0828 -13.1013 -12.9532 -11.9153 -11.4452 -11.3180 -10.1026
    -9.4323  -9.0693  -8.2546  -7.7001  -6.2309

     occupation numbers 
     1.0000   1.0000   1.0000   1.0000   1.0000   1.0000   1.0000   1.0000
     1.0000   1.0000   1.0000   1.0000   1.0000   1.0000   1.0000   1.0000
     1.0000   1.0000   1.0000   1.0000   1.0000

          k =-0.2857 0.4949 0.0000 ( 11113 PWs)   bands (ev):

   -77.8468 -49.3696 -49.2660 -49.0397 -21.8322 -21.8192 -20.4802 -19.9658
   -14.9798 -14.7497 -13.5873 -13.4597 -11.9289 -11.4368 -11.0224 -10.2173
    -9.7447  -9.1312  -8.2651  -7.6787  -6.1846

     occupation numbers 
     1.0000   1.0000   1.0000   1.0000   1.0000   1.0000   1.0000   1.0000
     1.0000   1.0000   1.0000   1.0000   1.0000   1.0000   1.0000   1.0000
     1.0000   1.0000   1.0000   1.0000   1.0000

          k = 0.5714 0.0000 0.0000 ( 11113 PWs)   bands (ev):

   -77.8468 -49.3696 -49.2660 -49.0397 -21.8322 -21.8192 -20.4802 -19.9658
   -14.9798 -14.7497 -13.5873 -13.4597 -11.9289 -11.4368 -11.0224 -10.2173
    -9.7447  -9.1312  -8.2651  -7.6787  -6.1846

     occupation numbers 
     1.0000   1.0000   1.0000   1.0000   1.0000   1.0000   1.0000   1.0000
     1.0000   1.0000   1.0000   1.0000   1.0000   1.0000   1.0000   1.0000
     1.0000   1.0000   1.0000   1.0000   1.0000

          k =-0.3571 0.5361 0.0000 ( 11102 PWs)   bands (ev):

   -77.8452 -49.3601 -49.2894 -49.0375 -21.6530 -21.6411 -20.4604 -19.9660
   -14.9250 -14.6875 -13.9485 -13.8527 -11.6902 -11.5570 -11.0462 -10.2333
    -9.8535  -9.3899  -8.2121  -7.6140  -6.0726

     occupation numbers 
     1.0000   1.0000   1.0000   1.0000   1.0000   1.0000   1.0000   1.0000
     1.0000   1.0000   1.0000   1.0000   1.0000   1.0000   1.0000   1.0000
     1.0000   1.0000   1.0000   1.0000   1.0000

          k = 0.6429 0.0412 0.0000 ( 11102 PWs)   bands (ev):

   -77.8452 -49.3600 -49.2894 -49.0375 -21.6530 -21.6411 -20.4604 -19.9660
   -14.9249 -14.6875 -13.9485 -13.8528 -11.6902 -11.5569 -11.0462 -10.2333
    -9.8535  -9.3899  -8.2121  -7.6140  -6.0726

     occupation numbers 
     1.0000   1.0000   1.0000   1.0000   1.0000   1.0000   1.0000   1.0000
     1.0000   1.0000   1.0000   1.0000   1.0000   1.0000   1.0000   1.0000
     1.0000   1.0000   1.0000   1.0000   1.0000

     highest occupied level (ev):    -5.6159

     Writing all to output data dir ./tmp/crsi2n4.save/ :
     XML data file, pseudopotentials, collected wavefunctions
 
     init_run     :      1.22s CPU      1.31s WALL (       1 calls)
     electrons    :    183.75s CPU    185.01s WALL (       1 calls)

     Called by init_run:
     wfcinit      :      0.00s CPU      0.00s WALL (       1 calls)
     wfcinit:atom :      0.08s CPU      0.09s WALL (     100 calls)
     wfcinit:wfcr :      3.49s CPU      3.56s WALL (     100 calls)
     potinit      :      0.69s CPU      0.74s WALL (       1 calls)
     hinit0       :      0.32s CPU      0.33s WALL (       1 calls)

     Called by electrons:
     c_bands      :    183.75s CPU    185.01s WALL (       1 calls)
     v_of_rho     :      0.02s CPU      0.07s WALL (       1 calls)
     v_h          :      0.00s CPU      0.01s WALL (       1 calls)
     v_xc         :      0.02s CPU      0.06s WALL (       1 calls)

     Called by c_bands:
     init_us_2    :      0.06s CPU      0.07s WALL (     100 calls)
     cegterg      :    179.82s CPU    180.87s WALL (     518 calls)

     Called by sum_band:

     Called by *egterg:
     cdiaghg      :     24.10s CPU     24.31s WALL (    9499 calls)
                                       24.25s GPU  (    9499 calls)
     cegterg:over :     29.57s CPU     29.67s WALL (    9399 calls)
     cegterg:upda :     10.08s CPU     10.13s WALL (    9399 calls)
     cegterg:last :     13.84s CPU     13.90s WALL (    7650 calls)
     h_psi        :     99.94s CPU    100.86s WALL (   10017 calls)
                                      100.80s GPU  (   10017 calls)
     g_psi        :      0.08s CPU      1.14s WALL (    9399 calls)
                                        1.09s GPU  (    9399 calls)

     Called by h_psi:
     h_psi:calbec :      0.78s CPU     14.67s WALL (   10017 calls)
                                       14.60s GPU  (   10017 calls)
     vloc_psi     :     71.52s CPU     72.31s WALL (   10017 calls)
                                       72.26s GPU  (   10017 calls)
     add_vuspsi   :      2.89s CPU     12.99s WALL (   10017 calls)
                                       12.93s GPU  (   10017 calls)

     General routines
     calbec       :      0.73s CPU      0.78s WALL (   10017 calls)
     fft          :      0.38s CPU      0.39s WALL (      11 calls)
                                        0.01s GPU  (      10 calls)
     ffts         :      0.28s CPU      0.28s WALL (       1 calls)
     fftw         :      0.86s CPU     61.23s WALL (   28580 calls)
                                       61.08s GPU  (   28580 calls)
     interpolate  :      0.66s CPU      0.66s WALL (       1 calls)
     davcio       :      0.04s CPU      0.20s WALL (     200 calls)
 
     Parallel routines
 
     PWSCF        :   3m 5.37s CPU   3m 7.07s WALL

 
   This run was terminated on:   2:18:34  13Mar2026            

=------------------------------------------------------------------------------=
   JOB DONE.
=------------------------------------------------------------------------------=
