
     Program PWSCF v.7.4.1 starts on 13Mar2026 at  1:31:11 

     This program is part of the open-source Quantum ESPRESSO suite
     for quantum simulation of materials; please cite
         "P. Giannozzi et al., J. Phys.:Condens. Matter 21 395502 (2009);
         "P. Giannozzi et al., J. Phys.:Condens. Matter 29 465901 (2017);
         "P. Giannozzi et al., J. Chem. Phys. 152 154105 (2020);
          URL http://www.quantum-espresso.org", 
     in publications or presentations arising from this work. More details at
     http://www.quantum-espresso.org/quote

     Parallel version (MPI), running on     1 processors

     MPI processes distributed on     1 nodes
     7308 MiB available memory on the printing compute node when the environment starts
 
     Reading input from bands.in

     Current dimensions of program PWSCF are:
     Max number of different atomic species (ntypx) = 10
     Max number of k-points (npk) =  40000
     Max angular momentum in pseudopotentials (lmaxx) =  4

     Atomic positions and unit cell read from directory:
     ./tmp/crsi2n4.save/
 
     Message from routine setup:
     no reason to have ecutrho>4*ecutwfc
 
     Subspace diagonalization in iterative solution of the eigenvalue problem:
     a serial algorithm will be used

 
     G-vector sticks info
     --------------------
     sticks:   dense  smooth     PW     G-vecs:    dense   smooth      PW
     Sum         769     637    187               129765    92863   14983
 
     Using Slab Decomposition
 


     bravais-lattice index     =            4
     lattice parameter (alat)  =       5.3206  a.u.
     unit-cell volume          =     962.0812 (a.u.)^3
     number of atoms/cell      =            7
     number of atomic types    =            3
     number of electrons       =        42.00
     number of Kohn-Sham states=           35
     kinetic-energy cutoff     =      80.0000  Ry
     charge density cutoff     =     400.0000  Ry
     Exchange-correlation= PBE
                           (   1   4   3   4   0   0   0)

     GPU acceleration is ACTIVE.  1 visible GPUs per MPI rank
     GPU-aware MPI enabled


     GPU used by master process:

        Device Number: 0
        Device name: NVIDIA RTX A2000 12GB
        Compute capability : 86
        Ratio of single to double precision performance  : 64
        Memory Clock Rate (KHz): 6001000
        Memory Bus Width (bits): 192
        Peak Memory Bandwidth (GB/s): 288.05

     celldm(1)=   5.320637  celldm(2)=   0.000000  celldm(3)=   7.375478
     celldm(4)=   0.000000  celldm(5)=   0.000000  celldm(6)=   0.000000

     crystal axes: (cart. coord. in units of alat)
               a(1) = (   1.000000   0.000000   0.000000 )  
               a(2) = (  -0.500000   0.866025   0.000000 )  
               a(3) = (   0.000000   0.000000   7.375478 )  

     reciprocal axes: (cart. coord. in units 2 pi/alat)
               b(1) = (  1.000000  0.577350 -0.000000 )  
               b(2) = (  0.000000  1.154701  0.000000 )  
               b(3) = (  0.000000 -0.000000  0.135584 )  


     PseudoPot. # 1 for Cr read from file:
     /home/rao/Desktop/pseudo/ONCVPSP/sg15/Cr_ONCV_PBE_sr.upf
     MD5 check sum: 8c25700f94aee329d8014e8d8708abb4
     Pseudo is Norm-conserving, Zval = 14.0
     Generated using ONCVPSP code by D. R. Hamann
     Using radial grid of 1490 points,  6 beta functions with: 
                l(1) =   0
                l(2) =   0
                l(3) =   1
                l(4) =   1
                l(5) =   2
                l(6) =   2

     PseudoPot. # 2 for Si read from file:
     /home/rao/Desktop/pseudo/ONCVPSP/sg15/Si_ONCV_PBE_sr.upf
     MD5 check sum: 8553c464762ac42b85b1eed164b4d029
     Pseudo is Norm-conserving, Zval =  4.0
     Generated using ONCVPSP code by D. R. Hamann
     Using radial grid of 1510 points,  4 beta functions with: 
                l(1) =   0
                l(2) =   0
                l(3) =   1
                l(4) =   1

     PseudoPot. # 3 for N  read from file:
     /home/rao/Desktop/pseudo/ONCVPSP/sg15/N_ONCV_PBE_sr.upf
     MD5 check sum: 584dff68b02d160f04ff099e3496afa1
     Pseudo is Norm-conserving, Zval =  5.0
     Generated using ONCVPSP code by D. R. Hamann
     Using radial grid of 1058 points,  4 beta functions with: 
                l(1) =   0
                l(2) =   0
                l(3) =   1
                l(4) =   1

     atomic species   valence    mass     pseudopotential
     Cr               14.00    51.99600     Cr( 1.00)
     Si                4.00    28.08600     Si( 1.00)
     N                 5.00    14.00700     N ( 1.00)

     No symmetry found


                                    s                        frac. trans.

      isym =  1     identity                                     

 cryst.   s( 1) = (     1          0          0      )
                  (     0          1          0      )
                  (     0          0          1      )

 cart.    s( 1) = (  1.0000000  0.0000000  0.0000000 )
                  (  0.0000000  1.0000000  0.0000000 )
                  (  0.0000000  0.0000000  1.0000000 )


     point group C_1 (1)    
     there are  1 classes
     the character table:

       E    
A      1.00

     the symmetry operations in each class and the name of the first element:

     E        1
          identity                                               

   Cartesian axes

     site n.     atom                  positions (alat units)
         1        Cr     tau(   1) = (   0.7857017   0.1237147   3.1552446  )
         2        N      tau(   2) = (   0.2856749   0.4124067   2.7469869  )
         3        N      tau(   3) = (   0.2856751   0.4124039   3.5686627  )
         4        N      tau(   4) = (   0.7857429   0.1236851   4.3912511  )
         5        N      tau(   5) = (  -0.2143041   0.7010727   1.9321268  )
         6        Si     tau(   6) = (   0.2857165   0.4123855   2.1268745  )
         7        Si     tau(   7) = (   0.2857600   0.4123504   4.1932202  )

   Crystallographic axes

     site n.     atom                  positions (cryst. coord.)
         1        Cr     tau(   1) = (  0.8571284  0.1428534  0.4278021  )
         2        N      tau(   2) = (  0.5237780  0.4762062  0.3724487  )
         3        N      tau(   3) = (  0.5237766  0.4762030  0.4838551  )
         4        N      tau(   4) = (  0.8571525  0.1428193  0.5953853  )
         5        N      tau(   5) = (  0.1904604  0.8095290  0.2619663  )
         6        Si     tau(   6) = (  0.5238074  0.4761818  0.2883711  )
         7        Si     tau(   7) = (  0.5238307  0.4761412  0.5685354  )

     number of k points=   261
                       cart. coord. in units 2pi/alat
        k(    1) = (   0.0000000   0.0000000   0.0000000), wk =   0.0076628
        k(    2) = (   0.0033333   0.0057735   0.0000000), wk =   0.0076628
        k(    3) = (   0.0066667   0.0115470   0.0000000), wk =   0.0076628
        k(    4) = (   0.0100000   0.0173205   0.0000000), wk =   0.0076628
        k(    5) = (   0.0133333   0.0230940   0.0000000), wk =   0.0076628
        k(    6) = (   0.0166667   0.0288675   0.0000000), wk =   0.0076628
        k(    7) = (   0.0200000   0.0346410   0.0000000), wk =   0.0076628
        k(    8) = (   0.0233333   0.0404145   0.0000000), wk =   0.0076628
        k(    9) = (   0.0266667   0.0461880   0.0000000), wk =   0.0076628
        k(   10) = (   0.0300000   0.0519615   0.0000000), wk =   0.0076628
        k(   11) = (   0.0333333   0.0577350   0.0000000), wk =   0.0076628
        k(   12) = (   0.0366667   0.0635085   0.0000000), wk =   0.0076628
        k(   13) = (   0.0400000   0.0692820   0.0000000), wk =   0.0076628
        k(   14) = (   0.0433333   0.0750555   0.0000000), wk =   0.0076628
        k(   15) = (   0.0466667   0.0808290   0.0000000), wk =   0.0076628
        k(   16) = (   0.0500000   0.0866025   0.0000000), wk =   0.0076628
        k(   17) = (   0.0533333   0.0923760   0.0000000), wk =   0.0076628
        k(   18) = (   0.0566667   0.0981495   0.0000000), wk =   0.0076628
        k(   19) = (   0.0600000   0.1039230   0.0000000), wk =   0.0076628
        k(   20) = (   0.0633333   0.1096966   0.0000000), wk =   0.0076628
        k(   21) = (   0.0666667   0.1154701   0.0000000), wk =   0.0076628
        k(   22) = (   0.0700000   0.1212436   0.0000000), wk =   0.0076628
        k(   23) = (   0.0733333   0.1270171   0.0000000), wk =   0.0076628
        k(   24) = (   0.0766667   0.1327906   0.0000000), wk =   0.0076628
        k(   25) = (   0.0800000   0.1385641   0.0000000), wk =   0.0076628
        k(   26) = (   0.0833333   0.1443376   0.0000000), wk =   0.0076628
        k(   27) = (   0.0866667   0.1501111   0.0000000), wk =   0.0076628
        k(   28) = (   0.0900000   0.1558846   0.0000000), wk =   0.0076628
        k(   29) = (   0.0933333   0.1616581   0.0000000), wk =   0.0076628
        k(   30) = (   0.0966667   0.1674316   0.0000000), wk =   0.0076628
        k(   31) = (   0.1000000   0.1732051   0.0000000), wk =   0.0076628
        k(   32) = (   0.1033333   0.1789786   0.0000000), wk =   0.0076628
        k(   33) = (   0.1066667   0.1847521   0.0000000), wk =   0.0076628
        k(   34) = (   0.1100000   0.1905256   0.0000000), wk =   0.0076628
        k(   35) = (   0.1133333   0.1962991   0.0000000), wk =   0.0076628
        k(   36) = (   0.1166667   0.2020726   0.0000000), wk =   0.0076628
        k(   37) = (   0.1200000   0.2078461   0.0000000), wk =   0.0076628
        k(   38) = (   0.1233333   0.2136196   0.0000000), wk =   0.0076628
        k(   39) = (   0.1266667   0.2193931   0.0000000), wk =   0.0076628
        k(   40) = (   0.1300000   0.2251666   0.0000000), wk =   0.0076628
        k(   41) = (   0.1333333   0.2309401   0.0000000), wk =   0.0076628
        k(   42) = (   0.1366667   0.2367136   0.0000000), wk =   0.0076628
        k(   43) = (   0.1400000   0.2424871   0.0000000), wk =   0.0076628
        k(   44) = (   0.1433333   0.2482606   0.0000000), wk =   0.0076628
        k(   45) = (   0.1466667   0.2540341   0.0000000), wk =   0.0076628
        k(   46) = (   0.1500000   0.2598076   0.0000000), wk =   0.0076628
        k(   47) = (   0.1533333   0.2655811   0.0000000), wk =   0.0076628
        k(   48) = (   0.1566667   0.2713546   0.0000000), wk =   0.0076628
        k(   49) = (   0.1600000   0.2771281   0.0000000), wk =   0.0076628
        k(   50) = (   0.1633333   0.2829016   0.0000000), wk =   0.0076628
        k(   51) = (   0.1666667   0.2886751   0.0000000), wk =   0.0076628
        k(   52) = (   0.1700000   0.2944486   0.0000000), wk =   0.0076628
        k(   53) = (   0.1733333   0.3002221   0.0000000), wk =   0.0076628
        k(   54) = (   0.1766667   0.3059956   0.0000000), wk =   0.0076628
        k(   55) = (   0.1800000   0.3117691   0.0000000), wk =   0.0076628
        k(   56) = (   0.1833333   0.3175426   0.0000000), wk =   0.0076628
        k(   57) = (   0.1866667   0.3233162   0.0000000), wk =   0.0076628
        k(   58) = (   0.1900000   0.3290897   0.0000000), wk =   0.0076628
        k(   59) = (   0.1933333   0.3348632   0.0000000), wk =   0.0076628
        k(   60) = (   0.1966667   0.3406367   0.0000000), wk =   0.0076628
        k(   61) = (   0.2000000   0.3464102   0.0000000), wk =   0.0076628
        k(   62) = (   0.2033333   0.3521837   0.0000000), wk =   0.0076628
        k(   63) = (   0.2066667   0.3579572   0.0000000), wk =   0.0076628
        k(   64) = (   0.2100000   0.3637307   0.0000000), wk =   0.0076628
        k(   65) = (   0.2133333   0.3695042   0.0000000), wk =   0.0076628
        k(   66) = (   0.2166667   0.3752777   0.0000000), wk =   0.0076628
        k(   67) = (   0.2200000   0.3810512   0.0000000), wk =   0.0076628
        k(   68) = (   0.2233333   0.3868247   0.0000000), wk =   0.0076628
        k(   69) = (   0.2266667   0.3925982   0.0000000), wk =   0.0076628
        k(   70) = (   0.2300000   0.3983717   0.0000000), wk =   0.0076628
        k(   71) = (   0.2333333   0.4041452   0.0000000), wk =   0.0076628
        k(   72) = (   0.2366667   0.4099187   0.0000000), wk =   0.0076628
        k(   73) = (   0.2400000   0.4156922   0.0000000), wk =   0.0076628
        k(   74) = (   0.2433333   0.4214657   0.0000000), wk =   0.0076628
        k(   75) = (   0.2466667   0.4272392   0.0000000), wk =   0.0076628
        k(   76) = (   0.2500000   0.4330127   0.0000000), wk =   0.0076628
        k(   77) = (   0.2533333   0.4387862   0.0000000), wk =   0.0076628
        k(   78) = (   0.2566667   0.4445597   0.0000000), wk =   0.0076628
        k(   79) = (   0.2600000   0.4503332   0.0000000), wk =   0.0076628
        k(   80) = (   0.2633333   0.4561067   0.0000000), wk =   0.0076628
        k(   81) = (   0.2666667   0.4618802   0.0000000), wk =   0.0076628
        k(   82) = (   0.2700000   0.4676537   0.0000000), wk =   0.0076628
        k(   83) = (   0.2733333   0.4734272   0.0000000), wk =   0.0076628
        k(   84) = (   0.2766667   0.4792007   0.0000000), wk =   0.0076628
        k(   85) = (   0.2800000   0.4849742   0.0000000), wk =   0.0076628
        k(   86) = (   0.2833333   0.4907477   0.0000000), wk =   0.0076628
        k(   87) = (   0.2866667   0.4965212   0.0000000), wk =   0.0076628
        k(   88) = (   0.2900000   0.5022947   0.0000000), wk =   0.0076628
        k(   89) = (   0.2933333   0.5080682   0.0000000), wk =   0.0076628
        k(   90) = (   0.2966667   0.5138417   0.0000000), wk =   0.0076628
        k(   91) = (   0.3000000   0.5196152   0.0000000), wk =   0.0076628
        k(   92) = (   0.3033333   0.5253887   0.0000000), wk =   0.0076628
        k(   93) = (   0.3066667   0.5311622   0.0000000), wk =   0.0076628
        k(   94) = (   0.3100000   0.5369358   0.0000000), wk =   0.0076628
        k(   95) = (   0.3133333   0.5427093   0.0000000), wk =   0.0076628
        k(   96) = (   0.3166667   0.5484828   0.0000000), wk =   0.0076628
        k(   97) = (   0.3200000   0.5542563   0.0000000), wk =   0.0076628
        k(   98) = (   0.3233333   0.5600298   0.0000000), wk =   0.0076628
        k(   99) = (   0.3266667   0.5658033   0.0000000), wk =   0.0076628
        k(  100) = (   0.3300000   0.5715768   0.0000000), wk =   0.0076628
        k(  101) = (   0.3333333   0.5773503   0.0000000), wk =   0.0076628
        k(  102) = (   0.3361111   0.5725390   0.0000000), wk =   0.0076628
        k(  103) = (   0.3388889   0.5677278   0.0000000), wk =   0.0076628
        k(  104) = (   0.3416667   0.5629165   0.0000000), wk =   0.0076628
        k(  105) = (   0.3444444   0.5581053   0.0000000), wk =   0.0076628
        k(  106) = (   0.3472222   0.5532940   0.0000000), wk =   0.0076628
        k(  107) = (   0.3500000   0.5484828   0.0000000), wk =   0.0076628
        k(  108) = (   0.3527778   0.5436715   0.0000000), wk =   0.0076628
        k(  109) = (   0.3555556   0.5388603   0.0000000), wk =   0.0076628
        k(  110) = (   0.3583333   0.5340490   0.0000000), wk =   0.0076628
        k(  111) = (   0.3611111   0.5292377   0.0000000), wk =   0.0076628
        k(  112) = (   0.3638889   0.5244265   0.0000000), wk =   0.0076628
        k(  113) = (   0.3666667   0.5196152   0.0000000), wk =   0.0076628
        k(  114) = (   0.3694444   0.5148040   0.0000000), wk =   0.0076628
        k(  115) = (   0.3722222   0.5099927   0.0000000), wk =   0.0076628
        k(  116) = (   0.3750000   0.5051815   0.0000000), wk =   0.0076628
        k(  117) = (   0.3777778   0.5003702   0.0000000), wk =   0.0076628
        k(  118) = (   0.3805556   0.4955590   0.0000000), wk =   0.0076628
        k(  119) = (   0.3833333   0.4907477   0.0000000), wk =   0.0076628
        k(  120) = (   0.3861111   0.4859365   0.0000000), wk =   0.0076628
        k(  121) = (   0.3888889   0.4811252   0.0000000), wk =   0.0076628
        k(  122) = (   0.3916667   0.4763140   0.0000000), wk =   0.0076628
        k(  123) = (   0.3944444   0.4715027   0.0000000), wk =   0.0076628
        k(  124) = (   0.3972222   0.4666915   0.0000000), wk =   0.0076628
        k(  125) = (   0.4000000   0.4618802   0.0000000), wk =   0.0076628
        k(  126) = (   0.4027778   0.4570690   0.0000000), wk =   0.0076628
        k(  127) = (   0.4055556   0.4522577   0.0000000), wk =   0.0076628
        k(  128) = (   0.4083333   0.4474465   0.0000000), wk =   0.0076628
        k(  129) = (   0.4111111   0.4426352   0.0000000), wk =   0.0076628
        k(  130) = (   0.4138889   0.4378240   0.0000000), wk =   0.0076628
        k(  131) = (   0.4166667   0.4330127   0.0000000), wk =   0.0076628
        k(  132) = (   0.4194444   0.4282014   0.0000000), wk =   0.0076628
        k(  133) = (   0.4222222   0.4233902   0.0000000), wk =   0.0076628
        k(  134) = (   0.4250000   0.4185789   0.0000000), wk =   0.0076628
        k(  135) = (   0.4277778   0.4137677   0.0000000), wk =   0.0076628
        k(  136) = (   0.4305556   0.4089564   0.0000000), wk =   0.0076628
        k(  137) = (   0.4333333   0.4041452   0.0000000), wk =   0.0076628
        k(  138) = (   0.4361111   0.3993339   0.0000000), wk =   0.0076628
        k(  139) = (   0.4388889   0.3945227   0.0000000), wk =   0.0076628
        k(  140) = (   0.4416667   0.3897114   0.0000000), wk =   0.0076628
        k(  141) = (   0.4444444   0.3849002   0.0000000), wk =   0.0076628
        k(  142) = (   0.4472222   0.3800889   0.0000000), wk =   0.0076628
        k(  143) = (   0.4500000   0.3752777   0.0000000), wk =   0.0076628
        k(  144) = (   0.4527778   0.3704664   0.0000000), wk =   0.0076628
        k(  145) = (   0.4555556   0.3656552   0.0000000), wk =   0.0076628
        k(  146) = (   0.4583333   0.3608439   0.0000000), wk =   0.0076628
        k(  147) = (   0.4611111   0.3560327   0.0000000), wk =   0.0076628
        k(  148) = (   0.4638889   0.3512214   0.0000000), wk =   0.0076628
        k(  149) = (   0.4666667   0.3464102   0.0000000), wk =   0.0076628
        k(  150) = (   0.4694444   0.3415989   0.0000000), wk =   0.0076628
        k(  151) = (   0.4722222   0.3367877   0.0000000), wk =   0.0076628
        k(  152) = (   0.4750000   0.3319764   0.0000000), wk =   0.0076628
        k(  153) = (   0.4777778   0.3271652   0.0000000), wk =   0.0076628
        k(  154) = (   0.4805556   0.3223539   0.0000000), wk =   0.0076628
        k(  155) = (   0.4833333   0.3175426   0.0000000), wk =   0.0076628
        k(  156) = (   0.4861111   0.3127314   0.0000000), wk =   0.0076628
        k(  157) = (   0.4888889   0.3079201   0.0000000), wk =   0.0076628
        k(  158) = (   0.4916667   0.3031089   0.0000000), wk =   0.0076628
        k(  159) = (   0.4944444   0.2982976   0.0000000), wk =   0.0076628
        k(  160) = (   0.4972222   0.2934864   0.0000000), wk =   0.0076628
        k(  161) = (   0.5000000   0.2886751   0.0000000), wk =   0.0076628
        k(  162) = (   0.4950000   0.2857884   0.0000000), wk =   0.0076628
        k(  163) = (   0.4900000   0.2829016   0.0000000), wk =   0.0076628
        k(  164) = (   0.4850000   0.2800149   0.0000000), wk =   0.0076628
        k(  165) = (   0.4800000   0.2771281   0.0000000), wk =   0.0076628
        k(  166) = (   0.4750000   0.2742414   0.0000000), wk =   0.0076628
        k(  167) = (   0.4700000   0.2713546   0.0000000), wk =   0.0076628
        k(  168) = (   0.4650000   0.2684679   0.0000000), wk =   0.0076628
        k(  169) = (   0.4600000   0.2655811   0.0000000), wk =   0.0076628
        k(  170) = (   0.4550000   0.2626944   0.0000000), wk =   0.0076628
        k(  171) = (   0.4500000   0.2598076   0.0000000), wk =   0.0076628
        k(  172) = (   0.4450000   0.2569209   0.0000000), wk =   0.0076628
        k(  173) = (   0.4400000   0.2540341   0.0000000), wk =   0.0076628
        k(  174) = (   0.4350000   0.2511474   0.0000000), wk =   0.0076628
        k(  175) = (   0.4300000   0.2482606   0.0000000), wk =   0.0076628
        k(  176) = (   0.4250000   0.2453739   0.0000000), wk =   0.0076628
        k(  177) = (   0.4200000   0.2424871   0.0000000), wk =   0.0076628
        k(  178) = (   0.4150000   0.2396004   0.0000000), wk =   0.0076628
        k(  179) = (   0.4100000   0.2367136   0.0000000), wk =   0.0076628
        k(  180) = (   0.4050000   0.2338269   0.0000000), wk =   0.0076628
        k(  181) = (   0.4000000   0.2309401   0.0000000), wk =   0.0076628
        k(  182) = (   0.3950000   0.2280534   0.0000000), wk =   0.0076628
        k(  183) = (   0.3900000   0.2251666   0.0000000), wk =   0.0076628
        k(  184) = (   0.3850000   0.2222799   0.0000000), wk =   0.0076628
        k(  185) = (   0.3800000   0.2193931   0.0000000), wk =   0.0076628
        k(  186) = (   0.3750000   0.2165064   0.0000000), wk =   0.0076628
        k(  187) = (   0.3700000   0.2136196   0.0000000), wk =   0.0076628
        k(  188) = (   0.3650000   0.2107328   0.0000000), wk =   0.0076628
        k(  189) = (   0.3600000   0.2078461   0.0000000), wk =   0.0076628
        k(  190) = (   0.3550000   0.2049593   0.0000000), wk =   0.0076628
        k(  191) = (   0.3500000   0.2020726   0.0000000), wk =   0.0076628
        k(  192) = (   0.3450000   0.1991858   0.0000000), wk =   0.0076628
        k(  193) = (   0.3400000   0.1962991   0.0000000), wk =   0.0076628
        k(  194) = (   0.3350000   0.1934123   0.0000000), wk =   0.0076628
        k(  195) = (   0.3300000   0.1905256   0.0000000), wk =   0.0076628
        k(  196) = (   0.3250000   0.1876388   0.0000000), wk =   0.0076628
        k(  197) = (   0.3200000   0.1847521   0.0000000), wk =   0.0076628
        k(  198) = (   0.3150000   0.1818653   0.0000000), wk =   0.0076628
        k(  199) = (   0.3100000   0.1789786   0.0000000), wk =   0.0076628
        k(  200) = (   0.3050000   0.1760918   0.0000000), wk =   0.0076628
        k(  201) = (   0.3000000   0.1732051   0.0000000), wk =   0.0076628
        k(  202) = (   0.2950000   0.1703183   0.0000000), wk =   0.0076628
        k(  203) = (   0.2900000   0.1674316   0.0000000), wk =   0.0076628
        k(  204) = (   0.2850000   0.1645448   0.0000000), wk =   0.0076628
        k(  205) = (   0.2800000   0.1616581   0.0000000), wk =   0.0076628
        k(  206) = (   0.2750000   0.1587713   0.0000000), wk =   0.0076628
        k(  207) = (   0.2700000   0.1558846   0.0000000), wk =   0.0076628
        k(  208) = (   0.2650000   0.1529978   0.0000000), wk =   0.0076628
        k(  209) = (   0.2600000   0.1501111   0.0000000), wk =   0.0076628
        k(  210) = (   0.2550000   0.1472243   0.0000000), wk =   0.0076628
        k(  211) = (   0.2500000   0.1443376   0.0000000), wk =   0.0076628
        k(  212) = (   0.2450000   0.1414508   0.0000000), wk =   0.0076628
        k(  213) = (   0.2400000   0.1385641   0.0000000), wk =   0.0076628
        k(  214) = (   0.2350000   0.1356773   0.0000000), wk =   0.0076628
        k(  215) = (   0.2300000   0.1327906   0.0000000), wk =   0.0076628
        k(  216) = (   0.2250000   0.1299038   0.0000000), wk =   0.0076628
        k(  217) = (   0.2200000   0.1270171   0.0000000), wk =   0.0076628
        k(  218) = (   0.2150000   0.1241303   0.0000000), wk =   0.0076628
        k(  219) = (   0.2100000   0.1212436   0.0000000), wk =   0.0076628
        k(  220) = (   0.2050000   0.1183568   0.0000000), wk =   0.0076628
        k(  221) = (   0.2000000   0.1154701   0.0000000), wk =   0.0076628
        k(  222) = (   0.1950000   0.1125833   0.0000000), wk =   0.0076628
        k(  223) = (   0.1900000   0.1096966   0.0000000), wk =   0.0076628
        k(  224) = (   0.1850000   0.1068098   0.0000000), wk =   0.0076628
        k(  225) = (   0.1800000   0.1039230   0.0000000), wk =   0.0076628
        k(  226) = (   0.1750000   0.1010363   0.0000000), wk =   0.0076628
        k(  227) = (   0.1700000   0.0981495   0.0000000), wk =   0.0076628
        k(  228) = (   0.1650000   0.0952628   0.0000000), wk =   0.0076628
        k(  229) = (   0.1600000   0.0923760   0.0000000), wk =   0.0076628
        k(  230) = (   0.1550000   0.0894893   0.0000000), wk =   0.0076628
        k(  231) = (   0.1500000   0.0866025   0.0000000), wk =   0.0076628
        k(  232) = (   0.1450000   0.0837158   0.0000000), wk =   0.0076628
        k(  233) = (   0.1400000   0.0808290   0.0000000), wk =   0.0076628
        k(  234) = (   0.1350000   0.0779423   0.0000000), wk =   0.0076628
        k(  235) = (   0.1300000   0.0750555   0.0000000), wk =   0.0076628
        k(  236) = (   0.1250000   0.0721688   0.0000000), wk =   0.0076628
        k(  237) = (   0.1200000   0.0692820   0.0000000), wk =   0.0076628
        k(  238) = (   0.1150000   0.0663953   0.0000000), wk =   0.0076628
        k(  239) = (   0.1100000   0.0635085   0.0000000), wk =   0.0076628
        k(  240) = (   0.1050000   0.0606218   0.0000000), wk =   0.0076628
        k(  241) = (   0.1000000   0.0577350   0.0000000), wk =   0.0076628
        k(  242) = (   0.0950000   0.0548483   0.0000000), wk =   0.0076628
        k(  243) = (   0.0900000   0.0519615   0.0000000), wk =   0.0076628
        k(  244) = (   0.0850000   0.0490748   0.0000000), wk =   0.0076628
        k(  245) = (   0.0800000   0.0461880   0.0000000), wk =   0.0076628
        k(  246) = (   0.0750000   0.0433013   0.0000000), wk =   0.0076628
        k(  247) = (   0.0700000   0.0404145   0.0000000), wk =   0.0076628
        k(  248) = (   0.0650000   0.0375278   0.0000000), wk =   0.0076628
        k(  249) = (   0.0600000   0.0346410   0.0000000), wk =   0.0076628
        k(  250) = (   0.0550000   0.0317543   0.0000000), wk =   0.0076628
        k(  251) = (   0.0500000   0.0288675   0.0000000), wk =   0.0076628
        k(  252) = (   0.0450000   0.0259808   0.0000000), wk =   0.0076628
        k(  253) = (   0.0400000   0.0230940   0.0000000), wk =   0.0076628
        k(  254) = (   0.0350000   0.0202073   0.0000000), wk =   0.0076628
        k(  255) = (   0.0300000   0.0173205   0.0000000), wk =   0.0076628
        k(  256) = (   0.0250000   0.0144338   0.0000000), wk =   0.0076628
        k(  257) = (   0.0200000   0.0115470   0.0000000), wk =   0.0076628
        k(  258) = (   0.0150000   0.0086603   0.0000000), wk =   0.0076628
        k(  259) = (   0.0100000   0.0057735   0.0000000), wk =   0.0076628
        k(  260) = (   0.0050000   0.0028868   0.0000000), wk =   0.0076628
        k(  261) = (   0.0000000   0.0000000   0.0000000), wk =   0.0076628

                       cryst. coord.
        k(    1) = (   0.0000000   0.0000000   0.0000000), wk =   0.0076628
        k(    2) = (   0.0033333   0.0033333   0.0000000), wk =   0.0076628
        k(    3) = (   0.0066667   0.0066667   0.0000000), wk =   0.0076628
        k(    4) = (   0.0100000   0.0100000   0.0000000), wk =   0.0076628
        k(    5) = (   0.0133333   0.0133333   0.0000000), wk =   0.0076628
        k(    6) = (   0.0166667   0.0166667   0.0000000), wk =   0.0076628
        k(    7) = (   0.0200000   0.0200000   0.0000000), wk =   0.0076628
        k(    8) = (   0.0233333   0.0233333   0.0000000), wk =   0.0076628
        k(    9) = (   0.0266667   0.0266667   0.0000000), wk =   0.0076628
        k(   10) = (   0.0300000   0.0300000   0.0000000), wk =   0.0076628
        k(   11) = (   0.0333333   0.0333333   0.0000000), wk =   0.0076628
        k(   12) = (   0.0366667   0.0366667   0.0000000), wk =   0.0076628
        k(   13) = (   0.0400000   0.0400000   0.0000000), wk =   0.0076628
        k(   14) = (   0.0433333   0.0433333   0.0000000), wk =   0.0076628
        k(   15) = (   0.0466667   0.0466667   0.0000000), wk =   0.0076628
        k(   16) = (   0.0500000   0.0500000   0.0000000), wk =   0.0076628
        k(   17) = (   0.0533333   0.0533333   0.0000000), wk =   0.0076628
        k(   18) = (   0.0566667   0.0566667   0.0000000), wk =   0.0076628
        k(   19) = (   0.0600000   0.0600000   0.0000000), wk =   0.0076628
        k(   20) = (   0.0633333   0.0633333   0.0000000), wk =   0.0076628
        k(   21) = (   0.0666667   0.0666667   0.0000000), wk =   0.0076628
        k(   22) = (   0.0700000   0.0700000   0.0000000), wk =   0.0076628
        k(   23) = (   0.0733333   0.0733333   0.0000000), wk =   0.0076628
        k(   24) = (   0.0766667   0.0766667   0.0000000), wk =   0.0076628
        k(   25) = (   0.0800000   0.0800000   0.0000000), wk =   0.0076628
        k(   26) = (   0.0833333   0.0833333   0.0000000), wk =   0.0076628
        k(   27) = (   0.0866667   0.0866667   0.0000000), wk =   0.0076628
        k(   28) = (   0.0900000   0.0900000   0.0000000), wk =   0.0076628
        k(   29) = (   0.0933333   0.0933333   0.0000000), wk =   0.0076628
        k(   30) = (   0.0966667   0.0966667   0.0000000), wk =   0.0076628
        k(   31) = (   0.1000000   0.1000000   0.0000000), wk =   0.0076628
        k(   32) = (   0.1033333   0.1033333   0.0000000), wk =   0.0076628
        k(   33) = (   0.1066667   0.1066667   0.0000000), wk =   0.0076628
        k(   34) = (   0.1100000   0.1100000   0.0000000), wk =   0.0076628
        k(   35) = (   0.1133333   0.1133333   0.0000000), wk =   0.0076628
        k(   36) = (   0.1166667   0.1166667   0.0000000), wk =   0.0076628
        k(   37) = (   0.1200000   0.1200000   0.0000000), wk =   0.0076628
        k(   38) = (   0.1233333   0.1233333   0.0000000), wk =   0.0076628
        k(   39) = (   0.1266667   0.1266667   0.0000000), wk =   0.0076628
        k(   40) = (   0.1300000   0.1300000   0.0000000), wk =   0.0076628
        k(   41) = (   0.1333333   0.1333333   0.0000000), wk =   0.0076628
        k(   42) = (   0.1366667   0.1366667   0.0000000), wk =   0.0076628
        k(   43) = (   0.1400000   0.1400000   0.0000000), wk =   0.0076628
        k(   44) = (   0.1433333   0.1433333   0.0000000), wk =   0.0076628
        k(   45) = (   0.1466667   0.1466667   0.0000000), wk =   0.0076628
        k(   46) = (   0.1500000   0.1500000   0.0000000), wk =   0.0076628
        k(   47) = (   0.1533333   0.1533333   0.0000000), wk =   0.0076628
        k(   48) = (   0.1566667   0.1566667   0.0000000), wk =   0.0076628
        k(   49) = (   0.1600000   0.1600000   0.0000000), wk =   0.0076628
        k(   50) = (   0.1633333   0.1633333   0.0000000), wk =   0.0076628
        k(   51) = (   0.1666667   0.1666667   0.0000000), wk =   0.0076628
        k(   52) = (   0.1700000   0.1700000   0.0000000), wk =   0.0076628
        k(   53) = (   0.1733333   0.1733333   0.0000000), wk =   0.0076628
        k(   54) = (   0.1766667   0.1766667   0.0000000), wk =   0.0076628
        k(   55) = (   0.1800000   0.1800000   0.0000000), wk =   0.0076628
        k(   56) = (   0.1833333   0.1833333   0.0000000), wk =   0.0076628
        k(   57) = (   0.1866667   0.1866667   0.0000000), wk =   0.0076628
        k(   58) = (   0.1900000   0.1900000   0.0000000), wk =   0.0076628
        k(   59) = (   0.1933333   0.1933333   0.0000000), wk =   0.0076628
        k(   60) = (   0.1966667   0.1966667   0.0000000), wk =   0.0076628
        k(   61) = (   0.2000000   0.2000000   0.0000000), wk =   0.0076628
        k(   62) = (   0.2033333   0.2033333   0.0000000), wk =   0.0076628
        k(   63) = (   0.2066667   0.2066667   0.0000000), wk =   0.0076628
        k(   64) = (   0.2100000   0.2100000   0.0000000), wk =   0.0076628
        k(   65) = (   0.2133333   0.2133333   0.0000000), wk =   0.0076628
        k(   66) = (   0.2166667   0.2166667   0.0000000), wk =   0.0076628
        k(   67) = (   0.2200000   0.2200000   0.0000000), wk =   0.0076628
        k(   68) = (   0.2233333   0.2233333   0.0000000), wk =   0.0076628
        k(   69) = (   0.2266667   0.2266667   0.0000000), wk =   0.0076628
        k(   70) = (   0.2300000   0.2300000   0.0000000), wk =   0.0076628
        k(   71) = (   0.2333333   0.2333333   0.0000000), wk =   0.0076628
        k(   72) = (   0.2366667   0.2366667   0.0000000), wk =   0.0076628
        k(   73) = (   0.2400000   0.2400000   0.0000000), wk =   0.0076628
        k(   74) = (   0.2433333   0.2433333   0.0000000), wk =   0.0076628
        k(   75) = (   0.2466667   0.2466667   0.0000000), wk =   0.0076628
        k(   76) = (   0.2500000   0.2500000   0.0000000), wk =   0.0076628
        k(   77) = (   0.2533333   0.2533333   0.0000000), wk =   0.0076628
        k(   78) = (   0.2566667   0.2566667   0.0000000), wk =   0.0076628
        k(   79) = (   0.2600000   0.2600000   0.0000000), wk =   0.0076628
        k(   80) = (   0.2633333   0.2633333   0.0000000), wk =   0.0076628
        k(   81) = (   0.2666667   0.2666667   0.0000000), wk =   0.0076628
        k(   82) = (   0.2700000   0.2700000   0.0000000), wk =   0.0076628
        k(   83) = (   0.2733333   0.2733333   0.0000000), wk =   0.0076628
        k(   84) = (   0.2766667   0.2766667   0.0000000), wk =   0.0076628
        k(   85) = (   0.2800000   0.2800000   0.0000000), wk =   0.0076628
        k(   86) = (   0.2833333   0.2833333   0.0000000), wk =   0.0076628
        k(   87) = (   0.2866667   0.2866667   0.0000000), wk =   0.0076628
        k(   88) = (   0.2900000   0.2900000   0.0000000), wk =   0.0076628
        k(   89) = (   0.2933333   0.2933333   0.0000000), wk =   0.0076628
        k(   90) = (   0.2966667   0.2966667   0.0000000), wk =   0.0076628
        k(   91) = (   0.3000000   0.3000000   0.0000000), wk =   0.0076628
        k(   92) = (   0.3033333   0.3033333   0.0000000), wk =   0.0076628
        k(   93) = (   0.3066667   0.3066667   0.0000000), wk =   0.0076628
        k(   94) = (   0.3100000   0.3100000   0.0000000), wk =   0.0076628
        k(   95) = (   0.3133333   0.3133333   0.0000000), wk =   0.0076628
        k(   96) = (   0.3166667   0.3166667   0.0000000), wk =   0.0076628
        k(   97) = (   0.3200000   0.3200000   0.0000000), wk =   0.0076628
        k(   98) = (   0.3233333   0.3233333   0.0000000), wk =   0.0076628
        k(   99) = (   0.3266667   0.3266667   0.0000000), wk =   0.0076628
        k(  100) = (   0.3300000   0.3300000   0.0000000), wk =   0.0076628
        k(  101) = (   0.3333333   0.3333333   0.0000000), wk =   0.0076628
        k(  102) = (   0.3361111   0.3277778   0.0000000), wk =   0.0076628
        k(  103) = (   0.3388889   0.3222222   0.0000000), wk =   0.0076628
        k(  104) = (   0.3416667   0.3166667   0.0000000), wk =   0.0076628
        k(  105) = (   0.3444444   0.3111111   0.0000000), wk =   0.0076628
        k(  106) = (   0.3472222   0.3055556   0.0000000), wk =   0.0076628
        k(  107) = (   0.3500000   0.3000000   0.0000000), wk =   0.0076628
        k(  108) = (   0.3527778   0.2944444   0.0000000), wk =   0.0076628
        k(  109) = (   0.3555556   0.2888889   0.0000000), wk =   0.0076628
        k(  110) = (   0.3583333   0.2833333   0.0000000), wk =   0.0076628
        k(  111) = (   0.3611111   0.2777778   0.0000000), wk =   0.0076628
        k(  112) = (   0.3638889   0.2722222   0.0000000), wk =   0.0076628
        k(  113) = (   0.3666667   0.2666667   0.0000000), wk =   0.0076628
        k(  114) = (   0.3694444   0.2611111   0.0000000), wk =   0.0076628
        k(  115) = (   0.3722222   0.2555556   0.0000000), wk =   0.0076628
        k(  116) = (   0.3750000   0.2500000   0.0000000), wk =   0.0076628
        k(  117) = (   0.3777778   0.2444444   0.0000000), wk =   0.0076628
        k(  118) = (   0.3805556   0.2388889   0.0000000), wk =   0.0076628
        k(  119) = (   0.3833333   0.2333333   0.0000000), wk =   0.0076628
        k(  120) = (   0.3861111   0.2277778   0.0000000), wk =   0.0076628
        k(  121) = (   0.3888889   0.2222222   0.0000000), wk =   0.0076628
        k(  122) = (   0.3916667   0.2166667   0.0000000), wk =   0.0076628
        k(  123) = (   0.3944444   0.2111111   0.0000000), wk =   0.0076628
        k(  124) = (   0.3972222   0.2055556   0.0000000), wk =   0.0076628
        k(  125) = (   0.4000000   0.2000000   0.0000000), wk =   0.0076628
        k(  126) = (   0.4027778   0.1944444   0.0000000), wk =   0.0076628
        k(  127) = (   0.4055556   0.1888889   0.0000000), wk =   0.0076628
        k(  128) = (   0.4083333   0.1833333   0.0000000), wk =   0.0076628
        k(  129) = (   0.4111111   0.1777778   0.0000000), wk =   0.0076628
        k(  130) = (   0.4138889   0.1722222   0.0000000), wk =   0.0076628
        k(  131) = (   0.4166667   0.1666667   0.0000000), wk =   0.0076628
        k(  132) = (   0.4194444   0.1611111   0.0000000), wk =   0.0076628
        k(  133) = (   0.4222222   0.1555556   0.0000000), wk =   0.0076628
        k(  134) = (   0.4250000   0.1500000   0.0000000), wk =   0.0076628
        k(  135) = (   0.4277778   0.1444444   0.0000000), wk =   0.0076628
        k(  136) = (   0.4305556   0.1388889   0.0000000), wk =   0.0076628
        k(  137) = (   0.4333333   0.1333333   0.0000000), wk =   0.0076628
        k(  138) = (   0.4361111   0.1277778   0.0000000), wk =   0.0076628
        k(  139) = (   0.4388889   0.1222222   0.0000000), wk =   0.0076628
        k(  140) = (   0.4416667   0.1166667   0.0000000), wk =   0.0076628
        k(  141) = (   0.4444444   0.1111111   0.0000000), wk =   0.0076628
        k(  142) = (   0.4472222   0.1055556   0.0000000), wk =   0.0076628
        k(  143) = (   0.4500000   0.1000000   0.0000000), wk =   0.0076628
        k(  144) = (   0.4527778   0.0944444   0.0000000), wk =   0.0076628
        k(  145) = (   0.4555556   0.0888889   0.0000000), wk =   0.0076628
        k(  146) = (   0.4583333   0.0833333   0.0000000), wk =   0.0076628
        k(  147) = (   0.4611111   0.0777778   0.0000000), wk =   0.0076628
        k(  148) = (   0.4638889   0.0722222   0.0000000), wk =   0.0076628
        k(  149) = (   0.4666667   0.0666667   0.0000000), wk =   0.0076628
        k(  150) = (   0.4694444   0.0611111   0.0000000), wk =   0.0076628
        k(  151) = (   0.4722222   0.0555556   0.0000000), wk =   0.0076628
        k(  152) = (   0.4750000   0.0500000   0.0000000), wk =   0.0076628
        k(  153) = (   0.4777778   0.0444444   0.0000000), wk =   0.0076628
        k(  154) = (   0.4805556   0.0388889   0.0000000), wk =   0.0076628
        k(  155) = (   0.4833333   0.0333333   0.0000000), wk =   0.0076628
        k(  156) = (   0.4861111   0.0277778   0.0000000), wk =   0.0076628
        k(  157) = (   0.4888889   0.0222222   0.0000000), wk =   0.0076628
        k(  158) = (   0.4916667   0.0166667   0.0000000), wk =   0.0076628
        k(  159) = (   0.4944444   0.0111111   0.0000000), wk =   0.0076628
        k(  160) = (   0.4972222   0.0055556   0.0000000), wk =   0.0076628
        k(  161) = (   0.5000000   0.0000000   0.0000000), wk =   0.0076628
        k(  162) = (   0.4950000   0.0000000   0.0000000), wk =   0.0076628
        k(  163) = (   0.4900000   0.0000000   0.0000000), wk =   0.0076628
        k(  164) = (   0.4850000   0.0000000   0.0000000), wk =   0.0076628
        k(  165) = (   0.4800000   0.0000000   0.0000000), wk =   0.0076628
        k(  166) = (   0.4750000   0.0000000   0.0000000), wk =   0.0076628
        k(  167) = (   0.4700000  -0.0000000   0.0000000), wk =   0.0076628
        k(  168) = (   0.4650000   0.0000000   0.0000000), wk =   0.0076628
        k(  169) = (   0.4600000   0.0000000   0.0000000), wk =   0.0076628
        k(  170) = (   0.4550000   0.0000000   0.0000000), wk =   0.0076628
        k(  171) = (   0.4500000   0.0000000   0.0000000), wk =   0.0076628
        k(  172) = (   0.4450000   0.0000000   0.0000000), wk =   0.0076628
        k(  173) = (   0.4400000   0.0000000   0.0000000), wk =   0.0076628
        k(  174) = (   0.4350000  -0.0000000   0.0000000), wk =   0.0076628
        k(  175) = (   0.4300000   0.0000000   0.0000000), wk =   0.0076628
        k(  176) = (   0.4250000   0.0000000   0.0000000), wk =   0.0076628
        k(  177) = (   0.4200000   0.0000000   0.0000000), wk =   0.0076628
        k(  178) = (   0.4150000   0.0000000   0.0000000), wk =   0.0076628
        k(  179) = (   0.4100000   0.0000000   0.0000000), wk =   0.0076628
        k(  180) = (   0.4050000   0.0000000   0.0000000), wk =   0.0076628
        k(  181) = (   0.4000000  -0.0000000   0.0000000), wk =   0.0076628
        k(  182) = (   0.3950000  -0.0000000   0.0000000), wk =   0.0076628
        k(  183) = (   0.3900000  -0.0000000   0.0000000), wk =   0.0076628
        k(  184) = (   0.3850000  -0.0000000   0.0000000), wk =   0.0076628
        k(  185) = (   0.3800000  -0.0000000   0.0000000), wk =   0.0076628
        k(  186) = (   0.3750000   0.0000000   0.0000000), wk =   0.0076628
        k(  187) = (   0.3700000   0.0000000   0.0000000), wk =   0.0076628
        k(  188) = (   0.3650000   0.0000000   0.0000000), wk =   0.0076628
        k(  189) = (   0.3600000   0.0000000   0.0000000), wk =   0.0076628
        k(  190) = (   0.3550000   0.0000000   0.0000000), wk =   0.0076628
        k(  191) = (   0.3500000   0.0000000   0.0000000), wk =   0.0076628
        k(  192) = (   0.3450000   0.0000000   0.0000000), wk =   0.0076628
        k(  193) = (   0.3400000   0.0000000   0.0000000), wk =   0.0076628
        k(  194) = (   0.3350000   0.0000000   0.0000000), wk =   0.0076628
        k(  195) = (   0.3300000   0.0000000   0.0000000), wk =   0.0076628
        k(  196) = (   0.3250000   0.0000000   0.0000000), wk =   0.0076628
        k(  197) = (   0.3200000  -0.0000000   0.0000000), wk =   0.0076628
        k(  198) = (   0.3150000  -0.0000000   0.0000000), wk =   0.0076628
        k(  199) = (   0.3100000  -0.0000000   0.0000000), wk =   0.0076628
        k(  200) = (   0.3050000  -0.0000000   0.0000000), wk =   0.0076628
        k(  201) = (   0.3000000  -0.0000000   0.0000000), wk =   0.0076628
        k(  202) = (   0.2950000  -0.0000000   0.0000000), wk =   0.0076628
        k(  203) = (   0.2900000   0.0000000   0.0000000), wk =   0.0076628
        k(  204) = (   0.2850000   0.0000000   0.0000000), wk =   0.0076628
        k(  205) = (   0.2800000   0.0000000   0.0000000), wk =   0.0076628
        k(  206) = (   0.2750000   0.0000000   0.0000000), wk =   0.0076628
        k(  207) = (   0.2700000   0.0000000   0.0000000), wk =   0.0076628
        k(  208) = (   0.2650000   0.0000000   0.0000000), wk =   0.0076628
        k(  209) = (   0.2600000   0.0000000   0.0000000), wk =   0.0076628
        k(  210) = (   0.2550000   0.0000000   0.0000000), wk =   0.0076628
        k(  211) = (   0.2500000   0.0000000   0.0000000), wk =   0.0076628
        k(  212) = (   0.2450000   0.0000000   0.0000000), wk =   0.0076628
        k(  213) = (   0.2400000   0.0000000   0.0000000), wk =   0.0076628
        k(  214) = (   0.2350000  -0.0000000   0.0000000), wk =   0.0076628
        k(  215) = (   0.2300000  -0.0000000   0.0000000), wk =   0.0076628
        k(  216) = (   0.2250000   0.0000000   0.0000000), wk =   0.0076628
        k(  217) = (   0.2200000   0.0000000   0.0000000), wk =   0.0076628
        k(  218) = (   0.2150000   0.0000000   0.0000000), wk =   0.0076628
        k(  219) = (   0.2100000   0.0000000   0.0000000), wk =   0.0076628
        k(  220) = (   0.2050000   0.0000000   0.0000000), wk =   0.0076628
        k(  221) = (   0.2000000  -0.0000000   0.0000000), wk =   0.0076628
        k(  222) = (   0.1950000  -0.0000000   0.0000000), wk =   0.0076628
        k(  223) = (   0.1900000  -0.0000000   0.0000000), wk =   0.0076628
        k(  224) = (   0.1850000   0.0000000   0.0000000), wk =   0.0076628
        k(  225) = (   0.1800000   0.0000000   0.0000000), wk =   0.0076628
        k(  226) = (   0.1750000   0.0000000   0.0000000), wk =   0.0076628
        k(  227) = (   0.1700000   0.0000000   0.0000000), wk =   0.0076628
        k(  228) = (   0.1650000   0.0000000   0.0000000), wk =   0.0076628
        k(  229) = (   0.1600000   0.0000000   0.0000000), wk =   0.0076628
        k(  230) = (   0.1550000  -0.0000000   0.0000000), wk =   0.0076628
        k(  231) = (   0.1500000  -0.0000000   0.0000000), wk =   0.0076628
        k(  232) = (   0.1450000   0.0000000   0.0000000), wk =   0.0076628
        k(  233) = (   0.1400000   0.0000000   0.0000000), wk =   0.0076628
        k(  234) = (   0.1350000   0.0000000   0.0000000), wk =   0.0076628
        k(  235) = (   0.1300000   0.0000000   0.0000000), wk =   0.0076628
        k(  236) = (   0.1250000   0.0000000   0.0000000), wk =   0.0076628
        k(  237) = (   0.1200000   0.0000000   0.0000000), wk =   0.0076628
        k(  238) = (   0.1150000  -0.0000000   0.0000000), wk =   0.0076628
        k(  239) = (   0.1100000   0.0000000   0.0000000), wk =   0.0076628
        k(  240) = (   0.1050000   0.0000000   0.0000000), wk =   0.0076628
        k(  241) = (   0.1000000   0.0000000   0.0000000), wk =   0.0076628
        k(  242) = (   0.0950000  -0.0000000   0.0000000), wk =   0.0076628
        k(  243) = (   0.0900000   0.0000000   0.0000000), wk =   0.0076628
        k(  244) = (   0.0850000   0.0000000   0.0000000), wk =   0.0076628
        k(  245) = (   0.0800000  -0.0000000   0.0000000), wk =   0.0076628
        k(  246) = (   0.0750000   0.0000000   0.0000000), wk =   0.0076628
        k(  247) = (   0.0700000   0.0000000   0.0000000), wk =   0.0076628
        k(  248) = (   0.0650000   0.0000000   0.0000000), wk =   0.0076628
        k(  249) = (   0.0600000   0.0000000   0.0000000), wk =   0.0076628
        k(  250) = (   0.0550000   0.0000000   0.0000000), wk =   0.0076628
        k(  251) = (   0.0500000   0.0000000   0.0000000), wk =   0.0076628
        k(  252) = (   0.0450000   0.0000000   0.0000000), wk =   0.0076628
        k(  253) = (   0.0400000   0.0000000   0.0000000), wk =   0.0076628
        k(  254) = (   0.0350000   0.0000000   0.0000000), wk =   0.0076628
        k(  255) = (   0.0300000  -0.0000000   0.0000000), wk =   0.0076628
        k(  256) = (   0.0250000   0.0000000   0.0000000), wk =   0.0076628
        k(  257) = (   0.0200000   0.0000000   0.0000000), wk =   0.0076628
        k(  258) = (   0.0150000   0.0000000   0.0000000), wk =   0.0076628
        k(  259) = (   0.0100000   0.0000000   0.0000000), wk =   0.0076628
        k(  260) = (   0.0050000   0.0000000   0.0000000), wk =   0.0076628
        k(  261) = (   0.0000000   0.0000000   0.0000000), wk =   0.0076628

     Dense  grid:   129765 G-vectors     FFT dimensions: (  36,  36, 250)

     Smooth grid:    92863 G-vectors     FFT dimensions: (  32,  32, 225)

     Dynamical RAM for                 wfc:       6.21 MB

     Dynamical RAM for     wfc (w. buffer):       6.21 MB

     Dynamical RAM for           str. fact:       5.94 MB

     Dynamical RAM for           local pot:       0.00 MB

     Dynamical RAM for          nlocal pot:      11.71 MB

     Dynamical RAM for                qrad:       4.82 MB

     Dynamical RAM for          rho,v,vnew:      13.36 MB

     Dynamical RAM for           G-vectors:       8.13 MB

     Dynamical RAM for          h,s,v(r/c):       0.22 MB

     Dynamical RAM for          <psi|beta>:       0.04 MB

     Dynamical RAM for                 psi:      12.42 MB

     Dynamical RAM for                hpsi:      12.42 MB

     Dynamical RAM for      wfcinit/wfcrot:      12.45 MB

     Estimated static dynamical RAM per process >      70.44 MB

     Estimated max dynamical RAM per process >      95.53 MB
 ----2D----2D----2D----2D----2D----2D----2D----2D----2D----2D----2D----2D
  The code is running with the 2D cutoff
  Please refer to:
  Sohier, T., Calandra, M., & Mauri, F. (2017), 
  Density functional perturbation theory for gated two-dimensional heterostructures:
  Theoretical developments and application to flexural phonons in graphene.
  Physical Review B, 96(7), 75448. https://doi.org/10.1103/PhysRevB.96.075448
 ----2D----2D----2D----2D----2D----2D----2D----2D----2D----2D----2D----2D

     The potential is recalculated from file :
     ./tmp/crsi2n4.save/charge-density

     Starting wfcs are   34 randomized atomic wfcs +    1 random wfcs

     Band Structure Calculation
     Davidson diagonalization with overlap

     Computing kpt #:     1  of   261
     total cpu time spent up to now is        3.6 secs

     Computing kpt #:     2  of   261
     total cpu time spent up to now is        5.2 secs

     Computing kpt #:     3  of   261
     total cpu time spent up to now is        7.0 secs

     Computing kpt #:     4  of   261
     total cpu time spent up to now is        8.7 secs

     Computing kpt #:     5  of   261
     total cpu time spent up to now is       10.5 secs

     Computing kpt #:     6  of   261
     total cpu time spent up to now is       12.4 secs

     Computing kpt #:     7  of   261
     total cpu time spent up to now is       14.1 secs

     Computing kpt #:     8  of   261
     total cpu time spent up to now is       16.0 secs

     Computing kpt #:     9  of   261
     total cpu time spent up to now is       17.7 secs

     Computing kpt #:    10  of   261
     total cpu time spent up to now is       19.5 secs

     Computing kpt #:    11  of   261
     total cpu time spent up to now is       21.4 secs

     Computing kpt #:    12  of   261
     total cpu time spent up to now is       23.2 secs

     Computing kpt #:    13  of   261
     total cpu time spent up to now is       25.0 secs

     Computing kpt #:    14  of   261
     total cpu time spent up to now is       26.8 secs

     Computing kpt #:    15  of   261
     total cpu time spent up to now is       28.7 secs

     Computing kpt #:    16  of   261
     total cpu time spent up to now is       30.5 secs

     Computing kpt #:    17  of   261
     total cpu time spent up to now is       32.3 secs

     Computing kpt #:    18  of   261
     total cpu time spent up to now is       34.1 secs

     Computing kpt #:    19  of   261
     total cpu time spent up to now is       35.9 secs

     Computing kpt #:    20  of   261
     total cpu time spent up to now is       37.8 secs

     Computing kpt #:    21  of   261
     total cpu time spent up to now is       39.8 secs

     Computing kpt #:    22  of   261
     total cpu time spent up to now is       41.8 secs

     Computing kpt #:    23  of   261
     total cpu time spent up to now is       43.8 secs

     Computing kpt #:    24  of   261
     total cpu time spent up to now is       45.8 secs

     Computing kpt #:    25  of   261
     total cpu time spent up to now is       47.9 secs

     Computing kpt #:    26  of   261
     total cpu time spent up to now is       49.9 secs

     Computing kpt #:    27  of   261
     total cpu time spent up to now is       51.9 secs

     Computing kpt #:    28  of   261
     total cpu time spent up to now is       53.9 secs

     Computing kpt #:    29  of   261
     total cpu time spent up to now is       56.0 secs

     Computing kpt #:    30  of   261
     total cpu time spent up to now is       58.0 secs

     Computing kpt #:    31  of   261
     total cpu time spent up to now is       60.2 secs

     Computing kpt #:    32  of   261
     total cpu time spent up to now is       62.3 secs

     Computing kpt #:    33  of   261
     total cpu time spent up to now is       64.6 secs

     Computing kpt #:    34  of   261
     total cpu time spent up to now is       66.9 secs

     Computing kpt #:    35  of   261
     total cpu time spent up to now is       69.2 secs

     Computing kpt #:    36  of   261
     total cpu time spent up to now is       71.4 secs

     Computing kpt #:    37  of   261
     total cpu time spent up to now is       73.8 secs

     Computing kpt #:    38  of   261
     total cpu time spent up to now is       76.1 secs

     Computing kpt #:    39  of   261
     total cpu time spent up to now is       78.6 secs

     Computing kpt #:    40  of   261
     total cpu time spent up to now is       81.0 secs

     Computing kpt #:    41  of   261
     total cpu time spent up to now is       83.4 secs

     Computing kpt #:    42  of   261
     total cpu time spent up to now is       85.9 secs

     Computing kpt #:    43  of   261
     total cpu time spent up to now is       88.4 secs

     Computing kpt #:    44  of   261
     total cpu time spent up to now is       90.9 secs

     Computing kpt #:    45  of   261
     total cpu time spent up to now is       93.5 secs

     Computing kpt #:    46  of   261
     total cpu time spent up to now is       96.0 secs

     Computing kpt #:    47  of   261
     total cpu time spent up to now is       98.5 secs

     Computing kpt #:    48  of   261
     c_bands:  1 eigenvalues not converged
     total cpu time spent up to now is      101.6 secs

     Computing kpt #:    49  of   261
     total cpu time spent up to now is      104.5 secs

     Computing kpt #:    50  of   261
     c_bands:  1 eigenvalues not converged
     total cpu time spent up to now is      107.5 secs

     Computing kpt #:    51  of   261
     c_bands:  1 eigenvalues not converged
     total cpu time spent up to now is      110.5 secs

     Computing kpt #:    52  of   261
     total cpu time spent up to now is      113.4 secs

     Computing kpt #:    53  of   261
     total cpu time spent up to now is      115.9 secs

     Computing kpt #:    54  of   261
     total cpu time spent up to now is      118.3 secs

     Computing kpt #:    55  of   261
     total cpu time spent up to now is      120.5 secs

     Computing kpt #:    56  of   261
     total cpu time spent up to now is      122.5 secs

     Computing kpt #:    57  of   261
     total cpu time spent up to now is      124.4 secs

     Computing kpt #:    58  of   261
     total cpu time spent up to now is      126.3 secs

     Computing kpt #:    59  of   261
     total cpu time spent up to now is      128.1 secs

     Computing kpt #:    60  of   261
     total cpu time spent up to now is      130.0 secs

     Computing kpt #:    61  of   261
     total cpu time spent up to now is      131.9 secs

     Computing kpt #:    62  of   261
     total cpu time spent up to now is      133.8 secs

     Computing kpt #:    63  of   261
     total cpu time spent up to now is      135.8 secs

     Computing kpt #:    64  of   261
     total cpu time spent up to now is      137.9 secs

     Computing kpt #:    65  of   261
     total cpu time spent up to now is      140.0 secs

     Computing kpt #:    66  of   261
     total cpu time spent up to now is      142.1 secs

     Computing kpt #:    67  of   261
     total cpu time spent up to now is      144.4 secs

     Computing kpt #:    68  of   261
     total cpu time spent up to now is      147.0 secs

     Computing kpt #:    69  of   261
     total cpu time spent up to now is      149.5 secs

     Computing kpt #:    70  of   261
     total cpu time spent up to now is      152.1 secs

     Computing kpt #:    71  of   261
     total cpu time spent up to now is      154.4 secs

     Computing kpt #:    72  of   261
     total cpu time spent up to now is      157.0 secs

     Computing kpt #:    73  of   261
     total cpu time spent up to now is      159.4 secs

     Computing kpt #:    74  of   261
     total cpu time spent up to now is      161.8 secs

     Computing kpt #:    75  of   261
     total cpu time spent up to now is      164.0 secs

     Computing kpt #:    76  of   261
     total cpu time spent up to now is      166.0 secs

     Computing kpt #:    77  of   261
     total cpu time spent up to now is      168.0 secs

     Computing kpt #:    78  of   261
     total cpu time spent up to now is      170.0 secs

     Computing kpt #:    79  of   261
     total cpu time spent up to now is      172.0 secs

     Computing kpt #:    80  of   261
     total cpu time spent up to now is      173.8 secs

     Computing kpt #:    81  of   261
     total cpu time spent up to now is      175.7 secs

     Computing kpt #:    82  of   261
     total cpu time spent up to now is      177.7 secs

     Computing kpt #:    83  of   261
     total cpu time spent up to now is      179.6 secs

     Computing kpt #:    84  of   261
     total cpu time spent up to now is      181.6 secs

     Computing kpt #:    85  of   261
     total cpu time spent up to now is      183.4 secs

     Computing kpt #:    86  of   261
     total cpu time spent up to now is      185.3 secs

     Computing kpt #:    87  of   261
     total cpu time spent up to now is      187.1 secs

     Computing kpt #:    88  of   261
     total cpu time spent up to now is      188.9 secs

     Computing kpt #:    89  of   261
     total cpu time spent up to now is      190.7 secs

     Computing kpt #:    90  of   261
     total cpu time spent up to now is      192.6 secs

     Computing kpt #:    91  of   261
     total cpu time spent up to now is      194.4 secs

     Computing kpt #:    92  of   261
     total cpu time spent up to now is      196.2 secs

     Computing kpt #:    93  of   261
     total cpu time spent up to now is      198.0 secs

     Computing kpt #:    94  of   261
     total cpu time spent up to now is      199.6 secs

     Computing kpt #:    95  of   261
     total cpu time spent up to now is      201.2 secs

     Computing kpt #:    96  of   261
     total cpu time spent up to now is      203.0 secs

     Computing kpt #:    97  of   261
     total cpu time spent up to now is      204.6 secs

     Computing kpt #:    98  of   261
     total cpu time spent up to now is      206.3 secs

     Computing kpt #:    99  of   261
     total cpu time spent up to now is      207.8 secs

     Computing kpt #:   100  of   261
     total cpu time spent up to now is      209.4 secs

     Computing kpt #:   101  of   261
     total cpu time spent up to now is      210.9 secs

     Computing kpt #:   102  of   261
     total cpu time spent up to now is      212.6 secs

     Computing kpt #:   103  of   261
     total cpu time spent up to now is      214.2 secs

     Computing kpt #:   104  of   261
     total cpu time spent up to now is      215.7 secs

     Computing kpt #:   105  of   261
     total cpu time spent up to now is      217.4 secs

     Computing kpt #:   106  of   261
     total cpu time spent up to now is      219.1 secs

     Computing kpt #:   107  of   261
     total cpu time spent up to now is      220.7 secs

     Computing kpt #:   108  of   261
     total cpu time spent up to now is      222.4 secs

     Computing kpt #:   109  of   261
     total cpu time spent up to now is      224.0 secs

     Computing kpt #:   110  of   261
     total cpu time spent up to now is      225.7 secs

     Computing kpt #:   111  of   261
     total cpu time spent up to now is      227.4 secs

     Computing kpt #:   112  of   261
     total cpu time spent up to now is      229.2 secs

     Computing kpt #:   113  of   261
     total cpu time spent up to now is      230.9 secs

     Computing kpt #:   114  of   261
     total cpu time spent up to now is      232.7 secs

     Computing kpt #:   115  of   261
     total cpu time spent up to now is      234.4 secs

     Computing kpt #:   116  of   261
     total cpu time spent up to now is      236.2 secs

     Computing kpt #:   117  of   261
     total cpu time spent up to now is      238.0 secs

     Computing kpt #:   118  of   261
     total cpu time spent up to now is      239.8 secs

     Computing kpt #:   119  of   261
     total cpu time spent up to now is      241.7 secs

     Computing kpt #:   120  of   261
     total cpu time spent up to now is      243.5 secs

     Computing kpt #:   121  of   261
     total cpu time spent up to now is      245.4 secs

     Computing kpt #:   122  of   261
     total cpu time spent up to now is      247.2 secs

     Computing kpt #:   123  of   261
     total cpu time spent up to now is      249.1 secs

     Computing kpt #:   124  of   261
     total cpu time spent up to now is      251.0 secs

     Computing kpt #:   125  of   261
     total cpu time spent up to now is      253.0 secs

     Computing kpt #:   126  of   261
     total cpu time spent up to now is      254.9 secs

     Computing kpt #:   127  of   261
     total cpu time spent up to now is      257.0 secs

     Computing kpt #:   128  of   261
     total cpu time spent up to now is      258.9 secs

     Computing kpt #:   129  of   261
     total cpu time spent up to now is      260.8 secs

     Computing kpt #:   130  of   261
     total cpu time spent up to now is      262.9 secs

     Computing kpt #:   131  of   261
     total cpu time spent up to now is      264.7 secs

     Computing kpt #:   132  of   261
     total cpu time spent up to now is      266.6 secs

     Computing kpt #:   133  of   261
     total cpu time spent up to now is      268.7 secs

     Computing kpt #:   134  of   261
     total cpu time spent up to now is      270.8 secs

     Computing kpt #:   135  of   261
     total cpu time spent up to now is      272.8 secs

     Computing kpt #:   136  of   261
     total cpu time spent up to now is      274.9 secs

     Computing kpt #:   137  of   261
     total cpu time spent up to now is      277.0 secs

     Computing kpt #:   138  of   261
     total cpu time spent up to now is      279.0 secs

     Computing kpt #:   139  of   261
     total cpu time spent up to now is      281.0 secs

     Computing kpt #:   140  of   261
     total cpu time spent up to now is      283.0 secs

     Computing kpt #:   141  of   261
     total cpu time spent up to now is      285.1 secs

     Computing kpt #:   142  of   261
     total cpu time spent up to now is      287.1 secs

     Computing kpt #:   143  of   261
     total cpu time spent up to now is      289.1 secs

     Computing kpt #:   144  of   261
     total cpu time spent up to now is      291.1 secs

     Computing kpt #:   145  of   261
     total cpu time spent up to now is      293.0 secs

     Computing kpt #:   146  of   261
     total cpu time spent up to now is      295.1 secs

     Computing kpt #:   147  of   261
     total cpu time spent up to now is      297.2 secs

     Computing kpt #:   148  of   261
     total cpu time spent up to now is      299.2 secs

     Computing kpt #:   149  of   261
     total cpu time spent up to now is      301.3 secs

     Computing kpt #:   150  of   261
     total cpu time spent up to now is      303.3 secs

     Computing kpt #:   151  of   261
     total cpu time spent up to now is      305.3 secs

     Computing kpt #:   152  of   261
     total cpu time spent up to now is      307.3 secs

     Computing kpt #:   153  of   261
     total cpu time spent up to now is      309.3 secs

     Computing kpt #:   154  of   261
     total cpu time spent up to now is      311.3 secs

     Computing kpt #:   155  of   261
     total cpu time spent up to now is      313.3 secs

     Computing kpt #:   156  of   261
     total cpu time spent up to now is      315.2 secs

     Computing kpt #:   157  of   261
     total cpu time spent up to now is      317.2 secs

     Computing kpt #:   158  of   261
     total cpu time spent up to now is      319.1 secs

     Computing kpt #:   159  of   261
     total cpu time spent up to now is      321.0 secs

     Computing kpt #:   160  of   261
     total cpu time spent up to now is      322.9 secs

     Computing kpt #:   161  of   261
     total cpu time spent up to now is      324.6 secs

     Computing kpt #:   162  of   261
     total cpu time spent up to now is      326.2 secs

     Computing kpt #:   163  of   261
     total cpu time spent up to now is      328.0 secs

     Computing kpt #:   164  of   261
     total cpu time spent up to now is      329.6 secs

     Computing kpt #:   165  of   261
     total cpu time spent up to now is      331.3 secs

     Computing kpt #:   166  of   261
     total cpu time spent up to now is      333.0 secs

     Computing kpt #:   167  of   261
     total cpu time spent up to now is      334.7 secs

     Computing kpt #:   168  of   261
     total cpu time spent up to now is      336.4 secs

     Computing kpt #:   169  of   261
     total cpu time spent up to now is      338.2 secs

     Computing kpt #:   170  of   261
     total cpu time spent up to now is      339.9 secs

     Computing kpt #:   171  of   261
     total cpu time spent up to now is      341.5 secs

     Computing kpt #:   172  of   261
     total cpu time spent up to now is      343.2 secs

     Computing kpt #:   173  of   261
     total cpu time spent up to now is      345.0 secs

     Computing kpt #:   174  of   261
     total cpu time spent up to now is      346.9 secs

     Computing kpt #:   175  of   261
     total cpu time spent up to now is      348.8 secs

     Computing kpt #:   176  of   261
     total cpu time spent up to now is      350.6 secs

     Computing kpt #:   177  of   261
     total cpu time spent up to now is      352.5 secs

     Computing kpt #:   178  of   261
     total cpu time spent up to now is      354.4 secs

     Computing kpt #:   179  of   261
     total cpu time spent up to now is      356.4 secs

     Computing kpt #:   180  of   261
     total cpu time spent up to now is      358.4 secs

     Computing kpt #:   181  of   261
     total cpu time spent up to now is      360.3 secs

     Computing kpt #:   182  of   261
     total cpu time spent up to now is      362.2 secs

     Computing kpt #:   183  of   261
     total cpu time spent up to now is      364.2 secs

     Computing kpt #:   184  of   261
     total cpu time spent up to now is      366.2 secs

     Computing kpt #:   185  of   261
     total cpu time spent up to now is      368.2 secs

     Computing kpt #:   186  of   261
     total cpu time spent up to now is      370.2 secs

     Computing kpt #:   187  of   261
     total cpu time spent up to now is      372.1 secs

     Computing kpt #:   188  of   261
     total cpu time spent up to now is      374.2 secs

     Computing kpt #:   189  of   261
     total cpu time spent up to now is      376.3 secs

     Computing kpt #:   190  of   261
     total cpu time spent up to now is      378.4 secs

     Computing kpt #:   191  of   261
     total cpu time spent up to now is      380.6 secs

     Computing kpt #:   192  of   261
     total cpu time spent up to now is      382.7 secs

     Computing kpt #:   193  of   261
     total cpu time spent up to now is      384.8 secs

     Computing kpt #:   194  of   261
     total cpu time spent up to now is      387.1 secs

     Computing kpt #:   195  of   261
     total cpu time spent up to now is      389.3 secs

     Computing kpt #:   196  of   261
     total cpu time spent up to now is      391.6 secs

     Computing kpt #:   197  of   261
     c_bands:  1 eigenvalues not converged
     total cpu time spent up to now is      394.7 secs

     Computing kpt #:   198  of   261
     c_bands:  1 eigenvalues not converged
     total cpu time spent up to now is      397.7 secs

     Computing kpt #:   199  of   261
     c_bands:  1 eigenvalues not converged
     total cpu time spent up to now is      400.8 secs

     Computing kpt #:   200  of   261
     total cpu time spent up to now is      403.3 secs

     Computing kpt #:   201  of   261
     total cpu time spent up to now is      405.7 secs

     Computing kpt #:   202  of   261
     c_bands:  1 eigenvalues not converged
     total cpu time spent up to now is      408.8 secs

     Computing kpt #:   203  of   261
     total cpu time spent up to now is      411.1 secs

     Computing kpt #:   204  of   261
     total cpu time spent up to now is      414.0 secs

     Computing kpt #:   205  of   261
     total cpu time spent up to now is      416.3 secs

     Computing kpt #:   206  of   261
     total cpu time spent up to now is      418.7 secs

     Computing kpt #:   207  of   261
     total cpu time spent up to now is      421.0 secs

     Computing kpt #:   208  of   261
     total cpu time spent up to now is      423.3 secs

     Computing kpt #:   209  of   261
     total cpu time spent up to now is      425.9 secs

     Computing kpt #:   210  of   261
     total cpu time spent up to now is      428.1 secs

     Computing kpt #:   211  of   261
     total cpu time spent up to now is      430.3 secs

     Computing kpt #:   212  of   261
     total cpu time spent up to now is      432.5 secs

     Computing kpt #:   213  of   261
     total cpu time spent up to now is      434.6 secs

     Computing kpt #:   214  of   261
     total cpu time spent up to now is      436.7 secs

     Computing kpt #:   215  of   261
     total cpu time spent up to now is      438.9 secs

     Computing kpt #:   216  of   261
     total cpu time spent up to now is      441.4 secs

     Computing kpt #:   217  of   261
     total cpu time spent up to now is      443.5 secs

     Computing kpt #:   218  of   261
     total cpu time spent up to now is      445.7 secs

     Computing kpt #:   219  of   261
     total cpu time spent up to now is      447.9 secs

     Computing kpt #:   220  of   261
     total cpu time spent up to now is      450.1 secs

     Computing kpt #:   221  of   261
     total cpu time spent up to now is      452.2 secs

     Computing kpt #:   222  of   261
     total cpu time spent up to now is      454.4 secs

     Computing kpt #:   223  of   261
     total cpu time spent up to now is      456.7 secs

     Computing kpt #:   224  of   261
     total cpu time spent up to now is      458.8 secs

     Computing kpt #:   225  of   261
     total cpu time spent up to now is      460.9 secs

     Computing kpt #:   226  of   261
     total cpu time spent up to now is      463.2 secs

     Computing kpt #:   227  of   261
     total cpu time spent up to now is      465.6 secs

     Computing kpt #:   228  of   261
     total cpu time spent up to now is      467.8 secs

     Computing kpt #:   229  of   261
     total cpu time spent up to now is      470.1 secs

     Computing kpt #:   230  of   261
     total cpu time spent up to now is      472.4 secs

     Computing kpt #:   231  of   261
     total cpu time spent up to now is      474.4 secs

     Computing kpt #:   232  of   261
     total cpu time spent up to now is      476.6 secs

     Computing kpt #:   233  of   261
     total cpu time spent up to now is      478.8 secs

     Computing kpt #:   234  of   261
     total cpu time spent up to now is      481.1 secs

     Computing kpt #:   235  of   261
     total cpu time spent up to now is      482.8 secs

     Computing kpt #:   236  of   261
     total cpu time spent up to now is      484.7 secs

     Computing kpt #:   237  of   261
     total cpu time spent up to now is      486.9 secs

     Computing kpt #:   238  of   261
     total cpu time spent up to now is      489.1 secs

     Computing kpt #:   239  of   261
     total cpu time spent up to now is      491.0 secs

     Computing kpt #:   240  of   261
     total cpu time spent up to now is      493.1 secs

     Computing kpt #:   241  of   261
     total cpu time spent up to now is      495.1 secs

     Computing kpt #:   242  of   261
     total cpu time spent up to now is      497.2 secs

     Computing kpt #:   243  of   261
     total cpu time spent up to now is      499.2 secs

     Computing kpt #:   244  of   261
     total cpu time spent up to now is      501.2 secs

     Computing kpt #:   245  of   261
     total cpu time spent up to now is      503.0 secs

     Computing kpt #:   246  of   261
     total cpu time spent up to now is      504.7 secs

     Computing kpt #:   247  of   261
     total cpu time spent up to now is      506.7 secs

     Computing kpt #:   248  of   261
     total cpu time spent up to now is      508.7 secs

     Computing kpt #:   249  of   261
     total cpu time spent up to now is      510.5 secs

     Computing kpt #:   250  of   261
     total cpu time spent up to now is      512.4 secs

     Computing kpt #:   251  of   261
     total cpu time spent up to now is      514.4 secs

     Computing kpt #:   252  of   261
     total cpu time spent up to now is      516.3 secs

     Computing kpt #:   253  of   261
     total cpu time spent up to now is      518.4 secs

     Computing kpt #:   254  of   261
     total cpu time spent up to now is      520.4 secs

     Computing kpt #:   255  of   261
     total cpu time spent up to now is      522.3 secs

     Computing kpt #:   256  of   261
     total cpu time spent up to now is      524.3 secs

     Computing kpt #:   257  of   261
     total cpu time spent up to now is      526.4 secs

     Computing kpt #:   258  of   261
     total cpu time spent up to now is      528.4 secs

     Computing kpt #:   259  of   261
     total cpu time spent up to now is      530.4 secs

     Computing kpt #:   260  of   261
     total cpu time spent up to now is      532.4 secs

     Computing kpt #:   261  of   261
     total cpu time spent up to now is      534.2 secs

     ethr =  2.38E-13,  avg # of iterations = 72.4

     total cpu time spent up to now is      534.2 secs

     End of band structure calculation

          k = 0.0000 0.0000 0.0000 ( 11637 PWs)   bands (ev):

   -77.8132 -49.0112 -49.0112 -48.9886 -24.6722 -24.5951 -21.8765 -20.4757
   -14.1053 -11.4899  -9.5287  -9.2115  -9.2114  -9.1571  -9.1571  -8.8258
    -8.8256  -7.5800  -7.5270  -7.5262  -5.4021  -3.2372  -3.2361  -3.0739
    -3.0737  -0.6623  -0.3497   2.0291   2.0895   2.1583   3.4144   3.4150
     3.4731   3.4736   3.5950

          k = 0.0033 0.0058 0.0000 ( 11625 PWs)   bands (ev):

   -77.8132 -49.0113 -49.0112 -48.9885 -24.6716 -24.5945 -21.8761 -20.4755
   -14.1048 -11.4897  -9.5294  -9.2128  -9.2120  -9.1601  -9.1578  -8.8268
    -8.8254  -7.5853  -7.5269  -7.5218  -5.4024  -3.2368  -3.2366  -3.0748
    -3.0741  -0.6603  -0.3480   2.0307   2.0903   2.1590   3.4056   3.4165
     3.4660   3.4746   3.6072

          k = 0.0067 0.0115 0.0000 ( 11635 PWs)   bands (ev):

   -77.8132 -49.0116 -49.0113 -48.9885 -24.6698 -24.5927 -21.8747 -20.4747
   -14.1033 -11.4890  -9.5315  -9.2168  -9.2136  -9.1692  -9.1597  -8.8304
    -8.8245  -7.5975  -7.5288  -7.5099  -5.4035  -3.2386  -3.2348  -3.0775
    -3.0753  -0.6542  -0.3427   2.0354   2.0927   2.1611   3.3809   3.4210
     3.4495   3.4792   3.6359

          k = 0.0100 0.0173 0.0000 ( 11629 PWs)   bands (ev):

   -77.8131 -49.0121 -49.0114 -48.9884 -24.6669 -24.5898 -21.8723 -20.4734
   -14.1008 -11.4878  -9.5352  -9.2233  -9.2164  -9.1840  -9.1629  -8.8364
    -8.8228  -7.6125  -7.5321  -7.4954  -5.4053  -3.2417  -3.2317  -3.0821
    -3.0772  -0.6441  -0.3340   2.0432   2.0968   2.1646   3.3453   3.4270
     3.4305   3.4867   3.6716

          k = 0.0133 0.0231 0.0000 ( 11637 PWs)   bands (ev):

   -77.8130 -49.0128 -49.0116 -48.9883 -24.6627 -24.5857 -21.8690 -20.4716
   -14.0973 -11.4862  -9.5408  -9.2318  -9.2218  -9.2031  -9.1675  -8.8446
    -8.8206  -7.6287  -7.5366  -7.4802  -5.4078  -3.2459  -3.2275  -3.0883
    -3.0799  -0.6301  -0.3219   2.0538   2.1023   2.1696   3.3037   3.4037
     3.4396   3.4973   3.7102

          k = 0.0167 0.0289 0.0000 ( 11645 PWs)   bands (ev):

   -77.8129 -49.0137 -49.0118 -48.9881 -24.6574 -24.5805 -21.8648 -20.4693
   -14.0929 -11.4841  -9.5490  -9.2424  -9.2373  -9.2181  -9.1736  -8.8550
    -8.8177  -7.6454  -7.5425  -7.4649  -5.4112  -3.2512  -3.2221  -3.0961
    -3.0834  -0.6124  -0.3065   2.0670   2.1094   2.1763   3.2588   3.3742
     3.4533   3.5109   3.7499

          k = 0.0200 0.0346 0.0000 ( 11645 PWs)   bands (ev):

   -77.8128 -49.0148 -49.0120 -48.9879 -24.6509 -24.5741 -21.8597 -20.4665
   -14.0874 -11.4815  -9.5601  -9.2688  -9.2517  -9.2257  -9.1813  -8.8674
    -8.8143  -7.6623  -7.5498  -7.4497  -5.4153  -3.2575  -3.2155  -3.1053
    -3.0876  -0.5912  -0.2881   2.0822   2.1180   2.1848   3.2117   3.3404
     3.4701   3.5276   3.7903

          k = 0.0233 0.0404 0.0000 ( 11657 PWs)   bands (ev):

   -77.8126 -49.0160 -49.0123 -48.9877 -24.6432 -24.5665 -21.8536 -20.4631
   -14.0810 -11.4785  -9.5751  -9.3057  -9.2625  -9.2326  -9.1906  -8.8817
    -8.8102  -7.6794  -7.5585  -7.4350  -5.4203  -3.2647  -3.2079  -3.1159
    -3.0924  -0.5665  -0.2666   2.0988   2.1279   2.1956   3.1633   3.3026
     3.4900   3.5473   3.8309

          k = 0.0267 0.0462 0.0000 ( 11653 PWs)   bands (ev):

   -77.8124 -49.0175 -49.0126 -48.9874 -24.6343 -24.5578 -21.8466 -20.4593
   -14.0736 -11.4751  -9.5945  -9.3481  -9.2723  -9.2403  -9.2015  -8.8977
    -8.8056  -7.6966  -7.5687  -7.4209  -5.4263  -3.2727  -3.1993  -3.1276
    -3.0980  -0.5387  -0.2424   2.1158   2.1391   2.2094   3.1140   3.2615
     3.5128   3.5700   3.8718

          k = 0.0300 0.0520 0.0000 ( 11645 PWs)   bands (ev):

   -77.8122 -49.0192 -49.0130 -48.9871 -24.6243 -24.5479 -21.8388 -20.4550
   -14.0653 -11.4712  -9.6190  -9.3953  -9.2808  -9.2491  -9.2140  -8.9152
    -8.8003  -7.7138  -7.5803  -7.4075  -5.4332  -3.2813  -3.1899  -3.1402
    -3.1040  -0.5080  -0.2156   2.1321   2.1513   2.2268   3.0642   3.2179
     3.5385   3.5958   3.9129

          k = 0.0333 0.0577 0.0000 ( 11655 PWs)   bands (ev):

   -77.8119 -49.0210 -49.0135 -48.9868 -24.6131 -24.5368 -21.8300 -20.4501
   -14.0561 -11.4670  -9.6489  -9.4470  -9.2875  -9.2590  -9.2281  -8.9340
    -8.7944  -7.7311  -7.5935  -7.3948  -5.4411  -3.2905  -3.1803  -3.1534
    -3.1101  -0.4747  -0.1864   2.1469   2.1638   2.2487   3.0144   3.1724
     3.5671   3.6246   3.9542

          k = 0.0367 0.0635 0.0000 ( 11667 PWs)   bands (ev):

   -77.8117 -49.0230 -49.0139 -48.9864 -24.6007 -24.5246 -21.8203 -20.4448
   -14.0459 -11.4623  -9.6844  -9.5029  -9.2925  -9.2701  -9.2434  -8.9541
    -8.7877  -7.7484  -7.6083  -7.3831  -5.4501  -3.3001  -3.1733  -3.1648
    -3.1158  -0.4389  -0.1551   2.1601   2.1758   2.2750   2.9649   3.1259
     3.5984   3.6565   3.9958

          k = 0.0400 0.0693 0.0000 ( 11667 PWs)   bands (ev):

   -77.8114 -49.0252 -49.0144 -48.9860 -24.5871 -24.5113 -21.8097 -20.4390
   -14.0349 -11.4572  -9.7254  -9.5626  -9.2968  -9.2826  -9.2590  -8.9752
    -8.7804  -7.7656  -7.6246  -7.3723  -5.4602  -3.3101  -3.1836  -3.1615
    -3.1189  -0.4011  -0.1219   2.1716   2.1867   2.3055   2.9165   3.0793
     3.6323   3.6915   4.0378

          k = 0.0433 0.0751 0.0000 ( 11667 PWs)   bands (ev):

   -77.8111 -49.0276 -49.0150 -48.9855 -24.5724 -24.4968 -21.7982 -20.4327
   -14.0229 -11.4517  -9.7716  -9.6259  -9.3036  -9.2965  -9.2718  -8.9973
    -8.7724  -7.7829  -7.6427  -7.3625  -5.4715  -3.3202  -3.1981  -3.1601
    -3.1161  -0.3614  -0.0871   2.1809   2.1963   2.3393   2.8698   3.0335
     3.6686   3.7295   4.0804

          k = 0.0467 0.0808 0.0000 ( 11667 PWs)   bands (ev):

   -77.8107 -49.0302 -49.0156 -48.9851 -24.5566 -24.4812 -21.7859 -20.4260
   -14.0102 -11.4459  -9.8226  -9.6926  -9.3182  -9.3115  -9.2770  -9.0201
    -8.7637  -7.8002  -7.6624  -7.3538  -5.4839  -3.3304  -3.2130  -3.1649
    -3.1065  -0.3201  -0.0508   2.1874   2.2042   2.3758   2.8258   2.9896
     3.7070   3.7705   4.1238

          k = 0.0500 0.0866 0.0000 ( 11663 PWs)   bands (ev):

   -77.8104 -49.0329 -49.0163 -48.9846 -24.5396 -24.4644 -21.7727 -20.4188
   -13.9966 -11.4398  -9.8780  -9.7623  -9.3396  -9.3279  -9.2758  -9.0435
    -8.7542  -7.8174  -7.6838  -7.3461  -5.4975  -3.3405  -3.2280  -3.1737
    -3.0926  -0.2775  -0.0134   2.1905   2.2094   2.4142   2.7855   2.9488
     3.7471   3.8147   4.1682

          k = 0.0533 0.0924 0.0000 ( 11675 PWs)   bands (ev):

   -77.8100 -49.0358 -49.0170 -48.9840 -24.5214 -24.4466 -21.7587 -20.4111
   -13.9821 -11.4333  -9.9374  -9.8347  -9.3649  -9.3458  -9.2712  -9.0675
    -8.7440  -7.8345  -7.7070  -7.3395  -5.5124  -3.3506  -3.2428  -3.1847
    -3.0764  -0.2339   0.0249   2.1895   2.2108   2.4541   2.7505   2.9125
     3.7886   3.8618   4.2138

          k = 0.0567 0.0981 0.0000 ( 11669 PWs)   bands (ev):

   -77.8096 -49.0388 -49.0177 -48.9835 -24.5021 -24.4276 -21.7439 -20.4030
   -13.9670 -11.4266 -10.0005  -9.9098  -9.3928  -9.3652  -9.2646  -9.0920
    -8.7331  -7.8515  -7.7319  -7.3340  -5.5284  -3.3605  -3.2573  -3.1970
    -3.0587  -0.1895   0.0639   2.1838   2.2070   2.4945   2.7221   2.8821
     3.8308   3.9121   4.2609

          k = 0.0600 0.1039 0.0000 ( 11673 PWs)   bands (ev):

   -77.8091 -49.0420 -49.0185 -48.9829 -24.4817 -24.4074 -21.7283 -20.3944
   -13.9510 -11.4196 -10.0668  -9.9871  -9.4231  -9.3861  -9.2567  -9.1168
    -8.7215  -7.8684  -7.7585  -7.3296  -5.5457  -3.3701  -3.2714  -3.2104
    -3.0398  -0.1446   0.1033   2.1726   2.1967   2.5346   2.7019   2.8593
     3.8733   3.9652   4.3100

          k = 0.0633 0.1097 0.0000 ( 11675 PWs)   bands (ev):

   -77.8087 -49.0453 -49.0193 -48.9822 -24.4601 -24.3862 -21.7118 -20.3855
   -13.9344 -11.4125 -10.1361 -10.0665  -9.4556  -9.4085  -9.2477  -9.1418
    -8.7092  -7.8851  -7.7869  -7.3263  -5.5641  -3.3794  -3.2849  -3.2247
    -3.0198  -0.0994   0.1428   2.1557   2.1793   2.5733   2.6905   2.8454
     3.9155   4.0211   4.3614

          k = 0.0667 0.1155 0.0000 ( 11687 PWs)   bands (ev):

   -77.8082 -49.0488 -49.0202 -48.9816 -24.4375 -24.3639 -21.6946 -20.3761
   -13.9171 -11.4052 -10.2080 -10.1478  -9.4901  -9.4324  -9.2386  -9.1664
    -8.6962  -7.9017  -7.8170  -7.3241  -5.5837  -3.3885  -3.2978  -3.2398
    -2.9990  -0.0543   0.1823   2.1329   2.1549   2.6091   2.6882   2.8420
     3.9569   4.0796   4.4154

          k = 0.0700 0.1212 0.0000 ( 11679 PWs)   bands (ev):

   -77.8077 -49.0524 -49.0212 -48.9809 -24.4137 -24.3405 -21.6766 -20.3663
   -13.8992 -11.3978 -10.2823 -10.2305  -9.5265  -9.4579  -9.2314  -9.1886
    -8.6827  -7.9181  -7.8487  -7.3229  -5.6044  -3.3973  -3.3098  -3.2556
    -2.9773  -0.0095   0.2215   2.1046   2.1244   2.6405   2.6944   2.8499
     3.9969   4.1403   4.4725

          k = 0.0733 0.1270 0.0000 ( 11687 PWs)   bands (ev):

   -77.8072 -49.0562 -49.0221 -48.9802 -24.3888 -24.3160 -21.6579 -20.3561
   -13.8807 -11.3904 -10.3587 -10.3146  -9.5648  -9.4850  -9.2361  -9.1984
    -8.6685  -7.9345  -7.8818  -7.3227  -5.6262  -3.4058  -3.3210  -3.2720
    -2.9550   0.0349   0.2601   2.0715   2.0892   2.6671   2.7079   2.8691
     4.0351   4.2029   4.5328

          k = 0.0767 0.1328 0.0000 ( 11691 PWs)   bands (ev):

   -77.8067 -49.0600 -49.0232 -48.9795 -24.3628 -24.2904 -21.6384 -20.3456
   -13.8617 -11.3832 -10.4369 -10.3997  -9.6048  -9.5136  -9.2571  -9.1917
    -8.6538  -7.9514  -7.9157  -7.3236  -5.6490  -3.4143  -3.3311  -3.2890
    -2.9319   0.0784   0.2979   2.0346   2.0506   2.6903   2.7263   2.8980
     4.0711   4.2669   4.5965

          k = 0.0800 0.1386 0.0000 ( 11691 PWs)   bands (ev):

   -77.8062 -49.0640 -49.0242 -48.9787 -24.3358 -24.2637 -21.6183 -20.3346
   -13.8422 -11.3763 -10.5168 -10.4854  -9.6464  -9.5438  -9.2831  -9.1798
    -8.6386  -7.9716  -7.9475  -7.3254  -5.6728  -3.4227  -3.3401  -3.3065
    -2.9083   0.1208   0.3346   1.9950   2.0101   2.7123   2.7481   2.9342
     4.1047   4.3319   4.6637

          k = 0.0833 0.1443 0.0000 ( 11691 PWs)   bands (ev):

   -77.8056 -49.0681 -49.0253 -48.9779 -24.3076 -24.2360 -21.5974 -20.3233
   -13.8223 -11.3700 -10.5980 -10.5714  -9.6897  -9.5755  -9.3107  -9.1662
    -8.6230  -8.0015  -7.9707  -7.3282  -5.6974  -3.4313  -3.3478  -3.3245
    -2.8841   0.1618   0.3701   1.9538   1.9687   2.7342   2.7724   2.9752
     4.1357   4.3972   4.7344

          k = 0.0867 0.1501 0.0000 ( 11679 PWs)   bands (ev):

   -77.8050 -49.0723 -49.0265 -48.9771 -24.2784 -24.2072 -21.5759 -20.3117
   -13.8020 -11.3645 -10.6806 -10.6570  -9.7344  -9.6089  -9.3392  -9.1517
    -8.6070  -8.0391  -7.9871  -7.3319  -5.7228  -3.4401  -3.3542  -3.3426
    -2.8594   0.2012   0.4039   1.9120   1.9273   2.7561   2.7992   3.0193
     4.1641   4.4622   4.8082

          k = 0.0900 0.1559 0.0000 ( 11683 PWs)   bands (ev):

   -77.8044 -49.0766 -49.0277 -48.9763 -24.2482 -24.1774 -21.5538 -20.2998
   -13.7815 -11.3606 -10.7641 -10.7416  -9.7804  -9.6438  -9.3684  -9.1365
    -8.5907  -8.0797  -8.0014  -7.3365  -5.7490  -3.4494  -3.3618  -3.3583
    -2.8344   0.2385   0.4359   1.8705   1.8867   2.7782   2.8284   3.0653
     4.1899   4.5262   4.8850

          k = 0.0933 0.1617 0.0000 ( 11679 PWs)   bands (ev):

   -77.8038 -49.0809 -49.0289 -48.9755 -24.2169 -24.1466 -21.5310 -20.2875
   -13.7607 -11.3592 -10.8483 -10.8243  -9.8278  -9.6803  -9.3982  -9.1208
    -8.5742  -8.1221  -8.0145  -7.3421  -5.7757  -3.4593  -3.3796  -3.3623
    -2.8090   0.2735   0.4656   1.8301   1.8476   2.8004   2.8597   3.1125
     4.2133   4.5886   4.9643

          k = 0.0967 0.1674 0.0000 ( 11675 PWs)   bands (ev):

   -77.8032 -49.0854 -49.0302 -48.9746 -24.1846 -24.1148 -21.5077 -20.2750
   -13.7399 -11.3617 -10.9326 -10.9037  -9.8764  -9.7183  -9.4286  -9.1046
    -8.5577  -8.1659  -8.0267  -7.3484  -5.8030  -3.4702  -3.3975  -3.3644
    -2.7833   0.3058   0.4929   1.7917   1.8105   2.8224   2.8927   3.1604
     4.2343   4.6488   5.0458

          k = 0.1000 0.1732 0.0000 ( 11679 PWs)   bands (ev):

   -77.8026 -49.0899 -49.0316 -48.9737 -24.1513 -24.0819 -21.4838 -20.2622
   -13.7190 -11.3708 -11.0169 -10.9770  -9.9261  -9.7580  -9.4596  -9.0880
    -8.5413  -8.2106  -8.0381  -7.3556  -5.8308  -3.4822  -3.4147  -3.3651
    -2.7574   0.3351   0.5174   1.7560   1.7761   2.8443   2.9272   3.2086
     4.2532   4.7063   5.1289

          k = 0.1033 0.1790 0.0000 ( 11683 PWs)   bands (ev):

   -77.8019 -49.0945 -49.0330 -48.9728 -24.1169 -24.0481 -21.4594 -20.2491
   -13.6982 -11.3904 -11.1010 -11.0403  -9.9769  -9.7991  -9.4910  -9.0712
    -8.5254  -8.2560  -8.0486  -7.3637  -5.8589  -3.4957  -3.4310  -3.3645
    -2.7313   0.3608   0.5388   1.7235   1.7448   2.8657   2.9628   3.2571
     4.2701   4.7610   5.2131

          k = 0.1067 0.1848 0.0000 ( 11687 PWs)   bands (ev):

   -77.8013 -49.0992 -49.0344 -48.9719 -24.0816 -24.0133 -21.4344 -20.2358
   -13.6777 -11.4248 -11.1848 -11.0889 -10.0287  -9.8418  -9.5230  -9.0541
    -8.5106  -8.3013  -8.0583  -7.3725  -5.8873  -3.5108  -3.4459  -3.3627
    -2.7052   0.3828   0.5567   1.6948   1.7172   2.8865   2.9994   3.3057
     4.2854   4.8127   5.2978

          k = 0.1100 0.1905 0.0000 ( 11683 PWs)   bands (ev):

   -77.8006 -49.1039 -49.0359 -48.9710 -24.0453 -23.9776 -21.4090 -20.2222
   -13.6574 -11.4760 -11.2682 -11.1207 -10.0815  -9.8859  -9.5554  -9.0368
    -8.4985  -8.3450  -8.0671  -7.3821  -5.9158  -3.5276  -3.4595  -3.3597
    -2.6791   0.4006   0.5709   1.6704   1.6935   2.9065   3.0368   3.3545
     4.2992   4.8616   5.3826

          k = 0.1133 0.1963 0.0000 ( 11675 PWs)   bands (ev):

   -77.7999 -49.1086 -49.0374 -48.9700 -24.0081 -23.9409 -21.3831 -20.2085
   -13.6377 -11.5416 -11.3509 -11.1381 -10.1351  -9.9316  -9.5882  -9.0193
    -8.4935  -8.3826  -8.0750  -7.3925  -5.9444  -3.5459  -3.4718  -3.3556
    -2.6531   0.4140   0.5812   1.6507   1.6742   2.9253   3.0747   3.4034
     4.3119   4.9080   5.4666

          k = 0.1167 0.2021 0.0000 ( 11675 PWs)   bands (ev):

   -77.7992 -49.1134 -49.0390 -48.9691 -23.9699 -23.9032 -21.3569 -20.1946
   -13.6187 -11.6171 -11.4328 -11.1452 -10.1895  -9.9786  -9.6214  -9.0018
    -8.5055  -8.4042  -8.0818  -7.4036  -5.9729  -3.5653  -3.4832  -3.3506
    -2.6272   0.4228   0.5874   1.6361   1.6595   2.9429   3.1131   3.4526
     4.3238   4.9522   5.5492

          k = 0.1200 0.2078 0.0000 ( 11675 PWs)   bands (ev):

   -77.7985 -49.1182 -49.0406 -48.9681 -23.9308 -23.8647 -21.3302 -20.1805
   -13.6005 -11.6987 -11.5135 -11.1459 -10.2448 -10.0271  -9.6550  -8.9844
    -8.5385  -8.4057  -8.0876  -7.4154  -6.0013  -3.5856  -3.4939  -3.3446
    -2.6015   0.4270   0.5895   1.6265   1.6495   2.9590   3.1517   3.5022
     4.3351   4.9945   5.6296

          k = 0.1233 0.2136 0.0000 ( 11679 PWs)   bands (ev):

   -77.7978 -49.1231 -49.0423 -48.9671 -23.8908 -23.8252 -21.3032 -20.1663
   -13.5833 -11.7841 -11.5928 -11.1426 -10.3007 -10.0769  -9.6888  -8.9671
    -8.5827  -8.3969  -8.0923  -7.4280  -6.0295  -3.6063  -3.5042  -3.3377
    -2.5760   0.4267   0.5876   1.6221   1.6443   2.9736   3.1904   3.5522
     4.3462   5.0353   5.7072

          k = 0.1267 0.2194 0.0000 ( 11671 PWs)   bands (ev):

   -77.7971 -49.1279 -49.0440 -48.9661 -23.8499 -23.7849 -21.2759 -20.1519
   -13.5675 -11.8716 -11.6703 -11.1367 -10.3574 -10.1280  -9.7229  -8.9502
    -8.6310  -8.3848  -8.0958  -7.4413  -6.0574  -3.6274  -3.5141  -3.3300
    -2.5510   0.4220   0.5818   1.6225   1.6436   2.9866   3.2289   3.6027
     4.3575   5.0746   5.7812

          k = 0.1300 0.2252 0.0000 ( 11671 PWs)   bands (ev):

   -77.7964 -49.1328 -49.0457 -48.9651 -23.8081 -23.7438 -21.2482 -20.1375
   -13.5533 -11.9604 -11.7457 -11.1292 -10.4147 -10.1803  -9.7571  -8.9341
    -8.6808  -8.3718  -8.0981  -7.4553  -6.0849  -3.6486  -3.5240  -3.3215
    -2.5263   0.4134   0.5725   1.6275   1.6472   2.9980   3.2671   3.6539
     4.3694   5.1126   5.8507

          k = 0.1333 0.2309 0.0000 ( 11675 PWs)   bands (ev):

   -77.7957 -49.1376 -49.0475 -48.9641 -23.7655 -23.7018 -21.2204 -20.1230
   -13.5410 -12.0498 -11.8187 -11.1205 -10.4726 -10.2337  -9.7915  -8.9195
    -8.7302  -8.3588  -8.0991  -7.4699  -6.1118  -3.6697  -3.5338  -3.3123
    -2.5022   0.4012   0.5600   1.6366   1.6550   3.0078   3.3048   3.7058
     4.3822   5.1491   5.9151

          k = 0.1367 0.2367 0.0000 ( 11663 PWs)   bands (ev):

   -77.7950 -49.1425 -49.0494 -48.9631 -23.7221 -23.6590 -21.1923 -20.1085
   -13.5310 -12.1394 -11.8888 -11.1112 -10.5310 -10.2881  -9.8259  -8.9090
    -8.7765  -8.3464  -8.0987  -7.4852  -6.1381  -3.6907  -3.5437  -3.3025
    -2.4786   0.3860   0.5448   1.6493   1.6665   3.0161   3.3417   3.7585
     4.3963   5.1840   5.9735

          k = 0.1400 0.2425 0.0000 ( 11655 PWs)   bands (ev):

   -77.7942 -49.1473 -49.0513 -48.9621 -23.6779 -23.6154 -21.1641 -20.0939
   -13.5236 -12.2289 -11.9555 -11.1015 -10.5900 -10.3435  -9.8604  -8.9100
    -8.8119  -8.3350  -8.0969  -7.5011  -6.1638  -3.7114  -3.5537  -3.2920
    -2.4556   0.3682   0.5272   1.6650   1.6814   3.0231   3.3776   3.8120
     4.4122   5.2168   6.0253

          k = 0.1433 0.2483 0.0000 ( 11647 PWs)   bands (ev):

   -77.7935 -49.1521 -49.0532 -48.9611 -23.6329 -23.5710 -21.1358 -20.0793
   -13.5192 -12.3181 -12.0186 -11.0918 -10.6495 -10.3996  -9.8948  -8.9346
    -8.8241  -8.3247  -8.0936  -7.5177  -6.1886  -3.7318  -3.5638  -3.2810
    -2.4334   0.3484   0.5077   1.6833   1.6993   3.0289   3.4124   3.8663
     4.4302   5.2472   6.0699

          k = 0.1467 0.2540 0.0000 ( 11643 PWs)   bands (ev):

   -77.7928 -49.1568 -49.0552 -48.9601 -23.5871 -23.5259 -21.1073 -20.0648
   -13.5182 -12.4068 -12.0774 -11.0822 -10.7094 -10.4562  -9.9290  -8.9775
    -8.8184  -8.3159  -8.0889  -7.5349  -6.2126  -3.7517  -3.5742  -3.2695
    -2.4119   0.3269   0.4867   1.7036   1.7197   3.0338   3.4458   3.9215
     4.4507   5.2745   6.1070

          k = 0.1500 0.2598 0.0000 ( 11649 PWs)   bands (ev):

   -77.7921 -49.1615 -49.0572 -48.9590 -23.5406 -23.4801 -21.0788 -20.0503
   -13.5212 -12.4949 -12.1316 -11.0731 -10.7696 -10.5130  -9.9631  -9.0274
    -8.8061  -8.3085  -8.0827  -7.5526  -6.2356  -3.7711  -3.5847  -3.2574
    -2.3913   0.3043   0.4645   1.7255   1.7423   3.0379   3.4777   3.9774
     4.4741   5.2982   6.1362

          k = 0.1533 0.2656 0.0000 ( 11655 PWs)   bands (ev):

   -77.7913 -49.1662 -49.0593 -48.9580 -23.4934 -23.4336 -21.0503 -20.0359
   -13.5283 -12.5822 -12.1807 -11.0651 -10.8302 -10.5697  -9.9969  -9.0797
    -8.7916  -8.3026  -8.0752  -7.5709  -6.2575  -3.7899  -3.5955  -3.2450
    -2.3715   0.2810   0.4415   1.7488   1.7665   3.0416   3.5079   4.0339
     4.5006   5.3177   6.1571

          k = 0.1567 0.2714 0.0000 ( 11647 PWs)   bands (ev):

   -77.7906 -49.1708 -49.0614 -48.9570 -23.4456 -23.3864 -21.0219 -20.0217
   -13.5400 -12.6686 -12.2243 -11.0590 -10.8907 -10.6256 -10.0304  -9.1330
    -8.7763  -8.2984  -8.0665  -7.5896  -6.2784  -3.8080  -3.6066  -3.2321
    -2.3527   0.2572   0.4179   1.7733   1.7919   3.0451   3.5364   4.0910
     4.5305   5.3323   6.1693

          k = 0.1600 0.2771 0.0000 ( 11655 PWs)   bands (ev):

   -77.7899 -49.1754 -49.0635 -48.9560 -23.3971 -23.3387 -20.9935 -20.0075
   -13.5564 -12.7540 -12.2623 -11.0563 -10.9507 -10.6797 -10.0635  -9.1867
    -8.7607  -8.2958  -8.0567  -7.6089  -6.2979  -3.8255  -3.6179  -3.2190
    -2.3349   0.2333   0.3940   1.7986   1.8180   3.0487   3.5632   4.1484
     4.5640   5.3419   6.1698

          k = 0.1633 0.2829 0.0000 ( 11669 PWs)   bands (ev):

   -77.7891 -49.1798 -49.0657 -48.9550 -23.3481 -23.2903 -20.9652 -19.9935
   -13.5777 -12.8383 -12.2945 -11.0618 -11.0071 -10.7303 -10.0962  -9.2404
    -8.7451  -8.2948  -8.0460  -7.6285  -6.3162  -3.8422  -3.6295  -3.2055
    -2.3181   0.2094   0.3700   1.8246   1.8446   3.0527   3.5882   4.2058
     4.6012   5.3463   6.1519

          k = 0.1667 0.2887 0.0000 ( 11653 PWs)   bands (ev):

   -77.7884 -49.1842 -49.0680 -48.9540 -23.2984 -23.2414 -20.9371 -19.9797
   -13.6038 -12.9214 -12.3209 -11.0928 -11.0448 -10.7750 -10.1285  -9.2939
    -8.7297  -8.2954  -8.0345  -7.6485  -6.3331  -3.8582  -3.6413  -3.1917
    -2.3025   0.1859   0.3461   1.8510   1.8713   3.0574   3.6116   4.2630
     4.6420   5.3459   6.1123

          k = 0.1700 0.2944 0.0000 ( 11649 PWs)   bands (ev):

   -77.7877 -49.1885 -49.0703 -48.9530 -23.2482 -23.1919 -20.9093 -19.9661
   -13.6345 -13.0033 -12.3416 -11.1485 -11.0679 -10.8105 -10.1601  -9.3471
    -8.7146  -8.2977  -8.0225  -7.6687  -6.3485  -3.8734  -3.6532  -3.1777
    -2.2879   0.1629   0.3224   1.8775   1.8981   3.0630   3.6335   4.3194
     4.6865   5.3415   6.0590

          k = 0.1733 0.3002 0.0000 ( 11653 PWs)   bands (ev):

   -77.7870 -49.1928 -49.0726 -48.9520 -23.1976 -23.1420 -20.8817 -19.9528
   -13.6694 -13.0838 -12.3571 -11.2095 -11.0982 -10.8344 -10.1912  -9.3998
    -8.6998  -8.3016  -8.0100  -7.6891  -6.3625  -3.8880  -3.6653  -3.1635
    -2.2746   0.1404   0.2990   1.9038   1.9250   3.0700   3.6542   4.3744
     4.7346   5.3342   5.9987

          k = 0.1767 0.3060 0.0000 ( 11661 PWs)   bands (ev):

   -77.7863 -49.1969 -49.0749 -48.9510 -23.1464 -23.0916 -20.8544 -19.9397
   -13.7082 -13.1629 -12.3676 -11.2718 -11.1393 -10.8469 -10.2217  -9.4519
    -8.6854  -8.3073  -7.9974  -7.7096  -6.3748  -3.9018  -3.6774  -3.1491
    -2.2624   0.1187   0.2760   1.9294   1.9519   3.0784   3.6738   4.4273
     4.7860   5.3254   5.9349

          k = 0.1800 0.3118 0.0000 ( 11657 PWs)   bands (ev):

   -77.7856 -49.2009 -49.0773 -48.9500 -23.0949 -23.0408 -20.8274 -19.9270
   -13.7501 -13.2405 -12.3737 -11.3348 -11.1892 -10.8508 -10.2515  -9.5033
    -8.6714  -8.3146  -7.9847  -7.7298  -6.3855  -3.9151  -3.6894  -3.1347
    -2.2514   0.0978   0.2536   1.9537   1.9793   3.0885   3.6925   4.4771
     4.8406   5.3171   5.8696

          k = 0.1833 0.3175 0.0000 ( 11659 PWs)   bands (ev):

   -77.7849 -49.2049 -49.0798 -48.9490 -23.0429 -22.9896 -20.8008 -19.9145
   -13.7949 -13.3165 -12.3759 -11.3980 -11.2452 -10.8491 -10.2806  -9.5537
    -8.6580  -8.3238  -7.9722  -7.7497  -6.3945  -3.9279  -3.7013  -3.1201
    -2.2417   0.0777   0.2318   1.9763   2.0072   3.1005   3.7107   4.5226
     4.8981   5.3109   5.8039

          k = 0.1867 0.3233 0.0000 ( 11647 PWs)   bands (ev):

   -77.7842 -49.2087 -49.0822 -48.9481 -22.9907 -22.9381 -20.7747 -19.9024
   -13.8418 -13.3908 -12.3747 -11.4614 -11.3052 -10.8438 -10.3090  -9.6032
    -8.6453  -8.3348  -7.9603  -7.7687  -6.4019  -3.9402  -3.7128  -3.1054
    -2.2331   0.0585   0.2107   1.9970   2.0356   3.1146   3.7285   4.5625
     4.9582   5.3086   5.7389

          k = 0.1900 0.3291 0.0000 ( 11637 PWs)   bands (ev):

   -77.7835 -49.2123 -49.0848 -48.9471 -22.9381 -22.8863 -20.7491 -19.8907
   -13.8904 -13.4634 -12.3705 -11.5249 -11.3678 -10.8365 -10.3366  -9.6515
    -8.6333  -8.3475  -7.9497  -7.7861  -6.4075  -3.9524  -3.7239  -3.0908
    -2.2258   0.0401   0.1903   2.0159   2.0644   3.1309   3.7461   4.5954
     5.0207   5.3115   5.6760

          k = 0.1933 0.3349 0.0000 ( 11637 PWs)   bands (ev):

   -77.7828 -49.2159 -49.0873 -48.9462 -22.8854 -22.8343 -20.7240 -19.8794
   -13.9402 -13.5342 -12.3640 -11.5883 -11.4322 -10.8280 -10.3634  -9.6985
    -8.6223  -8.3619  -7.9415  -7.8010  -6.4114  -3.9646  -3.7342  -3.0761
    -2.2197   0.0227   0.1707   2.0328   2.0935   3.1494   3.7637   4.6202
     5.0849   5.3197   5.6172

          k = 0.1967 0.3406 0.0000 ( 11639 PWs)   bands (ev):

   -77.7822 -49.2193 -49.0899 -48.9453 -22.8324 -22.7822 -20.6995 -19.8685
   -13.9907 -13.6031 -12.3556 -11.6515 -11.4979 -10.8190 -10.3894  -9.7439
    -8.6124  -8.3780  -7.9371  -7.8117  -6.4135  -3.9769  -3.7436  -3.0615
    -2.2148   0.0061   0.1520   2.0479   2.1227   3.1702   3.7815   4.6366
     5.1502   5.3304   5.5668

          k = 0.2000 0.3464 0.0000 ( 11633 PWs)   bands (ev):

   -77.7815 -49.2226 -49.0925 -48.9444 -22.7793 -22.7299 -20.6756 -19.8581
   -14.0415 -13.6701 -12.3457 -11.7143 -11.5644 -10.8100 -10.4146  -9.7877
    -8.6040  -8.3953  -7.9381  -7.8165  -6.4140  -3.9897  -3.7519  -3.0469
    -2.2110  -0.0097   0.1343   2.0612   2.1521   3.1933   3.7996   4.6448
     5.2149   5.3357   5.5339

          k = 0.2033 0.3522 0.0000 ( 11625 PWs)   bands (ev):

   -77.7809 -49.2258 -49.0952 -48.9435 -22.7261 -22.6775 -20.6523 -19.8481
   -14.0923 -13.7351 -12.3349 -11.7764 -11.6317 -10.8013 -10.4390  -9.8295
    -8.5977  -8.4135  -7.9452  -7.8149  -6.4128  -4.0031  -3.7588  -3.0324
    -2.2084  -0.0247   0.1175   2.0727   2.1814   3.2185   3.8182   4.6458
     5.2709   5.3301   5.5309

          k = 0.2067 0.3580 0.0000 ( 11625 PWs)   bands (ev):

   -77.7803 -49.2288 -49.0979 -48.9426 -22.6729 -22.6251 -20.6298 -19.8386
   -14.1427 -13.7979 -12.3238 -11.8373 -11.6993 -10.7933 -10.4625  -9.8691
    -8.5943  -8.4318  -7.9571  -7.8078  -6.4099  -4.0173  -3.7642  -3.0180
    -2.2069  -0.0389   0.1017   2.0827   2.2107   3.2458   3.8373   4.6410
     5.2679   5.3615   5.5575

          k = 0.2100 0.3637 0.0000 ( 11629 PWs)   bands (ev):

   -77.7797 -49.2316 -49.1006 -48.9418 -22.6198 -22.5728 -20.6080 -19.8297
   -14.1925 -13.8587 -12.3133 -11.8965 -11.7673 -10.7863 -10.4851  -9.9062
    -8.5951  -8.4491  -7.9721  -7.7970  -6.4055  -4.0325  -3.7679  -3.0037
    -2.2064  -0.0526   0.0871   2.0911   2.2398   3.2751   3.8570   4.6317
     5.2254   5.4180   5.6027

          k = 0.2133 0.3695 0.0000 ( 11622 PWs)   bands (ev):

   -77.7791 -49.2344 -49.1033 -48.9409 -22.5668 -22.5206 -20.5870 -19.8212
   -14.2414 -13.9172 -12.3047 -11.9525 -11.8356 -10.7807 -10.5068  -9.9405
    -8.6015  -8.4640  -7.9886  -7.7838  -6.3996  -4.0488  -3.7698  -2.9896
    -2.2069  -0.0656   0.0735   2.0982   2.2688   3.3062   3.8774   4.6193
     5.1760   5.4701   5.6586

          k = 0.2167 0.3753 0.0000 ( 11614 PWs)   bands (ev):

   -77.7785 -49.2369 -49.1061 -48.9401 -22.5139 -22.4686 -20.5667 -19.8133
   -14.2892 -13.9734 -12.3003 -12.0033 -11.9039 -10.7768 -10.5275  -9.9718
    -8.6147  -8.4753  -8.0056  -7.7692  -6.3922  -4.0663  -3.7699  -2.9756
    -2.2084  -0.0781   0.0612   2.1041   2.2974   3.3390   3.8984   4.6048
     5.1256   5.5106   5.7213

          k = 0.2200 0.3811 0.0000 ( 11612 PWs)   bands (ev):

   -77.7779 -49.2393 -49.1089 -48.9393 -22.4613 -22.4168 -20.5473 -19.8060
   -14.3356 -14.0273 -12.3038 -12.0452 -11.9723 -10.7751 -10.5473  -9.9997
    -8.6349  -8.4832  -8.0224  -7.7535  -6.3834  -4.0849  -3.7681  -2.9619
    -2.2107  -0.0902   0.0500   2.1089   2.3257   3.3732   3.9200   4.5890
     5.0762   5.5346   5.7887

          k = 0.2233 0.3868 0.0000 ( 11630 PWs)   bands (ev):

   -77.7773 -49.2415 -49.1118 -48.9386 -22.4090 -22.3653 -20.5288 -19.7992
   -14.3805 -14.0787 -12.3197 -12.0737 -12.0406 -10.7758 -10.5660 -10.0238
    -8.6610  -8.4889  -8.0385  -7.7373  -6.3734  -4.1046  -3.7647  -2.9484
    -2.2139  -0.1019   0.0400   2.1128   2.3535   3.4088   3.9423   4.5725
     5.0290   5.5413   5.8596

          k = 0.2267 0.3926 0.0000 ( 11628 PWs)   bands (ev):

   -77.7768 -49.2436 -49.1146 -48.9378 -22.3571 -22.3142 -20.5112 -19.7929
   -14.4238 -14.1277 -12.3504 -12.1090 -12.0865 -10.7791 -10.5838 -10.0440
    -8.6918  -8.4936  -8.0533  -7.7206  -6.3622  -4.1254  -3.7596  -2.9351
    -2.2178  -0.1131   0.0312   2.1159   2.3808   3.4456   3.9651   4.5558
     4.9847   5.5338   5.9324

          k = 0.2300 0.3984 0.0000 ( 11638 PWs)   bands (ev):

   -77.7763 -49.2455 -49.1175 -48.9371 -22.3056 -22.2636 -20.4945 -19.7872
   -14.4652 -14.1741 -12.3934 -12.1771 -12.0861 -10.7853 -10.6005 -10.0601
    -8.7262  -8.4989  -8.0665  -7.7036  -6.3499  -4.1471  -3.7529  -2.9221
    -2.2225  -0.1241   0.0236   2.1184   2.4074   3.4833   3.9884   4.5390
     4.9440   5.5164   6.0047

          k = 0.2333 0.4041 0.0000 ( 11622 PWs)   bands (ev):

   -77.7758 -49.2473 -49.1204 -48.9364 -22.2547 -22.2136 -20.4787 -19.7821
   -14.5047 -14.2179 -12.4445 -12.2451 -12.0767 -10.7944 -10.6162 -10.0719
    -8.7635  -8.5055  -8.0778  -7.6865  -6.3366  -4.1696  -3.7448  -2.9093
    -2.2277  -0.1347   0.0172   2.1203   2.4333   3.5219   4.0120   4.5224
     4.9073   5.4925   6.0718

          k = 0.2367 0.4099 0.0000 ( 11624 PWs)   bands (ev):

   -77.7753 -49.2488 -49.1234 -48.9357 -22.2044 -22.1641 -20.4639 -19.7775
   -14.5420 -14.2590 -12.5004 -12.3128 -12.0616 -10.8062 -10.6312 -10.0796
    -8.8030  -8.5140  -8.0868  -7.6694  -6.3224  -4.1930  -3.7353  -2.8969
    -2.2336  -0.1449   0.0119   2.1219   2.4582   3.5612   4.0358   4.5061
     4.8751   5.4647   6.1244

          k = 0.2400 0.4157 0.0000 ( 11622 PWs)   bands (ev):

   -77.7748 -49.2502 -49.1263 -48.9350 -22.1548 -22.1154 -20.4500 -19.7735
   -14.5772 -14.2975 -12.5590 -12.3803 -12.0427 -10.8205 -10.6454 -10.0831
    -8.8445  -8.5250  -8.0935  -7.6523  -6.3074  -4.2170  -3.7247  -2.8848
    -2.2399  -0.1548   0.0077   2.1231   2.4821   3.6010   4.0594   4.4904
     4.8477   5.4345   6.1516

          k = 0.2433 0.4215 0.0000 ( 11624 PWs)   bands (ev):

   -77.7743 -49.2515 -49.1293 -48.9344 -22.1061 -22.0674 -20.4370 -19.7700
   -14.6101 -14.3331 -12.6192 -12.4475 -12.0214 -10.8369 -10.6589 -10.0827
    -8.8875  -8.5385  -8.0978  -7.6353  -6.2916  -4.2415  -3.7129  -2.8731
    -2.2466  -0.1643   0.0045   2.1241   2.5047   3.6413   4.0826   4.4757
     4.8252   5.4030   6.1562

          k = 0.2467 0.4272 0.0000 ( 11622 PWs)   bands (ev):

   -77.7739 -49.2525 -49.1323 -48.9337 -22.0582 -22.0203 -20.4250 -19.7670
   -14.6405 -14.3659 -12.6802 -12.5144 -11.9982 -10.8552 -10.6719 -10.0788
    -8.9320  -8.5546  -8.0997  -7.6185  -6.2753  -4.2666  -3.7002  -2.8617
    -2.2538  -0.1733   0.0023   2.1251   2.5260   3.6818   4.1049   4.4625
     4.8076   5.3711   6.1486

          k = 0.2500 0.4330 0.0000 ( 11610 PWs)   bands (ev):

   -77.7735 -49.2534 -49.1353 -48.9332 -22.0113 -21.9742 -20.4140 -19.7646
   -14.6685 -14.3958 -12.7417 -12.5809 -11.9735 -10.8748 -10.6844 -10.0717
    -8.9776  -8.5732  -8.0996  -7.6019  -6.2584  -4.2919  -3.6866  -2.8508
    -2.2612  -0.1820   0.0010   2.1260   2.5457   3.7227   4.1258   4.4517
     4.7947   5.3393   6.1350

          k = 0.2533 0.4388 0.0000 ( 11600 PWs)   bands (ev):

   -77.7731 -49.2541 -49.1383 -48.9326 -21.9654 -21.9292 -20.4039 -19.7626
   -14.6939 -14.4228 -12.8034 -12.6469 -11.9475 -10.8955 -10.6963 -10.0618
    -9.0242  -8.5940  -8.0975  -7.5856  -6.2411  -4.3176  -3.6722  -2.8403
    -2.2688  -0.1902   0.0006   2.1269   2.5637   3.7637   4.1446   4.4441
     4.7861   5.3082   6.1181

          k = 0.2567 0.4446 0.0000 ( 11586 PWs)   bands (ev):

   -77.7727 -49.2546 -49.1414 -48.9320 -21.9208 -21.8852 -20.3946 -19.7610
   -14.7167 -14.4468 -12.8650 -12.7126 -11.9205 -10.9168 -10.7076 -10.0495
    -9.0715  -8.6169  -8.0938  -7.5697  -6.2234  -4.3434  -3.6571  -2.8303
    -2.2766  -0.1978   0.0010   2.1280   2.5798   3.8047   4.1607   4.4408
     4.7812   5.2783   6.0990

          k = 0.2600 0.4503 0.0000 ( 11588 PWs)   bands (ev):

   -77.7723 -49.2550 -49.1444 -48.9315 -21.8774 -21.8425 -20.3863 -19.7599
   -14.7368 -14.4679 -12.9265 -12.7778 -11.8927 -10.9386 -10.7183 -10.0351
    -9.1194  -8.6415  -8.0889  -7.5541  -6.2055  -4.3693  -3.6415  -2.8208
    -2.2845  -0.2050   0.0021   2.1292   2.5939   3.8459   4.1735   4.4427
     4.7794   5.2500   6.0782

          k = 0.2633 0.4561 0.0000 ( 11578 PWs)   bands (ev):

   -77.7719 -49.2552 -49.1474 -48.9310 -21.8354 -21.8011 -20.3788 -19.7591
   -14.7541 -14.4858 -12.9877 -12.8425 -11.8640 -10.9605 -10.7281 -10.0192
    -9.1677  -8.6677  -8.0828  -7.5390  -6.1874  -4.3951  -3.6253  -2.8119
    -2.2925  -0.2116   0.0039   2.1305   2.6058   3.8870   4.1829   4.4504
     4.7801   5.2237   6.0558

          k = 0.2667 0.4619 0.0000 ( 11574 PWs)   bands (ev):

   -77.7716 -49.2553 -49.1505 -48.9306 -21.7948 -21.7612 -20.3722 -19.7587
   -14.7686 -14.5007 -13.0485 -12.9067 -11.8346 -10.9823 -10.7370 -10.0022
    -9.2160  -8.6951  -8.0761  -7.5244  -6.1693  -4.4209  -3.6087  -2.8035
    -2.3003  -0.2176   0.0064   2.1320   2.6154   3.9282   4.1893   4.4636
     4.7823   5.2001   6.0322

          k = 0.2700 0.4677 0.0000 ( 11570 PWs)   bands (ev):

   -77.7713 -49.2551 -49.1535 -48.9301 -21.7559 -21.7227 -20.3663 -19.7585
   -14.7804 -14.5124 -13.1089 -12.9704 -11.8048 -11.0038 -10.7449  -9.9845
    -9.2641  -8.7236  -8.0688  -7.5103  -6.1512  -4.4464  -3.5919  -2.7958
    -2.3081  -0.2231   0.0096   2.1337   2.6227   3.9693   4.1933   4.4818
     4.7855   5.1796   6.0073

          k = 0.2733 0.4734 0.0000 ( 11570 PWs)   bands (ev):

   -77.7710 -49.2548 -49.1566 -48.9297 -21.7185 -21.6858 -20.3612 -19.7586
   -14.7893 -14.5210 -13.1687 -13.0334 -11.7745 -11.0249 -10.7516  -9.9666
    -9.3115  -8.7530  -8.0611  -7.4967  -6.1332  -4.4715  -3.5748  -2.7888
    -2.3156  -0.2279   0.0132   2.1356   2.6276   4.0104   4.1960   4.5042
     4.7888   5.1626   5.9810

          k = 0.2767 0.4792 0.0000 ( 11578 PWs)   bands (ev):

   -77.7707 -49.2544 -49.1596 -48.9293 -21.6829 -21.6505 -20.3567 -19.7590
   -14.7953 -14.5265 -13.2279 -13.0959 -11.7440 -11.0454 -10.7569  -9.9492
    -9.3577  -8.7831  -8.0533  -7.4838  -6.1154  -4.4962  -3.5575  -2.7825
    -2.3229  -0.2321   0.0174   2.1376   2.6302   4.0514   4.1981   4.5298
     4.7917   5.1495   5.9535

          k = 0.2800 0.4850 0.0000 ( 11580 PWs)   bands (ev):

   -77.7704 -49.2538 -49.1626 -48.9289 -21.6492 -21.6170 -20.3529 -19.7595
   -14.7985 -14.5288 -13.2863 -13.1577 -11.7133 -11.0653 -10.7607  -9.9331
    -9.4018  -8.8138  -8.0455  -7.4715  -6.0978  -4.5204  -3.5403  -2.7770
    -2.3299  -0.2357   0.0221   2.1398   2.6305   4.0923   4.2004   4.5581
     4.7938   5.1405   5.9247

          k = 0.2833 0.4907 0.0000 ( 11576 PWs)   bands (ev):

   -77.7702 -49.2530 -49.1657 -48.9286 -21.6173 -21.5853 -20.3496 -19.7601
   -14.7989 -14.5279 -13.3439 -13.2188 -11.6829 -11.0843 -10.7627  -9.9195
    -9.4430  -8.8448  -8.0378  -7.4598  -6.0807  -4.5439  -3.5231  -2.7723
    -2.3364  -0.2386   0.0272   2.1421   2.6287   4.1329   4.2033   4.5884
     4.7949   5.1354   5.8945

          k = 0.2867 0.4965 0.0000 ( 11580 PWs)   bands (ev):

   -77.7700 -49.2522 -49.1686 -48.9283 -21.5875 -21.5555 -20.3469 -19.7609
   -14.7966 -14.5239 -13.4006 -13.2792 -11.6527 -11.1024 -10.7627  -9.9099
    -9.4795  -8.8762  -8.0303  -7.4488  -6.0641  -4.5666  -3.5061  -2.7684
    -2.3425  -0.2408   0.0326   2.1444   2.6250   4.1723   4.2078   4.6203
     4.7951   5.1340   5.8629

          k = 0.2900 0.5023 0.0000 ( 11588 PWs)   bands (ev):

   -77.7697 -49.2511 -49.1716 -48.9280 -21.5597 -21.5277 -20.3446 -19.7616
   -14.7916 -14.5168 -13.4562 -13.3389 -11.6233 -11.1196 -10.7604  -9.9063
    -9.5097  -8.9077  -8.0232  -7.4386  -6.0480  -4.5884  -3.4894  -2.7653
    -2.3481  -0.2424   0.0384   2.1466   2.6195   4.2016   4.2229   4.6536
     4.7948   5.1355   5.8297

          k = 0.2933 0.5081 0.0000 ( 11592 PWs)   bands (ev):

   -77.7696 -49.2500 -49.1745 -48.9277 -21.5339 -21.5019 -20.3427 -19.7624
   -14.7840 -14.5066 -13.5106 -13.3977 -11.5947 -11.1358 -10.7556  -9.9105
    -9.5316  -8.9393  -8.0165  -7.4290  -6.0326  -4.6091  -3.4732  -2.7630
    -2.3531  -0.2434   0.0444   2.1488   2.6126   4.2098   4.2592   4.6880
     4.7944   5.1392   5.7950

          k = 0.2967 0.5138 0.0000 ( 11584 PWs)   bands (ev):

   -77.7694 -49.2487 -49.1774 -48.9274 -21.5104 -21.4781 -20.3411 -19.7632
   -14.7739 -14.4933 -13.5636 -13.4556 -11.5673 -11.1510 -10.7479  -9.9240
    -9.5438  -8.9708  -8.0103  -7.4202  -6.0180  -4.6288  -3.4575  -2.7615
    -2.3576  -0.2437   0.0505   2.1509   2.6045   4.2146   4.2990   4.7234
     4.7943   5.1443   5.7586

          k = 0.3000 0.5196 0.0000 ( 11586 PWs)   bands (ev):

   -77.7692 -49.2474 -49.1802 -48.9272 -21.4890 -21.4565 -20.3399 -19.7639
   -14.7616 -14.4771 -13.6151 -13.5125 -11.5415 -11.1651 -10.7371  -9.9468
    -9.5464  -9.0021  -8.0046  -7.4122  -6.0043  -4.6471  -3.4424  -2.7608
    -2.3614  -0.2434   0.0567   2.1527   2.5954   4.2188   4.3391   4.7596
     4.7948   5.1500   5.7206

          k = 0.3033 0.5254 0.0000 ( 11588 PWs)   bands (ev):

   -77.7691 -49.2459 -49.1830 -48.9270 -21.4697 -21.4369 -20.3388 -19.7646
   -14.7472 -14.4580 -13.6648 -13.5683 -11.5176 -11.1780 -10.7230  -9.9776
    -9.5407  -9.0332  -7.9995  -7.4050  -5.9915  -4.6641  -3.4282  -2.7606
    -2.3647  -0.2426   0.0629   2.1543   2.5858   4.2227   4.3791   4.7949
     4.7977   5.1559   5.6807

          k = 0.3067 0.5312 0.0000 ( 11592 PWs)   bands (ev):

   -77.7689 -49.2444 -49.1857 -48.9269 -21.4527 -21.4196 -20.3380 -19.7651
   -14.7312 -14.4362 -13.7124 -13.6228 -11.4958 -11.1899 -10.7052 -10.0145
    -9.5287  -9.0638  -7.9949  -7.3985  -5.9798  -4.6796  -3.4150  -2.7611
    -2.3674  -0.2413   0.0689   2.1556   2.5760   4.2263   4.4187   4.7975
     4.8344   5.1614   5.6389

          k = 0.3100 0.5369 0.0000 ( 11596 PWs)   bands (ev):

   -77.7688 -49.2429 -49.1882 -48.9267 -21.4378 -21.4044 -20.3373 -19.7656
   -14.7138 -14.4120 -13.7574 -13.6758 -11.4763 -11.2005 -10.6838 -10.0556
    -9.5121  -9.0938  -7.9909  -7.3928  -5.9693  -4.6935  -3.4029  -2.7619
    -2.3696  -0.2396   0.0748   2.1565   2.5662   4.2295   4.4578   4.7991
     4.8727   5.1666   5.5951

          k = 0.3133 0.5427 0.0000 ( 11590 PWs)   bands (ev):

   -77.7687 -49.2414 -49.1906 -48.9266 -21.4252 -21.3914 -20.3367 -19.7660
   -14.6957 -14.3856 -13.7994 -13.7269 -11.4595 -11.2098 -10.6587 -10.0995
    -9.4928  -9.1230  -7.9876  -7.3879  -5.9601  -4.7057  -3.3920  -2.7631
    -2.3713  -0.2376   0.0803   2.1571   2.5568   4.2323   4.4963   4.7997
     4.9116   5.1715   5.5494

          k = 0.3167 0.5485 0.0000 ( 11592 PWs)   bands (ev):

   -77.7687 -49.2399 -49.1928 -48.9265 -21.4146 -21.3806 -20.3363 -19.7662
   -14.6776 -14.3577 -13.8378 -13.7756 -11.4453 -11.2179 -10.6301 -10.1449
    -9.4718  -9.1511  -7.9848  -7.3838  -5.9521  -4.7161  -3.3825  -2.7644
    -2.3726  -0.2353   0.0853   2.1573   2.5481   4.2348   4.5339   4.7982
     4.9511   5.1767   5.5017

          k = 0.3200 0.5543 0.0000 ( 11606 PWs)   bands (ev):

   -77.7686 -49.2385 -49.1948 -48.9264 -21.4061 -21.3719 -20.3359 -19.7664
   -14.6602 -14.3291 -13.8719 -13.8210 -11.4339 -11.2246 -10.5984 -10.1906
    -9.4503  -9.1776  -7.9826  -7.3805  -5.9456  -4.7247  -3.3746  -2.7657
    -2.3735  -0.2331   0.0897   2.1572   2.5404   4.2371   4.5704   4.7934
     4.9910   5.1824   5.4524

          k = 0.3233 0.5600 0.0000 ( 11606 PWs)   bands (ev):

   -77.7685 -49.2373 -49.1964 -48.9263 -21.3996 -21.3652 -20.3356 -19.7665
   -14.6446 -14.3011 -13.9009 -13.8613 -11.4252 -11.2298 -10.5647 -10.2356
    -9.4298  -9.2016  -7.9809  -7.3780  -5.9405  -4.7314  -3.3683  -2.7669
    -2.3742  -0.2309   0.0933   2.1569   2.5340   4.2391   4.6056   4.7840
     5.0313   5.1889   5.4021

          k = 0.3267 0.5658 0.0000 ( 11590 PWs)   bands (ev):

   -77.7685 -49.2363 -49.1977 -48.9263 -21.3951 -21.3605 -20.3353 -19.7665
   -14.6321 -14.2762 -13.9242 -13.8937 -11.4192 -11.2335 -10.5307 -10.2775
    -9.4118  -9.2218  -7.9798  -7.3762  -5.9368  -4.7362  -3.3637  -2.7679
    -2.3746  -0.2291   0.0961   2.1565   2.5291   4.2408   4.6388   4.7697
     5.0715   5.1945   5.3537

          k = 0.3300 0.5716 0.0000 ( 11594 PWs)   bands (ev):

   -77.7685 -49.2357 -49.1985 -48.9262 -21.3924 -21.3578 -20.3352 -19.7666
   -14.6238 -14.2580 -13.9406 -13.9146 -11.4158 -11.2357 -10.5016 -10.3113
    -9.3989  -9.2359  -7.9791  -7.3751  -5.9346  -4.7390  -3.3609  -2.7685
    -2.3748  -0.2278   0.0979   2.1561   2.5260   4.2421   4.6680   4.7517
     5.1104   5.1927   5.3149

          k = 0.3333 0.5774 0.0000 ( 11592 PWs)   bands (ev):

   -77.7685 -49.2355 -49.1988 -48.9262 -21.3916 -21.3569 -20.3351 -19.7665
   -14.6209 -14.2511 -13.9470 -13.9217 -11.4147 -11.2365 -10.4886 -10.3259
    -9.3941  -9.2410  -7.9789  -7.3748  -5.9339  -4.7399  -3.3600  -2.7687
    -2.3748  -0.2273   0.0985   2.1559   2.5249   4.2427   4.6834   4.7399
     5.1359   5.1811   5.3006

          k = 0.3361 0.5725 0.0000 ( 11590 PWs)   bands (ev):

   -77.7685 -49.2357 -49.1986 -48.9262 -21.3921 -21.3575 -20.3352 -19.7666
   -14.6230 -14.2561 -13.9423 -13.9168 -11.4154 -11.2360 -10.4983 -10.3151
    -9.3974  -9.2375  -7.9790  -7.3750  -5.9344  -4.7393  -3.3606  -2.7686
    -2.3748  -0.2277   0.0981   2.1561   2.5257   4.2421   4.6713   4.7497
     5.1106   5.1993   5.3079

          k = 0.3389 0.5677 0.0000 ( 11588 PWs)   bands (ev):

   -77.7685 -49.2361 -49.1980 -48.9262 -21.3939 -21.3592 -20.3353 -19.7666
   -14.6295 -14.2706 -13.9291 -13.9016 -11.4174 -11.2346 -10.5227 -10.2876
    -9.4062  -9.2280  -7.9794  -7.3757  -5.9359  -4.7374  -3.3626  -2.7681
    -2.3747  -0.2290   0.0966   2.1567   2.5282   4.2401   4.6454   4.7693
     5.0623   5.2310   5.3251

          k = 0.3417 0.5629 0.0000 ( 11592 PWs)   bands (ev):

   -77.7685 -49.2369 -49.1971 -48.9263 -21.3966 -21.3621 -20.3355 -19.7667
   -14.6402 -14.2924 -13.9095 -13.8766 -11.4206 -11.2324 -10.5545 -10.2508
    -9.4188  -9.2143  -7.9800  -7.3768  -5.9382  -4.7343  -3.3657  -2.7672
    -2.3746  -0.2314   0.0940   2.1579   2.5323   4.2359   4.6146   4.7906
     5.0068   5.2647   5.3477

          k = 0.3444 0.5581 0.0000 ( 11588 PWs)   bands (ev):

   -77.7686 -49.2379 -49.1958 -48.9263 -21.4004 -21.3660 -20.3359 -19.7668
   -14.6548 -14.3192 -13.8846 -13.8432 -11.4247 -11.2295 -10.5895 -10.2088
    -9.4336  -9.1980  -7.9809  -7.3784  -5.9415  -4.7300  -3.3701  -2.7661
    -2.3745  -0.2351   0.0903   2.1600   2.5383   4.2282   4.5825   4.8110
     4.9479   5.2990   5.3738

          k = 0.3472 0.5533 0.0000 ( 11592 PWs)   bands (ev):

   -77.7686 -49.2392 -49.1942 -48.9264 -21.4051 -21.3709 -20.3364 -19.7670
   -14.6727 -14.3492 -13.8547 -13.8036 -11.4297 -11.2260 -10.6259 -10.1637
    -9.4494  -9.1802  -7.9819  -7.3804  -5.9456  -4.7246  -3.3756  -2.7647
    -2.3744  -0.2402   0.0852   2.1629   2.5462   4.2157   4.5515   4.8254
     4.8911   5.3335   5.4024

          k = 0.3500 0.5485 0.0000 ( 11588 PWs)   bands (ev):

   -77.7686 -49.2406 -49.1923 -48.9264 -21.4108 -21.3767 -20.3370 -19.7673
   -14.6935 -14.3812 -13.8202 -13.7594 -11.4355 -11.2219 -10.6627 -10.1165
    -9.4655  -9.1616  -7.9830  -7.3828  -5.9505  -4.7181  -3.3822  -2.7629
    -2.3744  -0.2469   0.0788   2.1671   2.5560   4.1966   4.5238   4.8007
     4.8702   5.3680   5.4326

          k = 0.3528 0.5437 0.0000 ( 11592 PWs)   bands (ev):

   -77.7687 -49.2422 -49.1902 -48.9265 -21.4172 -21.3833 -20.3377 -19.7677
   -14.7166 -14.4144 -13.7815 -13.7116 -11.4418 -11.2174 -10.6995 -10.0678
    -9.4815  -9.1426  -7.9843  -7.3855  -5.9562  -4.7107  -3.3898  -2.7610
    -2.3744  -0.2554   0.0708   2.1725   2.5678   4.1696   4.5012   4.7382
     4.8839   5.4025   5.4640

          k = 0.3556 0.5389 0.0000 ( 11588 PWs)   bands (ev):

   -77.7688 -49.2438 -49.1880 -48.9266 -21.4245 -21.3907 -20.3387 -19.7682
   -14.7415 -14.4482 -13.7389 -13.6609 -11.4488 -11.2126 -10.7359 -10.0181
    -9.4970  -9.1234  -7.9857  -7.3886  -5.9625  -4.7024  -3.3984  -2.7588
    -2.3744  -0.2658   0.0612   2.1795   2.5816   4.1341   4.4846   4.6691
     4.9018   5.4369   5.4963

          k = 0.3583 0.5340 0.0000 ( 11590 PWs)   bands (ev):

   -77.7688 -49.2456 -49.1856 -48.9267 -21.4324 -21.3988 -20.3398 -19.7688
   -14.7678 -14.4823 -13.6930 -13.6077 -11.4561 -11.2075 -10.7717  -9.9679
    -9.5116  -9.1043  -7.9872  -7.3920  -5.9694  -4.6933  -3.4078  -2.7564
    -2.3746  -0.2782   0.0498   2.1882   2.5974   4.0906   4.4734   4.5978
     4.9200   5.4712   5.5290

          k = 0.3611 0.5292 0.0000 ( 11590 PWs)   bands (ev):

   -77.7689 -49.2474 -49.1831 -48.9268 -21.4410 -21.4076 -20.3410 -19.7696
   -14.7952 -14.5164 -13.6442 -13.5524 -11.4639 -11.2023 -10.8067  -9.9176
    -9.5249  -9.0854  -7.9888  -7.3957  -5.9768  -4.6834  -3.4181  -2.7539
    -2.3748  -0.2928   0.0365   2.1987   2.6152   4.0402   4.4647   4.5273
     4.9378   5.5053   5.5619

          k = 0.3639 0.5244 0.0000 ( 11594 PWs)   bands (ev):

   -77.7690 -49.2493 -49.1805 -48.9269 -21.4502 -21.4170 -20.3425 -19.7705
   -14.8233 -14.5504 -13.5928 -13.4951 -11.4720 -11.1971 -10.8407  -9.8678
    -9.5364  -9.0666  -7.9903  -7.3997  -5.9847  -4.6728  -3.4291  -2.7511
    -2.3751  -0.3095   0.0212   2.2112   2.6349   3.9845   4.4340   4.4812
     4.9552   5.5390   5.5948

          k = 0.3667 0.5196 0.0000 ( 11590 PWs)   bands (ev):

   -77.7691 -49.2512 -49.1778 -48.9270 -21.4599 -21.4269 -20.3441 -19.7715
   -14.8519 -14.5841 -13.5391 -13.4362 -11.4804 -11.1920 -10.8734  -9.8197
    -9.5453  -9.0480  -7.9920  -7.4040  -5.9931  -4.6617  -3.4408  -2.7483
    -2.3756  -0.3285   0.0038   2.2258   2.6566   3.9246   4.3642   4.4763
     4.9720   5.5723   5.6275

          k = 0.3694 0.5148 0.0000 ( 11576 PWs)   bands (ev):

   -77.7691 -49.2532 -49.1750 -48.9271 -21.4701 -21.4373 -20.3460 -19.7727
   -14.8809 -14.6175 -13.4833 -13.3758 -11.4890 -11.1874 -10.9046  -9.7748
    -9.5500  -9.0295  -7.9936  -7.4086  -6.0018  -4.6500  -3.4530  -2.7453
    -2.3762  -0.3498  -0.0159   2.2425   2.6801   3.8618   4.2880   4.4790
     4.9884   5.6049   5.6600

          k = 0.3722 0.5100 0.0000 ( 11586 PWs)   bands (ev):

   -77.7692 -49.2551 -49.1722 -48.9273 -21.4808 -21.4482 -20.3480 -19.7740
   -14.9101 -14.6505 -13.4259 -13.3139 -11.4979 -11.1834 -10.9340  -9.7360
    -9.5477  -9.0111  -7.9952  -7.4134  -6.0108  -4.6379  -3.4659  -2.7421
    -2.3771  -0.3734  -0.0380   2.2613   2.7054   3.7969   4.2105   4.4842
     5.0042   5.6367   5.6920

          k = 0.3750 0.5052 0.0000 ( 11582 PWs)   bands (ev):

   -77.7693 -49.2571 -49.1693 -48.9274 -21.4919 -21.4594 -20.3502 -19.7755
   -14.9392 -14.6831 -13.3669 -13.2509 -11.5069 -11.1806 -10.9612  -9.7072
    -9.5349  -8.9927  -7.9969  -7.4184  -6.0201  -4.6253  -3.4792  -2.7388
    -2.3781  -0.3993  -0.0625   2.2823   2.7324   3.7307   4.1323   4.4908
     5.0196   5.6674   5.7235

          k = 0.3778 0.5004 0.0000 ( 11574 PWs)   bands (ev):

   -77.7694 -49.2590 -49.1664 -48.9275 -21.5032 -21.4709 -20.3526 -19.7772
   -14.9683 -14.7151 -13.3066 -13.1867 -11.5161 -11.1793 -10.9855  -9.6906
    -9.5096  -8.9740  -7.9985  -7.4237  -6.0296  -4.6125  -3.4929  -2.7353
    -2.3794  -0.4274  -0.0894   2.3053   2.7610   3.6639   4.0541   4.4984
     5.0346   5.6968   5.7545

          k = 0.3806 0.4956 0.0000 ( 11570 PWs)   bands (ev):

   -77.7696 -49.2610 -49.1634 -48.9277 -21.5149 -21.4827 -20.3552 -19.7790
   -14.9973 -14.7466 -13.2453 -13.1216 -11.5253 -11.1803 -11.0063  -9.6839
    -9.4742  -8.9550  -8.0002  -7.4292  -6.0392  -4.5994  -3.5070  -2.7316
    -2.3809  -0.4578  -0.1189   2.3301   2.7911   3.5970   3.9760   4.5067
     5.0491   5.7246   5.7850

          k = 0.3833 0.4907 0.0000 ( 11574 PWs)   bands (ev):

   -77.7697 -49.2629 -49.1605 -48.9279 -21.5268 -21.4948 -20.3579 -19.7809
   -15.0260 -14.7776 -13.1830 -13.0556 -11.5346 -11.1843 -11.0229  -9.6833
    -9.4330  -8.9353  -8.0018  -7.4348  -6.0490  -4.5861  -3.5215  -2.7277
    -2.3828  -0.4905  -0.1508   2.3563   2.8225   3.5308   3.8983   4.5156
     5.0633   5.7506   5.8150

          k = 0.3861 0.4859 0.0000 ( 11580 PWs)   bands (ev):

   -77.7698 -49.2648 -49.1575 -48.9280 -21.5389 -21.5070 -20.3608 -19.7830
   -15.0544 -14.8080 -13.1201 -12.9889 -11.5438 -11.1916 -11.0348  -9.6856
    -9.3895  -8.9145  -8.0035  -7.4407  -6.0589  -4.5727  -3.5362  -2.7236
    -2.3850  -0.5252  -0.1852   2.3837   2.8550   3.4660   3.8215   4.5248
     5.0771   5.7744   5.8444

          k = 0.3889 0.4811 0.0000 ( 11578 PWs)   bands (ev):

   -77.7699 -49.2667 -49.1545 -48.9282 -21.5512 -21.5194 -20.3639 -19.7853
   -15.0824 -14.8378 -13.0566 -12.9216 -11.5530 -11.2021 -11.0421  -9.6892
    -9.3460  -8.8923  -8.0051  -7.4467  -6.0687  -4.5592  -3.5513  -2.7193
    -2.3875  -0.5621  -0.2220   2.4115   2.8885   3.4032   3.7457   4.5343
     5.0905   5.7959   5.8732

          k = 0.3917 0.4763 0.0000 ( 11570 PWs)   bands (ev):

   -77.7700 -49.2686 -49.1515 -48.9283 -21.5636 -21.5318 -20.3671 -19.7876
   -15.1101 -14.8670 -12.9930 -12.8539 -11.5619 -11.2152 -11.0454  -9.6930
    -9.3037  -8.8682  -8.0068  -7.4529  -6.0787  -4.5456  -3.5665  -2.7146
    -2.3905  -0.6009  -0.2611   2.4389   2.9227   3.3436   3.6713   4.5442
     5.1037   5.8149   5.9013

          k = 0.3944 0.4715 0.0000 ( 11578 PWs)   bands (ev):

   -77.7701 -49.2704 -49.1485 -48.9285 -21.5760 -21.5444 -20.3705 -19.7901
   -15.1373 -14.8955 -12.9293 -12.7860 -11.5705 -11.2299 -11.0458  -9.6967
    -9.2637  -8.8417  -8.0084  -7.4593  -6.0886  -4.5321  -3.5819  -2.7097
    -2.3939  -0.6417  -0.3024   2.4648   2.9572   3.2884   3.5988   4.5543
     5.1165   5.8312   5.9288

          k = 0.3972 0.4667 0.0000 ( 11578 PWs)   bands (ev):

   -77.7703 -49.2722 -49.1455 -48.9287 -21.5885 -21.5570 -20.3740 -19.7928
   -15.1640 -14.9234 -12.8658 -12.7179 -11.5785 -11.2451 -11.0441  -9.6999
    -9.2268  -8.8124  -8.0101  -7.4658  -6.0984  -4.5186  -3.5975  -2.7045
    -2.3977  -0.6843  -0.3457   2.4876   2.9914   3.2390   3.5288   4.5647
     5.1291   5.8448   5.9553

          k = 0.4000 0.4619 0.0000 ( 11590 PWs)   bands (ev):

   -77.7704 -49.2740 -49.1426 -48.9289 -21.6010 -21.5696 -20.3776 -19.7955
   -15.1902 -14.9507 -12.8029 -12.6499 -11.5859 -11.2603 -11.0410  -9.7025
    -9.1936  -8.7800  -8.0118  -7.4725  -6.1082  -4.5051  -3.6132  -2.6991
    -2.4019  -0.7288  -0.3909   2.5054   3.0245   3.1974   3.4624   4.5754
     5.1414   5.8554   5.9810

          k = 0.4028 0.4571 0.0000 ( 11586 PWs)   bands (ev):

   -77.7705 -49.2758 -49.1396 -48.9290 -21.6135 -21.5821 -20.3813 -19.7983
   -15.2158 -14.9773 -12.7409 -12.5822 -11.5923 -11.2748 -11.0370  -9.7043
    -9.1642  -8.7444  -8.0135  -7.4794  -6.1179  -4.4919  -3.6290  -2.6933
    -2.4066  -0.7749  -0.4378   2.5159   3.0546   3.1656   3.4015   4.5864
     5.1534   5.8631   6.0057

          k = 0.4056 0.4523 0.0000 ( 11574 PWs)   bands (ev):

   -77.7706 -49.2775 -49.1367 -48.9292 -21.6260 -21.5946 -20.3851 -19.8012
   -15.2409 -15.0032 -12.6801 -12.5150 -11.5974 -11.2882 -11.0324  -9.7053
    -9.1387  -8.7058  -8.0153  -7.4864  -6.1276  -4.4787  -3.6449  -2.6874
    -2.4117  -0.8225  -0.4862   2.5171   3.0778   3.1454   3.3502   4.5978
     5.1653   5.8679   6.0294

          k = 0.4083 0.4474 0.0000 ( 11574 PWs)   bands (ev):

   -77.7708 -49.2792 -49.1338 -48.9294 -21.6383 -21.6070 -20.3889 -19.8042
   -15.2655 -15.0284 -12.6209 -12.4486 -11.6008 -11.3003 -11.0274  -9.7054
    -9.1169  -8.6644  -8.0170  -7.4935  -6.1371  -4.4658  -3.6609  -2.6813
    -2.4173  -0.8717  -0.5358   2.5078   3.0858   3.1388   3.3160   4.6097
     5.1769   5.8698   6.0520

          k = 0.4111 0.4426 0.0000 ( 11586 PWs)   bands (ev):

   -77.7709 -49.2808 -49.1310 -48.9296 -21.6505 -21.6192 -20.3929 -19.8072
   -15.2894 -15.0530 -12.5639 -12.3833 -11.6021 -11.3108 -11.0222  -9.7046
    -9.0985  -8.6207  -8.0188  -7.5007  -6.1465  -4.4531  -3.6768  -2.6750
    -2.4232  -0.9222  -0.5865   2.4880   3.0698   3.1464   3.3070   4.6221
     5.1885   5.8689   6.0734

          k = 0.4139 0.4378 0.0000 ( 11590 PWs)   bands (ev):

   -77.7710 -49.2824 -49.1281 -48.9297 -21.6626 -21.6314 -20.3968 -19.8103
   -15.3127 -15.0768 -12.5095 -12.3195 -11.6006 -11.3194 -11.0170  -9.7030
    -9.0829  -8.5752  -8.0205  -7.5081  -6.1558  -4.4406  -3.6928  -2.6689
    -2.4293  -0.9740  -0.6380   2.4591   3.0335   3.1649   3.3212   4.6351
     5.1998   5.8652   6.0936

          k = 0.4167 0.4330 0.0000 ( 11592 PWs)   bands (ev):

   -77.7712 -49.2840 -49.1254 -48.9299 -21.6746 -21.6433 -20.4009 -19.8135
   -15.3354 -15.1000 -12.4584 -12.2575 -11.5959 -11.3260 -11.0117  -9.7004
    -9.0699  -8.5285  -8.0221  -7.5155  -6.1650  -4.4284  -3.7087  -2.6629
    -2.4356  -1.0269  -0.6900   2.4231   2.9864   3.1916   3.3494   4.6488
     5.2112   5.8590   6.1127

          k = 0.4194 0.4282 0.0000 ( 11586 PWs)   bands (ev):

   -77.7713 -49.2855 -49.1227 -48.9301 -21.6863 -21.6551 -20.4049 -19.8167
   -15.3574 -15.1224 -12.4111 -12.1977 -11.5873 -11.3303 -11.0064  -9.6971
    -9.0589  -8.4811  -8.0236  -7.5231  -6.1741  -4.4165  -3.7246  -2.6573
    -2.4419  -1.0808  -0.7423   2.3821   2.9350   3.2242   3.3853   4.6633
     5.2225   5.8505   6.1306

          k = 0.4222 0.4234 0.0000 ( 11592 PWs)   bands (ev):

   -77.7714 -49.2870 -49.1200 -48.9303 -21.6978 -21.6666 -20.4090 -19.8199
   -15.3788 -15.1441 -12.3684 -12.1406 -11.5742 -11.3321 -11.0011  -9.6929
    -9.0496  -8.4336  -8.0248  -7.5306  -6.1830  -4.4049  -3.7404  -2.6524
    -2.4479  -1.1355  -0.7947   2.3378   2.8824   3.2606   3.4259   4.6785
     5.2338   5.8398   6.1474

          k = 0.4250 0.4186 0.0000 ( 11596 PWs)   bands (ev):

   -77.7715 -49.2885 -49.1174 -48.9304 -21.7091 -21.6779 -20.4130 -19.8231
   -15.3995 -15.1651 -12.3308 -12.0866 -11.5560 -11.3311 -10.9958  -9.6880
    -9.0418  -8.3865  -8.0256  -7.5382  -6.1918  -4.3936  -3.7561  -2.6486
    -2.4534  -1.1909  -0.8468   2.2915   2.8300   3.2990   3.4699   4.6946
     5.2452   5.8272   6.1630

          k = 0.4278 0.4138 0.0000 ( 11596 PWs)   bands (ev):

   -77.7717 -49.2899 -49.1148 -48.9306 -21.7201 -21.6889 -20.4170 -19.8263
   -15.4195 -15.1854 -12.2986 -12.0363 -11.5327 -11.3269 -10.9905  -9.6824
    -9.0352  -8.3404  -8.0257  -7.5458  -6.2005  -4.3826  -3.7717  -2.6462
    -2.4578  -1.2468  -0.8986   2.2443   2.7787   3.3378   3.5169   4.7116
     5.2568   5.8130   6.1774

          k = 0.4306 0.4090 0.0000 ( 11586 PWs)   bands (ev):

   -77.7718 -49.2912 -49.1123 -48.9308 -21.7309 -21.6997 -20.4210 -19.8295
   -15.4389 -15.2050 -12.2720 -11.9900 -11.5042 -11.3193 -10.9851  -9.6762
    -9.0295  -8.2959  -8.0246  -7.5533  -6.2090  -4.3721  -3.7871  -2.6458
    -2.4610  -1.3029  -0.9497   2.1970   2.7288   3.3760   3.5664   4.7296
     5.2686   5.7974   6.1908

          k = 0.4333 0.4041 0.0000 ( 11574 PWs)   bands (ev):

   -77.7719 -49.2925 -49.1099 -48.9309 -21.7414 -21.7101 -20.4250 -19.8326
   -15.4575 -15.2238 -12.2508 -11.9480 -11.4709 -11.3080 -10.9795  -9.6693
    -9.0246  -8.2541  -8.0218  -7.5606  -6.2174  -4.3619  -3.8023  -2.6477
    -2.4624  -1.3591  -1.0000   2.1499   2.6806   3.4127   3.6182   4.7486
     5.2808   5.7806   6.2031

          k = 0.4361 0.3993 0.0000 ( 11578 PWs)   bands (ev):

   -77.7720 -49.2938 -49.1075 -48.9311 -21.7515 -21.7203 -20.4289 -19.8358
   -15.4755 -15.2419 -12.2347 -11.9106 -11.4338 -11.2925 -10.9736  -9.6619
    -9.0203  -8.2162  -8.0161  -7.5677  -6.2257  -4.3520  -3.8173  -2.6522
    -2.4619  -1.4150  -1.0492   2.1035   2.6342   3.4475   3.6719   4.7686
     5.2934   5.7629   6.2144

          k = 0.4389 0.3945 0.0000 ( 11590 PWs)   bands (ev):

   -77.7721 -49.2950 -49.1053 -48.9313 -21.7613 -21.7301 -20.4327 -19.8389
   -15.4927 -15.2592 -12.2232 -11.8779 -11.3938 -11.2728 -10.9672  -9.6542
    -9.0165  -8.1840  -8.0062  -7.5746  -6.2339  -4.3426  -3.8320  -2.6594
    -2.4594  -1.4706  -1.0971   2.0582   2.5897   3.4802   3.7270   4.7895
     5.3064   5.7445   6.2247

          k = 0.4417 0.3897 0.0000 ( 11598 PWs)   bands (ev):

   -77.7722 -49.2962 -49.1031 -48.9314 -21.7708 -21.7396 -20.4364 -19.8419
   -15.5092 -15.2758 -12.2155 -11.8498 -11.3525 -11.2485 -10.9601  -9.6460
    -9.0132  -8.1590  -7.9905  -7.5809  -6.2420  -4.3336  -3.8465  -2.6691
    -2.4551  -1.5254  -1.1437   2.0142   2.5472   3.5106   3.7831   4.8113
     5.3201   5.7257   6.2341

          k = 0.4444 0.3849 0.0000 ( 11590 PWs)   bands (ev):

   -77.7723 -49.2973 -49.1009 -48.9316 -21.7800 -21.7487 -20.4401 -19.8448
   -15.5249 -15.2916 -12.2111 -11.8261 -11.3115 -11.2194 -10.9521  -9.6376
    -9.0101  -8.1418  -7.9688  -7.5867  -6.2499  -4.3249  -3.8607  -2.6811
    -2.4494  -1.5792  -1.1888   1.9715   2.5066   3.5389   3.8395   4.8339
     5.3345   5.7067   6.2426

          k = 0.4472 0.3801 0.0000 ( 11606 PWs)   bands (ev):

   -77.7724 -49.2984 -49.0989 -48.9317 -21.7888 -21.7575 -20.4436 -19.8477
   -15.5400 -15.3067 -12.2093 -11.8065 -11.2726 -11.1854 -10.9428  -9.6289
    -9.0073  -8.1315  -7.9425  -7.5917  -6.2578  -4.3167  -3.8746  -2.6951
    -2.4426  -1.6316  -1.2323   1.9305   2.4682   3.5649   3.8957   4.8573
     5.3496   5.6877   6.2503

          k = 0.4500 0.3753 0.0000 ( 11602 PWs)   bands (ev):

   -77.7725 -49.2994 -49.0970 -48.9318 -21.7971 -21.7659 -20.4470 -19.8505
   -15.5543 -15.3210 -12.2095 -11.7905 -11.2369 -11.1468 -10.9319  -9.6202
    -9.0047  -8.1262  -7.9136  -7.5955  -6.2654  -4.3088  -3.8881  -2.7106
    -2.4351  -1.6823  -1.2740   1.8911   2.4317   3.5889   3.9513   4.8813
     5.3656   5.6688   6.2573

          k = 0.4528 0.3705 0.0000 ( 11594 PWs)   bands (ev):

   -77.7726 -49.3003 -49.0951 -48.9320 -21.8051 -21.7739 -20.4503 -19.8532
   -15.5678 -15.3346 -12.2113 -11.7777 -11.2051 -11.1047 -10.9189  -9.6115
    -9.0022  -8.1242  -7.8844  -7.5979  -6.2730  -4.3014  -3.9012  -2.7274
    -2.4273  -1.7309  -1.3140   1.8536   2.3973   3.6108   4.0058   4.9058
     5.3825   5.6504   6.2636

          k = 0.4556 0.3657 0.0000 ( 11584 PWs)   bands (ev):

   -77.7727 -49.3012 -49.0933 -48.9321 -21.8127 -21.7814 -20.4535 -19.8558
   -15.5806 -15.3474 -12.2143 -11.7674 -11.1772 -11.0606 -10.9035  -9.6028
    -8.9998  -8.1243  -7.8565  -7.5984  -6.2804  -4.2943  -3.9139  -2.7452
    -2.4197  -1.7770  -1.3521   1.8179   2.3650   3.6308   4.0587   4.9305
     5.4004   5.6327   6.2693

          k = 0.4583 0.3608 0.0000 ( 11592 PWs)   bands (ev):

   -77.7728 -49.3021 -49.0916 -48.9322 -21.8199 -21.7886 -20.4565 -19.8583
   -15.5927 -15.3594 -12.2182 -11.7593 -11.1532 -11.0160 -10.8856  -9.5942
    -8.9974  -8.1257  -7.8312  -7.5965  -6.2876  -4.2877  -3.9261  -2.7635
    -2.4126  -1.8203  -1.3884   1.7841   2.3346   3.6490   4.1097   4.9554
     5.4192   5.6158   6.2744

          k = 0.4611 0.3560 0.0000 ( 11592 PWs)   bands (ev):

   -77.7729 -49.3029 -49.0901 -48.9323 -21.8267 -21.7954 -20.4594 -19.8606
   -15.6040 -15.3707 -12.2226 -11.7530 -11.1329 -10.9718 -10.8650  -9.5858
    -8.9951  -8.1280  -7.8096  -7.5915  -6.2947  -4.2814  -3.9378  -2.7822
    -2.4065  -1.8602  -1.4227   1.7522   2.3063   3.6654   4.1583   4.9802
     5.4388   5.6000   6.2790

          k = 0.4639 0.3512 0.0000 ( 11596 PWs)   bands (ev):

   -77.7730 -49.3037 -49.0886 -48.9324 -21.8330 -21.8017 -20.4621 -19.8628
   -15.6145 -15.3812 -12.2273 -11.7481 -11.1162 -10.9288 -10.8421  -9.5778
    -8.9928  -8.1309  -7.7923  -7.5833  -6.3015  -4.2756  -3.9490  -2.8010
    -2.4016  -1.8964  -1.4551   1.7224   2.2801   3.6803   4.2042   5.0045
     5.4589   5.5857   6.2831

          k = 0.4667 0.3464 0.0000 ( 11594 PWs)   bands (ev):

   -77.7730 -49.3044 -49.0872 -48.9325 -21.8389 -21.8076 -20.4646 -19.8649
   -15.6242 -15.3909 -12.2322 -11.7444 -11.1026 -10.8877 -10.8175  -9.5701
    -8.9905  -8.1342  -7.7794  -7.5720  -6.3081  -4.2701  -3.9596  -2.8196
    -2.3985  -1.9284  -1.4855   1.6947   2.2558   3.6935   4.2472   5.0283
     5.4790   5.5736   6.2869

          k = 0.4694 0.3416 0.0000 ( 11594 PWs)   bands (ev):

   -77.7731 -49.3050 -49.0859 -48.9326 -21.8444 -21.8130 -20.4669 -19.8669
   -15.6332 -15.3999 -12.2372 -11.7415 -11.0918 -10.8489 -10.7918  -9.5628
    -8.9883  -8.1376  -7.7705  -7.5580  -6.3145  -4.2651  -3.9696  -2.8377
    -2.3972  -1.9559  -1.5139   1.6691   2.2335   3.7054   4.2870   5.0512
     5.4975   5.5652   6.2902

          k = 0.4722 0.3368 0.0000 ( 11604 PWs)   bands (ev):

   -77.7732 -49.3056 -49.0848 -48.9327 -21.8494 -21.8180 -20.4691 -19.8687
   -15.6414 -15.4081 -12.2420 -11.7394 -11.0832 -10.8130 -10.7656  -9.5560
    -8.9861  -8.1412  -7.7650  -7.5424  -6.3205  -4.2604  -3.9790  -2.8552
    -2.3981  -1.9787  -1.5404   1.6456   2.2132   3.7158   4.3233   5.0728
     5.5104   5.5643   6.2932

          k = 0.4750 0.3320 0.0000 ( 11612 PWs)   bands (ev):

   -77.7732 -49.3061 -49.0837 -48.9328 -21.8539 -21.8225 -20.4711 -19.8703
   -15.6489 -15.4155 -12.2466 -11.7378 -11.0765 -10.7802 -10.7396  -9.5497
    -8.9840  -8.1446  -7.7620  -7.5259  -6.3261  -4.2562  -3.9877  -2.8718
    -2.4011  -1.9969  -1.5648   1.6242   2.1948   3.7250   4.3562   5.0930
     5.5138   5.5745   6.2960

          k = 0.4778 0.3272 0.0000 ( 11608 PWs)   bands (ev):

   -77.7733 -49.3066 -49.0827 -48.9329 -21.8580 -21.8266 -20.4729 -19.8718
   -15.6555 -15.4221 -12.2509 -11.7366 -11.0711 -10.7508 -10.7143  -9.5440
    -8.9820  -8.1480  -7.7607  -7.5095  -6.3314  -4.2523  -3.9956  -2.8872
    -2.4058  -2.0106  -1.5871   1.6050   2.1784   3.7330   4.3855   5.1115
     5.5110   5.5924   6.2984

          k = 0.4806 0.3224 0.0000 ( 11608 PWs)   bands (ev):

   -77.7733 -49.3070 -49.0819 -48.9329 -21.8616 -21.8302 -20.4745 -19.8731
   -15.6614 -15.4280 -12.2548 -11.7357 -11.0670 -10.7250 -10.6903  -9.5389
    -8.9801  -8.1512  -7.7604  -7.4940  -6.3361  -4.2488  -4.0028  -2.9014
    -2.4119  -2.0205  -1.6073   1.5881   2.1640   3.7399   4.4111   5.1279
     5.5065   5.6128   6.3006

          k = 0.4833 0.3175 0.0000 ( 11606 PWs)   bands (ev):

   -77.7734 -49.3074 -49.0812 -48.9330 -21.8647 -21.8333 -20.4759 -19.8742
   -15.6665 -15.4331 -12.2583 -11.7351 -11.0637 -10.7027 -10.6684  -9.5344
    -8.9784  -8.1540  -7.7609  -7.4796  -6.3404  -4.2458  -4.0091  -2.9140
    -2.4189  -2.0270  -1.6251   1.5733   2.1515   3.7457   4.4332   5.1423
     5.5021   5.6333   6.3025

          k = 0.4861 0.3127 0.0000 ( 11610 PWs)   bands (ev):

   -77.7734 -49.3077 -49.0805 -48.9330 -21.8674 -21.8360 -20.4771 -19.8752
   -15.6709 -15.4374 -12.2614 -11.7347 -11.0611 -10.6839 -10.6490  -9.5306
    -8.9769  -8.1566  -7.7617  -7.4670  -6.3441  -4.2432  -4.0146  -2.9250
    -2.4260  -2.0309  -1.6406   1.5608   2.1410   3.7506   4.4517   5.1544
     5.4984   5.6526   6.3042

          k = 0.4889 0.3079 0.0000 ( 11610 PWs)   bands (ev):

   -77.7734 -49.3080 -49.0800 -48.9331 -21.8696 -21.8381 -20.4780 -19.8760
   -15.6744 -15.4409 -12.2639 -11.7345 -11.0592 -10.6685 -10.6326  -9.5274
    -8.9755  -8.1588  -7.7626  -7.4563  -6.3473  -4.2410  -4.0191  -2.9342
    -2.4327  -2.0330  -1.6536   1.5506   2.1323   3.7545   4.4667   5.1642
     5.4956   5.6698   6.3055

          k = 0.4917 0.3031 0.0000 ( 11600 PWs)   bands (ev):

   -77.7734 -49.3082 -49.0796 -48.9331 -21.8713 -21.8398 -20.4788 -19.8767
   -15.6771 -15.4436 -12.2659 -11.7343 -11.0578 -10.6564 -10.6195  -9.5250
    -8.9745  -8.1605  -7.7635  -7.4478  -6.3497  -4.2393  -4.0227  -2.9414
    -2.4385  -2.0338  -1.6639   1.5426   2.1256   3.7574   4.4782   5.1717
     5.4936   5.6840   6.3066

          k = 0.4944 0.2983 0.0000 ( 11608 PWs)   bands (ev):

   -77.7735 -49.3083 -49.0793 -48.9331 -21.8725 -21.8410 -20.4793 -19.8771
   -15.6791 -15.4456 -12.2673 -11.7342 -11.0569 -10.6478 -10.6101  -9.5232
    -8.9737  -8.1617  -7.7641  -7.4417  -6.3515  -4.2381  -4.0252  -2.9467
    -2.4429  -2.0340  -1.6714   1.5369   2.1209   3.7595   4.4865   5.1770
     5.4923   5.6947   6.3074

          k = 0.4972 0.2935 0.0000 ( 11602 PWs)   bands (ev):

   -77.7735 -49.3084 -49.0792 -48.9331 -21.8732 -21.8418 -20.4797 -19.8774
   -15.6803 -15.4468 -12.2682 -11.7341 -11.0563 -10.6426 -10.6043  -9.5221
    -8.9732  -8.1625  -7.7646  -7.4379  -6.3526  -4.2374  -4.0268  -2.9499
    -2.4457  -2.0340  -1.6760   1.5334   2.1180   3.7608   4.4914   5.1802
     5.4916   5.7013   6.3079

          k = 0.5000 0.2887 0.0000 ( 11598 PWs)   bands (ev):

   -77.7735 -49.3084 -49.0791 -48.9331 -21.8735 -21.8420 -20.4798 -19.8775
   -15.6807 -15.4472 -12.2685 -11.7341 -11.0561 -10.6409 -10.6024  -9.5218
    -8.9731  -8.1628  -7.7647  -7.4367  -6.3530  -4.2371  -4.0273  -2.9510
    -2.4466  -2.0339  -1.6775   1.5323   2.1170   3.7612   4.4930   5.1812
     5.4914   5.7036   6.3081

          k = 0.4950 0.2858 0.0000 ( 11598 PWs)   bands (ev):

   -77.7735 -49.3084 -49.0791 -48.9331 -21.8748 -21.8434 -20.4798 -19.8773
   -15.6792 -15.4457 -12.2689 -11.7332 -11.0558 -10.6406 -10.6021  -9.5216
    -8.9728  -8.1634  -7.7647  -7.4371  -6.3531  -4.2369  -4.0270  -2.9506
    -2.4455  -2.0341  -1.6772   1.5328   2.1176   3.7607   4.4915   5.1809
     5.4918   5.7038   6.3081

          k = 0.4900 0.2829 0.0000 ( 11602 PWs)   bands (ev):

   -77.7735 -49.3081 -49.0791 -48.9332 -21.8790 -21.8474 -20.4799 -19.8767
   -15.6748 -15.4413 -12.2702 -11.7306 -11.0548 -10.6397 -10.6012  -9.5212
    -8.9720  -8.1653  -7.7646  -7.4383  -6.3535  -4.2360  -4.0262  -2.9495
    -2.4422  -2.0346  -1.6763   1.5344   2.1193   3.7592   4.4870   5.1799
     5.4929   5.7046   6.3081

          k = 0.4850 0.2800 0.0000 ( 11610 PWs)   bands (ev):

   -77.7736 -49.3078 -49.0790 -48.9332 -21.8858 -21.8542 -20.4801 -19.8757
   -15.6674 -15.4340 -12.2723 -11.7262 -11.0533 -10.6382 -10.5998  -9.5204
    -8.9706  -8.1684  -7.7644  -7.4403  -6.3542  -4.2347  -4.0249  -2.9476
    -2.4366  -2.0356  -1.6748   1.5370   2.1221   3.7566   4.4796   5.1781
     5.4947   5.7058   6.3080

          k = 0.4800 0.2771 0.0000 ( 11606 PWs)   bands (ev):

   -77.7736 -49.3073 -49.0789 -48.9333 -21.8953 -21.8635 -20.4804 -19.8743
   -15.6571 -15.4237 -12.2751 -11.7202 -11.0511 -10.6362 -10.5978  -9.5193
    -8.9686  -8.1727  -7.7641  -7.4430  -6.3551  -4.2328  -4.0229  -2.9451
    -2.4289  -2.0368  -1.6727   1.5407   2.1261   3.7530   4.4693   5.1757
     5.4973   5.7075   6.3079

          k = 0.4750 0.2742 0.0000 ( 11602 PWs)   bands (ev):

   -77.7737 -49.3066 -49.0787 -48.9335 -21.9075 -21.8754 -20.4809 -19.8727
   -15.6439 -15.4106 -12.2788 -11.7125 -11.0482 -10.6335 -10.5952  -9.5179
    -8.9661  -8.1782  -7.7638  -7.4466  -6.3563  -4.2304  -4.0205  -2.9419
    -2.4190  -2.0385  -1.6699   1.5455   2.1311   3.7484   4.4562   5.1724
     5.5006   5.7097   6.3078

          k = 0.4700 0.2714 0.0000 ( 11600 PWs)   bands (ev):

   -77.7738 -49.3058 -49.0785 -48.9336 -21.9222 -21.8899 -20.4816 -19.8707
   -15.6278 -15.3946 -12.2831 -11.7032 -11.0448 -10.6303 -10.5921  -9.5162
    -8.9630  -8.1849  -7.7635  -7.4510  -6.3578  -4.2274  -4.0175  -2.9381
    -2.4069  -2.0405  -1.6664   1.5512   2.1373   3.7427   4.4404   5.1684
     5.5047   5.7123   6.3077

          k = 0.4650 0.2685 0.0000 ( 11612 PWs)   bands (ev):

   -77.7739 -49.3049 -49.0783 -48.9338 -21.9394 -21.9067 -20.4826 -19.8686
   -15.6089 -15.3757 -12.2881 -11.6925 -11.0408 -10.6264 -10.5884  -9.5140
    -8.9594  -8.1925  -7.7631  -7.4561  -6.3595  -4.2239  -4.0140  -2.9338
    -2.3926  -2.0429  -1.6622   1.5580   2.1445   3.7360   4.4219   5.1635
     5.5096   5.7154   6.3075

          k = 0.4600 0.2656 0.0000 ( 11604 PWs)   bands (ev):

   -77.7741 -49.3038 -49.0781 -48.9340 -21.9589 -21.9258 -20.4839 -19.8662
   -15.5871 -15.3540 -12.2938 -11.6802 -11.0363 -10.6220 -10.5841  -9.5115
    -8.9552  -8.2012  -7.7627  -7.4620  -6.3614  -4.2199  -4.0100  -2.9290
    -2.3762  -2.0457  -1.6573   1.5659   2.1528   3.7282   4.4009   5.1579
     5.5152   5.7189   6.3072

          k = 0.4550 0.2627 0.0000 ( 11598 PWs)   bands (ev):

   -77.7743 -49.3026 -49.0778 -48.9342 -21.9807 -21.9472 -20.4856 -19.8638
   -15.5626 -15.3295 -12.3000 -11.6667 -11.0313 -10.6170 -10.5793  -9.5086
    -8.9505  -8.2109  -7.7623  -7.4686  -6.3635  -4.2153  -4.0055  -2.9238
    -2.3577  -2.0488  -1.6514   1.5747   2.1621   3.7193   4.3774   5.1514
     5.5215   5.7228   6.3069

          k = 0.4500 0.2598 0.0000 ( 11584 PWs)   bands (ev):

   -77.7744 -49.3013 -49.0775 -48.9345 -22.0046 -21.9706 -20.4878 -19.8614
   -15.5353 -15.3022 -12.3067 -11.6518 -11.0257 -10.6114 -10.5739  -9.5052
    -8.9452  -8.2214  -7.7619  -7.4760  -6.3659  -4.2103  -4.0005  -2.9182
    -2.3372  -2.0523  -1.6448   1.5846   2.1725   3.7093   4.3517   5.1443
     5.5285   5.7271   6.3064

          k = 0.4450 0.2569 0.0000 ( 11588 PWs)   bands (ev):

   -77.7746 -49.2998 -49.0771 -48.9348 -22.0306 -21.9961 -20.4905 -19.8589
   -15.5054 -15.2722 -12.3139 -11.6357 -11.0197 -10.6053 -10.5679  -9.5014
    -8.9394  -8.2327  -7.7614  -7.4842  -6.3684  -4.2047  -3.9951  -2.9125
    -2.3146  -2.0561  -1.6371   1.5955   2.1838   3.6982   4.3237   5.1365
     5.5360   5.7317   6.3058

          k = 0.4400 0.2540 0.0000 ( 11591 PWs)   bands (ev):

   -77.7749 -49.2982 -49.0767 -48.9351 -22.0585 -22.0234 -20.4937 -19.8566
   -15.4729 -15.2395 -12.3216 -11.6185 -11.0132 -10.5985 -10.5614  -9.4970
    -8.9330  -8.2447  -7.7610  -7.4931  -6.3710  -4.1986  -3.9892  -2.9066
    -2.2900  -2.0604  -1.6285   1.6073   2.1960   3.6861   4.2936   5.1282
     5.5440   5.7366   6.3050

          k = 0.4350 0.2511 0.0000 ( 11587 PWs)   bands (ev):

   -77.7751 -49.2964 -49.0763 -48.9354 -22.0882 -22.0524 -20.4976 -19.8545
   -15.4377 -15.2041 -12.3297 -11.6002 -11.0064 -10.5912 -10.5544  -9.4921
    -8.9261  -8.2574  -7.7606  -7.5026  -6.3738  -4.1920  -3.9829  -2.9007
    -2.2635  -2.0650  -1.6187   1.6202   2.2091   3.6728   4.2616   5.1195
     5.5524   5.7418   6.3041

          k = 0.4300 0.2483 0.0000 ( 11579 PWs)   bands (ev):

   -77.7754 -49.2945 -49.0759 -48.9358 -22.1195 -22.0831 -20.5022 -19.8525
   -15.4001 -15.1662 -12.3382 -11.5809 -10.9992 -10.5834 -10.5468  -9.4865
    -8.9186  -8.2707  -7.7601  -7.5129  -6.3767  -4.1849  -3.9762  -2.8948
    -2.2351  -2.0700  -1.6078   1.6339   2.2231   3.6584   4.2278   5.1105
     5.5611   5.7472   6.3029

          k = 0.4250 0.2454 0.0000 ( 11585 PWs)   bands (ev):

   -77.7756 -49.2925 -49.0754 -48.9362 -22.1524 -22.1153 -20.5075 -19.8509
   -15.3601 -15.1257 -12.3471 -11.5608 -10.9916 -10.5749 -10.5386  -9.4804
    -8.9106  -8.2845  -7.7596  -7.5239  -6.3797  -4.1773  -3.9690  -2.8892
    -2.2048  -2.0753  -1.5957   1.6486   2.2379   3.6429   4.1922   5.1012
     5.5701   5.7528   6.3014

          k = 0.4200 0.2425 0.0000 ( 11583 PWs)   bands (ev):

   -77.7759 -49.2904 -49.0749 -48.9366 -22.1868 -22.1489 -20.5136 -19.8495
   -15.3177 -15.0826 -12.3563 -11.5398 -10.9838 -10.5659 -10.5299  -9.4735
    -8.9021  -8.2988  -7.7591  -7.5355  -6.3827  -4.1692  -3.9615  -2.8838
    -2.1727  -2.0811  -1.5822   1.6642   2.2534   3.6264   4.1549   5.0919
     5.5792   5.7585   6.2997

          k = 0.4150 0.2396 0.0000 ( 11587 PWs)   bands (ev):

   -77.7762 -49.2881 -49.0744 -48.9370 -22.2225 -22.1839 -20.5205 -19.8486
   -15.2731 -15.0372 -12.3658 -11.5180 -10.9756 -10.5564 -10.5207  -9.4660
    -8.8931  -8.3135  -7.7586  -7.5478  -6.3857  -4.1606  -3.9537  -2.8788
    -2.1389  -2.0872  -1.5674   1.6806   2.2696   3.6088   4.1162   5.0826
     5.5884   5.7643   6.2976

          k = 0.4100 0.2367 0.0000 ( 11587 PWs)   bands (ev):

   -77.7766 -49.2857 -49.0739 -48.9375 -22.2593 -22.2200 -20.5282 -19.8480
   -15.2262 -14.9893 -12.3755 -11.4955 -10.9672 -10.5463 -10.5110  -9.4577
    -8.8835  -8.3284  -7.7580  -7.5607  -6.3887  -4.1516  -3.9455  -2.8743
    -2.1034  -2.0937  -1.5512   1.6979   2.2863   3.5903   4.0761   5.0734
     5.5976   5.7702   6.2951

          k = 0.4050 0.2338 0.0000 ( 11597 PWs)   bands (ev):

   -77.7769 -49.2832 -49.0733 -48.9379 -22.2973 -22.2572 -20.5367 -19.8479
   -15.1773 -14.9391 -12.3856 -11.4725 -10.9586 -10.5356 -10.5007  -9.4485
    -8.8735  -8.3437  -7.7574  -7.5743  -6.3916  -4.1421  -3.9371  -2.8704
    -2.1005  -2.0663  -1.5334   1.7159   2.3035   3.5709   4.0348   5.0644
     5.6067   5.7759   6.2921

          k = 0.4000 0.2309 0.0000 ( 11589 PWs)   bands (ev):

   -77.7773 -49.2805 -49.0727 -48.9384 -22.3363 -22.2954 -20.5461 -19.8483
   -15.1263 -14.8867 -12.3959 -11.4490 -10.9497 -10.5245 -10.4899  -9.4386
    -8.8629  -8.3592  -7.7567  -7.5884  -6.3943  -4.1322  -3.9283  -2.8672
    -2.1078  -2.0276  -1.5140   1.7347   2.3212   3.5506   3.9923   5.0556
     5.6158   5.7816   6.2887

          k = 0.3950 0.2281 0.0000 ( 11591 PWs)   bands (ev):

   -77.7776 -49.2777 -49.0720 -48.9390 -22.3761 -22.3344 -20.5563 -19.8492
   -15.0734 -14.8320 -12.4064 -11.4250 -10.9405 -10.5127 -10.4786  -9.4277
    -8.8518  -8.3748  -7.7559  -7.6031  -6.3969  -4.1218  -3.9193  -2.8647
    -2.1154  -1.9874  -1.4931   1.7541   2.3391   3.5296   3.9488   5.0471
     5.6246   5.7871   6.2847

          k = 0.3900 0.2252 0.0000 ( 11597 PWs)   bands (ev):

   -77.7780 -49.2749 -49.0714 -48.9395 -22.4168 -22.3743 -20.5675 -19.8507
   -15.0188 -14.7752 -12.4171 -11.4007 -10.9312 -10.5005 -10.4668  -9.4159
    -8.8402  -8.3906  -7.7550  -7.6184  -6.3992  -4.1109  -3.9100  -2.8630
    -2.1234  -1.9458  -1.4704   1.7742   2.3572   3.5079   3.9045   5.0390
     5.6333   5.7923   6.2801

          k = 0.3850 0.2223 0.0000 ( 11609 PWs)   bands (ev):

   -77.7784 -49.2719 -49.0707 -48.9401 -22.4582 -22.4149 -20.5794 -19.8526
   -14.9624 -14.7163 -12.4280 -11.3763 -10.9215 -10.4878 -10.4545  -9.4032
    -8.8281  -8.4065  -7.7539  -7.6342  -6.4013  -4.0997  -3.9005  -2.8621
    -2.1318  -1.9027  -1.4461   1.7948   2.3752   3.4858   3.8594   5.0312
     5.6416   5.7972   6.2748

          k = 0.3800 0.2194 0.0000 ( 11621 PWs)   bands (ev):

   -77.7789 -49.2688 -49.0700 -48.9407 -22.5002 -22.4562 -20.5922 -19.8551
   -14.9044 -14.6554 -12.4390 -11.3518 -10.9115 -10.4745 -10.4417  -9.3895
    -8.8156  -8.4224  -7.7527  -7.6506  -6.4031  -4.0880  -3.8908  -2.8622
    -2.1406  -1.8584  -1.4201   1.8159   2.3931   3.4633   3.8137   5.0238
     5.6497   5.8017   6.2687

          k = 0.3750 0.2165 0.0000 ( 11617 PWs)   bands (ev):

   -77.7793 -49.2656 -49.0692 -48.9413 -22.5428 -22.4980 -20.6059 -19.8582
   -14.8450 -14.5925 -12.4501 -11.3274 -10.9011 -10.4607 -10.4284  -9.3747
    -8.8025  -8.4383  -7.7514  -7.6674  -6.4045  -4.0759  -3.8809  -2.8633
    -2.1498  -1.8127  -1.3924   1.8374   2.4107   3.4406   3.7676   5.0167
     5.6574   5.8056   6.2618

          k = 0.3700 0.2136 0.0000 ( 11617 PWs)   bands (ev):

   -77.7798 -49.2623 -49.0685 -48.9419 -22.5858 -22.5402 -20.6203 -19.8618
   -14.7842 -14.5278 -12.4612 -11.3033 -10.8902 -10.4465 -10.4147  -9.3590
    -8.7890  -8.4543  -7.7498  -7.6847  -6.4054  -4.0634  -3.8709  -2.8653
    -2.1593  -1.7659  -1.3630   1.8593   2.4277   3.4180   3.7211   5.0099
     5.6647   5.8089   6.2540

          k = 0.3650 0.2107 0.0000 ( 11617 PWs)   bands (ev):

   -77.7802 -49.2589 -49.0677 -48.9425 -22.6293 -22.5829 -20.6356 -19.8660
   -14.7222 -14.4613 -12.4723 -11.2796 -10.8787 -10.4317 -10.4005  -9.3422
    -8.7750  -8.4702  -7.7481  -7.7024  -6.4059  -4.0505  -3.8608  -2.8683
    -2.1692  -1.7179  -1.3319   1.8812   2.4438   3.3956   3.6745   5.0033
     5.6715   5.8115   6.2451

          k = 0.3600 0.2078 0.0000 ( 11617 PWs)   bands (ev):

   -77.7807 -49.2553 -49.0669 -48.9432 -22.6730 -22.6260 -20.6516 -19.8707
   -14.6592 -14.3930 -12.4832 -11.2566 -10.8665 -10.4165 -10.3858  -9.3243
    -8.7606  -8.4860  -7.7461  -7.7206  -6.4058  -4.0373  -3.8505  -2.8723
    -2.1795  -1.6689  -1.2991   1.9033   2.4589   3.3738   3.6278   4.9968
     5.6777   5.8133   6.2352

          k = 0.3550 0.2050 0.0000 ( 11639 PWs)   bands (ev):

   -77.7812 -49.2517 -49.0660 -48.9439 -22.7171 -22.6693 -20.6683 -19.8760
   -14.5952 -14.3230 -12.4940 -11.2345 -10.8533 -10.4008 -10.3706  -9.3054
    -8.7457  -8.5018  -7.7439  -7.7392  -6.4052  -4.0237  -3.8401  -2.8773
    -2.1902  -1.6188  -1.2647   1.9253   2.4727   3.3526   3.5813   4.9904
     5.6832   5.8141   6.2241

          k = 0.3500 0.2021 0.0000 ( 11631 PWs)   bands (ev):

   -77.7817 -49.2481 -49.0652 -48.9446 -22.7613 -22.7128 -20.6858 -19.8818
   -14.5305 -14.2515 -12.5044 -11.2135 -10.8389 -10.3846 -10.3551  -9.2855
    -8.7304  -8.5174  -7.7582  -7.7414  -6.4039  -4.0097  -3.8297  -2.8833
    -2.2012  -1.5677  -1.2287   1.9471   2.4847   3.3325   3.5351   4.9838
     5.6880   5.8139   6.2118

          k = 0.3450 0.1992 0.0000 ( 11629 PWs)   bands (ev):

   -77.7822 -49.2443 -49.0643 -48.9453 -22.8058 -22.7565 -20.7039 -19.8881
   -14.4653 -14.1784 -12.5144 -11.1938 -10.8233 -10.3680 -10.3391  -9.2645
    -8.7147  -8.5330  -7.7775  -7.7387  -6.4019  -3.9954  -3.8192  -2.8902
    -2.2127  -1.5158  -1.1911   1.9685   2.4948   3.3137   3.4895   4.9770
     5.6918   5.8125   6.1980

          k = 0.3400 0.1963 0.0000 ( 11621 PWs)   bands (ev):

   -77.7827 -49.2404 -49.0634 -48.9460 -22.8503 -22.8002 -20.7227 -19.8950
   -14.3997 -14.1038 -12.5239 -11.1757 -10.8062 -10.3509 -10.3226  -9.2426
    -8.6985  -8.5485  -7.7972  -7.7357  -6.3991  -3.9807  -3.8086  -2.8980
    -2.2245  -1.4630  -1.1521   1.9893   2.5025   3.2962   3.4449   4.9699
     5.6946   5.8098   6.1828

          k = 0.3350 0.1934 0.0000 ( 11625 PWs)   bands (ev):

   -77.7832 -49.2365 -49.0625 -48.9468 -22.8948 -22.8441 -20.7421 -19.9023
   -14.3340 -14.0278 -12.5326 -11.1594 -10.7874 -10.3335 -10.3058  -9.2197
    -8.6819  -8.5638  -7.8171  -7.7323  -6.3956  -3.9658  -3.7981  -2.9067
    -2.2367  -1.4093  -1.1116   2.0093   2.5076   3.2800   3.4017   4.9621
     5.6960   5.8056   6.1661

          k = 0.3300 0.1905 0.0000 ( 11629 PWs)   bands (ev):

   -77.7838 -49.2325 -49.0616 -48.9475 -22.9394 -22.8879 -20.7620 -19.9100
   -14.2685 -13.9505 -12.5403 -11.1450 -10.7669 -10.3156 -10.2886  -9.1958
    -8.6650  -8.5789  -7.8374  -7.7287  -6.3913  -3.9505  -3.7875  -2.9162
    -2.2492  -1.3550  -1.0697   2.0283   2.5098   3.2648   3.3608   4.9535
     5.6959   5.7999   6.1477

          k = 0.3250 0.1876 0.0000 ( 11635 PWs)   bands (ev):

   -77.7843 -49.2284 -49.0607 -48.9483 -22.9839 -22.9317 -20.7825 -19.9182
   -14.2034 -13.8719 -12.5468 -11.1325 -10.7446 -10.2972 -10.2710  -9.1712
    -8.6476  -8.5939  -7.8579  -7.7247  -6.3861  -3.9350  -3.7769  -2.9266
    -2.2622  -1.2999  -1.0266   2.0460   2.5090   3.2488   3.3242   4.9439
     5.6940   5.7925   6.1275

          k = 0.3200 0.1848 0.0000 ( 11643 PWs)   bands (ev):

   -77.7849 -49.2242 -49.0597 -48.9491 -23.0283 -22.9755 -20.8035 -19.9268
   -14.1391 -13.7921 -12.5519 -11.1220 -10.7205 -10.2785 -10.2530  -9.1457
    -8.6299  -8.6087  -7.8787  -7.7204  -6.3801  -3.9191  -3.7664  -2.9377
    -2.2755  -1.2442  -0.9823   2.0621   2.5049   3.2288   3.2955   4.9330
     5.6899   5.7834   6.1056

          k = 0.3150 0.1819 0.0000 ( 11653 PWs)   bands (ev):

   -77.7855 -49.2200 -49.0587 -48.9499 -23.0726 -23.0190 -20.8250 -19.9359
   -14.0760 -13.7111 -12.5551 -11.1135 -10.6946 -10.2595 -10.2346  -9.1196
    -8.6233  -8.6118  -7.8996  -7.7158  -6.3731  -3.9030  -3.7558  -2.9494
    -2.2891  -1.1879  -0.9368   2.0764   2.4977   3.2018   3.2779   4.9206
     5.6833   5.7723   6.0743

          k = 0.3100 0.1790 0.0000 ( 11653 PWs)   bands (ev):

   -77.7861 -49.2157 -49.0577 -48.9507 -23.1166 -23.0625 -20.8469 -19.9453
   -14.0145 -13.6291 -12.5562 -11.1068 -10.6670 -10.2400 -10.2159  -9.0929
    -8.6375  -8.5934  -7.9208  -7.7108  -6.3651  -3.8867  -3.7454  -2.9618
    -2.3031  -1.1311  -0.8903   2.0885   2.4873   3.1700   3.2692   4.9064
     5.6739   5.7592   6.0366

          k = 0.3050 0.1761 0.0000 ( 11653 PWs)   bands (ev):

   -77.7866 -49.2114 -49.0567 -48.9515 -23.1605 -23.1057 -20.8692 -19.9550
   -13.9550 -13.5460 -12.5546 -11.1019 -10.6379 -10.2202 -10.1969  -9.0658
    -8.6514  -8.5747  -7.9421  -7.7054  -6.3562  -3.8701  -3.7349  -2.9748
    -2.3175  -1.0738  -0.8428   2.0981   2.4741   3.1370   3.2660   4.8902
     5.6612   5.7439   5.9988

          k = 0.3000 0.1732 0.0000 ( 11651 PWs)   bands (ev):

   -77.7872 -49.2070 -49.0557 -48.9523 -23.2042 -23.1487 -20.8918 -19.9651
   -13.8980 -13.4621 -12.5500 -11.0986 -10.6074 -10.2000 -10.1775  -9.0384
    -8.6647  -8.5556  -7.9635  -7.6996  -6.3463  -3.8533  -3.7246  -2.9883
    -2.3322  -1.0161  -0.7944   2.1048   2.4581   3.1048   3.2661   4.8716
     5.6450   5.7264   5.9612

          k = 0.2950 0.1703 0.0000 ( 11655 PWs)   bands (ev):

   -77.7878 -49.2025 -49.0547 -48.9532 -23.2475 -23.1914 -20.9148 -19.9755
   -13.8442 -13.3772 -12.5418 -11.0967 -10.5757 -10.1796 -10.1578  -9.0111
    -8.6774  -8.5362  -7.9850  -7.6935  -6.3355  -3.8363  -3.7143  -3.0023
    -2.3473  -0.9581  -0.7453   2.1084   2.4397   3.0745   3.2684   4.8505
     5.6251   5.7066   5.9239

          k = 0.2900 0.1674 0.0000 ( 11669 PWs)   bands (ev):

   -77.7884 -49.1980 -49.0537 -48.9540 -23.2906 -23.2338 -20.9380 -19.9861
   -13.7940 -13.2915 -12.5295 -11.0961 -10.5428 -10.1588 -10.1378  -8.9841
    -8.6891  -8.5166  -8.0066  -7.6869  -6.3236  -3.8191  -3.7041  -3.0167
    -2.3627  -0.8998  -0.6955   2.1086   2.4192   3.0466   3.2722   4.8266
     5.6014   5.6844   5.8871

          k = 0.2850 0.1645 0.0000 ( 11673 PWs)   bands (ev):

   -77.7890 -49.1935 -49.0527 -48.9548 -23.3333 -23.2759 -20.9615 -19.9970
   -13.7480 -13.2051 -12.5126 -11.0967 -10.5089 -10.1377 -10.1176  -8.9581
    -8.6993  -8.4967  -8.0283  -7.6800  -6.3108  -3.8018  -3.6939  -3.0314
    -2.3785  -0.8413  -0.6452   2.1054   2.3968   3.0213   3.2768   4.7997
     5.5739   5.6598   5.8508

          k = 0.2800 0.1617 0.0000 ( 11695 PWs)   bands (ev):

   -77.7897 -49.1890 -49.0516 -48.9557 -23.3756 -23.3176 -20.9852 -20.0082
   -13.7067 -13.1180 -12.4907 -11.0983 -10.4741 -10.1163 -10.0971  -8.9339
    -8.7073  -8.4766  -8.0499  -7.6726  -6.2969  -3.7842  -3.6839  -3.0464
    -2.3945  -0.7827  -0.5944   2.0986   2.3727   2.9990   3.2818   4.7697
     5.5430   5.6327   5.8151

          k = 0.2750 0.1588 0.0000 ( 11677 PWs)   bands (ev):

   -77.7903 -49.1844 -49.0506 -48.9566 -23.4176 -23.3589 -21.0091 -20.0196
   -13.6704 -13.0303 -12.4633 -11.1008 -10.4386 -10.0947 -10.0763  -8.9125
    -8.7120  -8.4564  -8.0715  -7.6649  -6.2821  -3.7666  -3.6739  -3.0616
    -2.4109  -0.7241  -0.5433   2.0883   2.3471   2.9797   3.2867   4.7365
     5.5090   5.6031   5.7800

          k = 0.2700 0.1559 0.0000 ( 11689 PWs)   bands (ev):

   -77.7909 -49.1798 -49.0495 -48.9574 -23.4591 -23.3998 -21.0331 -20.0311
   -13.6394 -12.9420 -12.4303 -11.1042 -10.4024 -10.0728 -10.0553  -8.8957
    -8.7119  -8.4360  -8.0929  -7.6567  -6.2663  -3.7488  -3.6640  -3.0770
    -2.4276  -0.6655  -0.4919   2.0749   2.3202   2.9632   3.2911   4.7000
     5.4724   5.5711   5.7454

          k = 0.2650 0.1530 0.0000 ( 11681 PWs)   bands (ev):

   -77.7915 -49.1752 -49.0485 -48.9583 -23.5001 -23.4403 -21.0573 -20.0428
   -13.6139 -12.8533 -12.3916 -11.1082 -10.3656 -10.0508 -10.0340  -8.8848
    -8.7056  -8.4155  -8.1142  -7.6481  -6.2496  -3.7309  -3.6543  -3.0925
    -2.4446  -0.6072  -0.4405   2.0585   2.2922   2.9494   3.2946   4.6604
     5.4338   5.5366   5.7114

          k = 0.2600 0.1501 0.0000 ( 11677 PWs)   bands (ev):

   -77.7921 -49.1705 -49.0474 -48.9591 -23.5407 -23.4803 -21.0815 -20.0547
   -13.5937 -12.7641 -12.3473 -11.1129 -10.3283 -10.0285 -10.0126  -8.8806
    -8.6926  -8.3950  -8.1352  -7.6392  -6.2321  -3.7128  -3.6445  -3.1080
    -2.4618  -0.5491  -0.3891   2.0397   2.2631   2.9379   3.2969   4.6176
     5.3936   5.4997   5.6780

          k = 0.2550 0.1472 0.0000 ( 11683 PWs)   bands (ev):

   -77.7928 -49.1658 -49.0463 -48.9600 -23.5808 -23.5198 -21.1057 -20.0667
   -13.5786 -12.6747 -12.2977 -11.1181 -10.2905 -10.0060  -9.9910  -8.8821
    -8.6736  -8.3748  -8.1558  -7.6298  -6.2136  -3.6948  -3.6349  -3.1234
    -2.4794  -0.4915  -0.3380   2.0188   2.2333   2.9285   3.2977   4.5718
     5.3523   5.4605   5.6330

          k = 0.2500 0.1443 0.0000 ( 11687 PWs)   bands (ev):

   -77.7934 -49.1612 -49.0453 -48.9609 -23.6204 -23.5588 -21.1300 -20.0788
   -13.5682 -12.5850 -12.2431 -11.1236 -10.2524  -9.9834  -9.9692  -8.8880
    -8.6503  -8.3550  -8.1756  -7.6201  -6.1943  -3.6766  -3.6254  -3.1388
    -2.4972  -0.4345  -0.2872   1.9964   2.2029   2.9206   3.2968   4.5231
     5.3104   5.4190   5.5826

          k = 0.2450 0.1415 0.0000 ( 11685 PWs)   bands (ev):

   -77.7940 -49.1565 -49.0442 -48.9618 -23.6595 -23.5973 -21.1543 -20.0909
   -13.5622 -12.4952 -12.1840 -11.1296 -10.2139  -9.9606  -9.9473  -8.8969
    -8.6240  -8.3364  -8.1940  -7.6099  -6.1743  -3.6584  -3.6159  -3.1541
    -2.5153  -0.3783  -0.2371   1.9729   2.1722   2.9139   3.2940   4.4717
     5.2682   5.3755   5.5305

          k = 0.2400 0.1386 0.0000 ( 11685 PWs)   bands (ev):

   -77.7946 -49.1518 -49.0431 -48.9626 -23.6980 -23.6352 -21.1785 -20.1031
   -13.5600 -12.4053 -12.1209 -11.1357 -10.1752  -9.9377  -9.9252  -8.9077
    -8.5958  -8.3201  -8.2098  -7.5995  -6.1535  -3.6402  -3.6065  -3.1691
    -2.5336  -0.3230  -0.1876   1.9490   2.1413   2.9080   3.2891   4.4178
     5.2261   5.3299   5.4769

          k = 0.2350 0.1357 0.0000 ( 11689 PWs)   bands (ev):

   -77.7952 -49.1472 -49.0421 -48.9635 -23.7359 -23.6726 -21.2026 -20.1154
   -13.5612 -12.3155 -12.0543 -11.1419 -10.1363  -9.9147  -9.9030  -8.9199
    -8.5665  -8.3091  -8.2201  -7.5886  -6.1320  -3.6220  -3.5971  -3.1838
    -2.5521  -0.2690  -0.1392   1.9249   2.1107   2.9024   3.2819   4.3618
     5.1844   5.2824   5.4219

          k = 0.2300 0.1328 0.0000 ( 11685 PWs)   bands (ev):

   -77.7959 -49.1425 -49.0410 -48.9644 -23.7732 -23.7094 -21.2266 -20.1276
   -13.5654 -12.2260 -11.9846 -11.1482 -10.0972  -9.8917  -9.8807  -8.9329
    -8.5365  -8.3074  -8.2207  -7.5775  -6.1099  -3.6038  -3.5878  -3.1982
    -2.5708  -0.2164  -0.0920   1.9013   2.0806   2.8970   3.2724   4.3037
     5.1432   5.2332   5.3657

          k = 0.2250 0.1299 0.0000 ( 11685 PWs)   bands (ev):

   -77.7965 -49.1379 -49.0399 -48.9652 -23.8100 -23.7456 -21.2505 -20.1399
   -13.5722 -12.1367 -11.9123 -11.1543 -10.0579  -9.8686  -9.8583  -8.9466
    -8.5061  -8.3157  -8.2110  -7.5661  -6.0872  -3.5856  -3.5785  -3.2122
    -2.5898  -0.1657  -0.0462   1.8785   2.0513   2.8912   3.2605   4.2439
     5.1027   5.1824   5.3084

          k = 0.2200 0.1270 0.0000 ( 11689 PWs)   bands (ev):

   -77.7971 -49.1333 -49.0389 -48.9661 -23.8461 -23.7812 -21.2742 -20.1521
   -13.5811 -12.0481 -11.8379 -11.1600 -10.0186  -9.8456  -9.8358  -8.9606
    -8.4756  -8.3301  -8.1951  -7.5544  -6.0640  -3.5693  -3.5675  -3.2257
    -2.6089  -0.1171  -0.0021   1.8571   2.0233   2.8850   3.2462   4.1827
     5.0630   5.1302   5.2501

          k = 0.2150 0.1241 0.0000 ( 11697 PWs)   bands (ev):

   -77.7977 -49.1287 -49.0378 -48.9669 -23.8816 -23.8162 -21.2978 -20.1643
   -13.5918 -11.9603 -11.7616 -11.1652  -9.9793  -9.8226  -9.8132  -8.9749
    -8.4451  -8.3472  -8.1762  -7.5425  -6.0404  -3.5600  -3.5495  -3.2387
    -2.6282  -0.0711   0.0400   1.8375   1.9967   2.8782   3.2296   4.1201
     5.0241   5.0767   5.1909

          k = 0.2100 0.1212 0.0000 ( 11693 PWs)   bands (ev):

   -77.7983 -49.1241 -49.0368 -48.9678 -23.9164 -23.8505 -21.3211 -20.1765
   -13.6041 -11.8737 -11.6838 -11.1695  -9.9400  -9.7996  -9.7906  -8.9894
    -8.4149  -8.3655  -8.1558  -7.5305  -6.0164  -3.5508  -3.5315  -3.2512
    -2.6476  -0.0280   0.0800   1.8202   1.9720   2.8705   3.2108   4.0566
     4.9862   5.0222   5.1312

          k = 0.2050 0.1184 0.0000 ( 11691 PWs)   bands (ev):

   -77.7989 -49.1196 -49.0358 -48.9686 -23.9505 -23.8841 -21.3442 -20.1886
   -13.6176 -11.7889 -11.6048 -11.1723  -9.9007  -9.7768  -9.7679  -9.0040
    -8.3849  -8.3843  -8.1346  -7.5183  -5.9921  -3.5416  -3.5136  -3.2629
    -2.6671   0.0115   0.1175   1.8055   1.9496   2.8619   3.1898   3.9923
     4.9492   4.9667   5.0709

          k = 0.2000 0.1155 0.0000 ( 11697 PWs)   bands (ev):

   -77.7995 -49.1151 -49.0348 -48.9694 -23.9840 -23.9171 -21.3670 -20.2005
   -13.6322 -11.7067 -11.5249 -11.1728  -9.8616  -9.7542  -9.7451  -9.0186
    -8.4033  -8.3552  -8.1130  -7.5060  -5.9675  -3.5323  -3.4959  -3.2740
    -2.6867   0.0471   0.1522   1.7939   1.9298   2.8523   3.1668   3.9274
     4.9105   4.9130   5.0103

          k = 0.1950 0.1126 0.0000 ( 11689 PWs)   bands (ev):

   -77.8001 -49.1107 -49.0337 -48.9703 -24.0168 -23.9494 -21.3896 -20.2124
   -13.6476 -11.6285 -11.4443 -11.1698  -9.8226  -9.7317  -9.7224  -9.0332
    -8.4222  -8.3260  -8.0912  -7.4937  -5.9428  -3.5230  -3.4783  -3.2843
    -2.7064   0.0781   0.1840   1.7859   1.9131   2.8417   3.1419   3.8622
     4.8538   4.8776   4.9494

          k = 0.1900 0.1097 0.0000 ( 11681 PWs)   bands (ev):

   -77.8007 -49.1063 -49.0327 -48.9711 -24.0489 -23.9811 -21.4118 -20.2242
   -13.6638 -11.5562 -11.3633 -11.1612  -9.7837  -9.7094  -9.6996  -9.0476
    -8.4411  -8.2973  -8.0692  -7.4815  -5.9181  -3.5137  -3.4608  -3.2938
    -2.7262   0.1043   0.2125   1.7817   1.8999   2.8302   3.1155   3.7969
     4.7966   4.8430   4.8885

          k = 0.1850 0.1068 0.0000 ( 11679 PWs)   bands (ev):

   -77.8013 -49.1020 -49.0318 -48.9719 -24.0803 -24.0120 -21.4338 -20.2358
   -13.6805 -11.4930 -11.2821 -11.1439  -9.7452  -9.6873  -9.6770  -9.0620
    -8.4597  -8.2691  -8.0471  -7.4694  -5.8932  -3.5043  -3.4436  -3.3025
    -2.7459   0.1251   0.2375   1.7815   1.8904   2.8176   3.0876   3.7316
     4.7392   4.8089   4.8276

          k = 0.1800 0.1039 0.0000 ( 11687 PWs)   bands (ev):

   -77.8018 -49.0977 -49.0308 -48.9727 -24.1109 -24.0422 -21.4553 -20.2472
   -13.6976 -11.4426 -11.2010 -11.1141  -9.7069  -9.6654  -9.6544  -9.0762
    -8.4782  -8.2414  -8.0251  -7.4574  -5.8685  -3.4949  -3.4265  -3.3101
    -2.7657   0.1405   0.2586   1.7855   1.8851   2.8042   3.0586   3.6667
     4.6817   4.7670   4.7754

          k = 0.1750 0.1010 0.0000 ( 11671 PWs)   bands (ev):

   -77.8024 -49.0934 -49.0298 -48.9735 -24.1408 -24.0717 -21.4766 -20.2585
   -13.7150 -11.4069 -11.1206 -11.0694  -9.6689  -9.6438  -9.6319  -9.0901
    -8.4963  -8.2143  -8.0032  -7.4457  -5.8439  -3.4855  -3.4097  -3.3168
    -2.7855   0.1502   0.2755   1.7938   1.8842   2.7900   3.0287   3.6022
     4.6243   4.7066   4.7423

          k = 0.1700 0.0981 0.0000 ( 11671 PWs)   bands (ev):

   -77.8029 -49.0893 -49.0289 -48.9742 -24.1700 -24.1004 -21.4974 -20.2697
   -13.7326 -11.3850 -11.0420 -11.0102  -9.6313  -9.6225  -9.6095  -9.1038
    -8.5141  -8.1878  -7.9813  -7.4344  -5.8195  -3.4761  -3.3931  -3.3224
    -2.8052   0.1544   0.2881   1.8062   1.8878   2.7751   2.9981   3.5384
     4.5670   4.6468   4.7096

          k = 0.1650 0.0953 0.0000 ( 11677 PWs)   bands (ev):

   -77.8035 -49.0852 -49.0279 -48.9750 -24.1984 -24.1284 -21.5178 -20.2806
   -13.7503 -11.3732 -10.9656 -10.9396  -9.6014  -9.5942  -9.5874  -9.1172
    -8.5316  -8.1618  -7.9596  -7.4235  -5.7953  -3.4666  -3.3768  -3.3269
    -2.8249   0.1531   0.2961   1.8224   1.8960   2.7596   2.9672   3.4756
     4.5101   4.5875   4.6770

          k = 0.1600 0.0924 0.0000 ( 11681 PWs)   bands (ev):

   -77.8040 -49.0812 -49.0270 -48.9757 -24.2261 -24.1556 -21.5378 -20.2913
   -13.7680 -11.3681 -10.8903 -10.8625  -9.5807  -9.5655  -9.5575  -9.1302
    -8.5487  -8.1365  -7.9381  -7.4130  -5.7715  -3.4573  -3.3607  -3.3302
    -2.8444   0.1468   0.2994   1.8422   1.9089   2.7437   2.9362   3.4140
     4.4536   4.5289   4.6446

          k = 0.1550 0.0895 0.0000 ( 11673 PWs)   bands (ev):

   -77.8045 -49.0772 -49.0261 -48.9765 -24.2530 -24.1821 -21.5574 -20.3018
   -13.7857 -11.3672 -10.8145 -10.7832  -9.5602  -9.5439  -9.5215  -9.1428
    -8.5654  -8.1118  -7.9167  -7.4031  -5.7481  -3.4480  -3.3449  -3.3321
    -2.8639   0.1357   0.2982   1.8651   1.9260   2.7274   2.9054   3.3539
     4.3978   4.4710   4.6123

          k = 0.1500 0.0866 0.0000 ( 11677 PWs)   bands (ev):

   -77.8050 -49.0734 -49.0253 -48.9772 -24.2791 -24.2079 -21.5765 -20.3121
   -13.8032 -11.3690 -10.7382 -10.7034  -9.5402  -9.5225  -9.4862  -9.1548
    -8.5816  -8.0877  -7.8957  -7.3939  -5.7252  -3.4388  -3.3328  -3.3295
    -2.8831   0.1202   0.2926   1.8906   1.9471   2.7109   2.8753   3.2956
     4.3426   4.4141   4.5799

          k = 0.1450 0.0837 0.0000 ( 11681 PWs)   bands (ev):

   -77.8055 -49.0696 -49.0244 -48.9779 -24.3044 -24.2328 -21.5951 -20.3222
   -13.8206 -11.3724 -10.6621 -10.6236  -9.5204  -9.5015  -9.4516  -9.1662
    -8.5975  -8.0641  -7.8749  -7.3853  -5.7029  -3.4299  -3.3319  -3.3144
    -2.9022   0.1008   0.2827   1.9181   1.9717   2.6942   2.8462   3.2395
     4.2883   4.3582   4.5474

          k = 0.1400 0.0808 0.0000 ( 11689 PWs)   bands (ev):

   -77.8060 -49.0659 -49.0236 -48.9785 -24.3289 -24.2570 -21.6132 -20.3320
   -13.8378 -11.3769 -10.5866 -10.5442  -9.5011  -9.4808  -9.4182  -9.1767
    -8.6129  -8.0412  -7.8544  -7.3776  -5.6811  -3.4212  -3.3296  -3.2996
    -2.9210   0.0778   0.2690   1.9471   1.9988   2.6773   2.8185   3.1860
     4.2349   4.3034   4.5148

          k = 0.1350 0.0779 0.0000 ( 11697 PWs)   bands (ev):

   -77.8065 -49.0623 -49.0228 -48.9792 -24.3526 -24.2803 -21.6309 -20.3415
   -13.8547 -11.3822 -10.5120 -10.4655  -9.4822  -9.4605  -9.3860  -9.1861
    -8.6278  -8.0188  -7.8342  -7.3707  -5.6600  -3.4128  -3.3258  -3.2852
    -2.9396   0.0518   0.2518   1.9770   2.0276   2.6601   2.7931   3.1358
     4.1826   4.2498   4.4820

          k = 0.1300 0.0751 0.0000 ( 11691 PWs)   bands (ev):

   -77.8070 -49.0588 -49.0220 -48.9798 -24.3755 -24.3029 -21.6480 -20.3508
   -13.8713 -11.3879 -10.4387 -10.3876  -9.4638  -9.4407  -9.3557  -9.1938
    -8.6423  -7.9970  -7.8145  -7.3647  -5.6396  -3.4047  -3.3204  -3.2712
    -2.9578   0.0232   0.2314   2.0073   2.0572   2.6423   2.7705   3.0896
     4.1314   4.1974   4.4490

          k = 0.1250 0.0722 0.0000 ( 11671 PWs)   bands (ev):

   -77.8074 -49.0554 -49.0212 -48.9805 -24.3976 -24.3247 -21.6645 -20.3598
   -13.8875 -11.3939 -10.3669 -10.3107  -9.4458  -9.4213  -9.3284  -9.1987
    -8.6563  -7.9757  -7.7951  -7.3597  -5.6200  -3.3970  -3.3136  -3.2576
    -2.9757  -0.0076   0.2084   2.0372   2.0863   2.6235   2.7519   3.0481
     4.0814   4.1464   4.4159

          k = 0.1200 0.0693 0.0000 ( 11673 PWs)   bands (ev):

   -77.8078 -49.0521 -49.0205 -48.9811 -24.4189 -24.3456 -21.6806 -20.3685
   -13.9033 -11.4001 -10.2968 -10.2349  -9.4284  -9.4023  -9.3058  -9.1990
    -8.6697  -7.9550  -7.7762  -7.3556  -5.6011  -3.3894  -3.3054  -3.2445
    -2.9933  -0.0403   0.1831   2.0659   2.1139   2.6029   2.7381   3.0125
     4.0328   4.0968   4.3824

          k = 0.1150 0.0664 0.0000 ( 11677 PWs)   bands (ev):

   -77.8083 -49.0489 -49.0197 -48.9816 -24.4394 -24.3657 -21.6960 -20.3769
   -13.9187 -11.4063 -10.2287 -10.1604  -9.4114  -9.3839  -9.2904  -9.1923
    -8.6827  -7.9348  -7.7577  -7.3527  -5.5831  -3.3819  -3.2961  -3.2319
    -3.0104  -0.0744   0.1558   2.0928   2.1388   2.5801   2.7302   2.9839
     3.9855   4.0487   4.3488

          k = 0.1100 0.0635 0.0000 ( 11681 PWs)   bands (ev):

   -77.8087 -49.0459 -49.0190 -48.9822 -24.4590 -24.3851 -21.7109 -20.3850
   -13.9336 -11.4125 -10.1626 -10.0874  -9.3950  -9.3660  -9.2833  -9.1775
    -8.6951  -7.9150  -7.7397  -7.3508  -5.5660  -3.3745  -3.2858  -3.2197
    -3.0270  -0.1096   0.1271   2.1168   2.1602   2.5549   2.7286   2.9632
     3.9397   4.0022   4.3149

          k = 0.1050 0.0606 0.0000 ( 11681 PWs)   bands (ev):

   -77.8091 -49.0429 -49.0184 -48.9828 -24.4777 -24.4036 -21.7253 -20.3928
   -13.9481 -11.4186 -10.0989 -10.0160  -9.3792  -9.3487  -9.2821  -9.1569
    -8.7070  -7.8958  -7.7223  -7.3500  -5.5497  -3.3670  -3.2746  -3.2081
    -3.0431  -0.1457   0.0972   2.1374   2.1772   2.5275   2.7335   2.9513
     3.8955   3.9573   4.2809

          k = 0.1000 0.0577 0.0000 ( 11693 PWs)   bands (ev):

   -77.8094 -49.0401 -49.0177 -48.9833 -24.4957 -24.4212 -21.7390 -20.4003
   -13.9620 -11.4246 -10.0376  -9.9463  -9.3641  -9.3320  -9.2841  -9.1333
    -8.7183  -7.8770  -7.7054  -7.3504  -5.5344  -3.3593  -3.2627  -3.1971
    -3.0586  -0.1822   0.0664   2.1539   2.1895   2.4980   2.7448   2.9486
     3.8528   3.9141   4.2466

          k = 0.0950 0.0548 0.0000 ( 11681 PWs)   bands (ev):

   -77.8098 -49.0373 -49.0171 -48.9838 -24.5128 -24.4381 -21.7521 -20.4075
   -13.9754 -11.4304  -9.9791  -9.8785  -9.3495  -9.3159  -9.2872  -9.1085
    -8.7291  -7.8586  -7.6891  -7.3519  -5.5199  -3.3515  -3.2504  -3.1868
    -3.0733  -0.2190   0.0352   2.1662   2.1971   2.4670   2.7622   2.9548
     3.8119   3.8727   4.2122

          k = 0.0900 0.0520 0.0000 ( 11685 PWs)   bands (ev):

   -77.8101 -49.0347 -49.0165 -48.9843 -24.5290 -24.4541 -21.7646 -20.4143
   -13.9882 -11.4361  -9.9234  -9.8127  -9.3356  -9.3004  -9.2905  -9.0836
    -8.7393  -7.8407  -7.6734  -7.3545  -5.5064  -3.3435  -3.2376  -3.1773
    -3.0871  -0.2557   0.0037   2.1741   2.2003   2.4350   2.7852   2.9692
     3.7727   3.8331   4.1776

          k = 0.0850 0.0491 0.0000 ( 11683 PWs)   bands (ev):

   -77.8105 -49.0323 -49.0160 -48.9847 -24.5444 -24.4692 -21.7765 -20.4208
   -14.0004 -11.4416  -9.8709  -9.7491  -9.3223  -9.2934  -9.2856  -9.0590
    -8.7489  -7.8231  -7.6584  -7.3583  -5.4939  -3.3353  -3.2246  -3.1691
    -3.0997  -0.2921  -0.0277   2.1780   2.1998   2.4028   2.8130   2.9906
     3.7353   3.7953   4.1429

          k = 0.0800 0.0462 0.0000 ( 11679 PWs)   bands (ev):

   -77.8108 -49.0299 -49.0154 -48.9851 -24.5589 -24.4835 -21.7877 -20.4270
   -14.0121 -11.4468  -9.8218  -9.6879  -9.3098  -9.2954  -9.2715  -9.0350
    -8.7579  -7.8059  -7.6441  -7.3632  -5.4822  -3.3270  -3.2115  -3.1628
    -3.1101  -0.3280  -0.0587   2.1782   2.1965   2.3710   2.8449   3.0178
     3.6997   3.7594   4.1081

          k = 0.0750 0.0433 0.0000 ( 11679 PWs)   bands (ev):

   -77.8111 -49.0277 -49.0149 -48.9855 -24.5726 -24.4970 -21.7984 -20.4328
   -14.0231 -11.4518  -9.7763  -9.6292  -9.2979  -9.2964  -9.2581  -9.0119
    -8.7664  -7.7891  -7.6304  -7.3691  -5.4715  -3.3186  -3.1983  -3.1599
    -3.1171  -0.3630  -0.0892   2.1751   2.1910   2.3402   2.8801   3.0494
     3.6661   3.7255   4.0732

          k = 0.0700 0.0404 0.0000 ( 11679 PWs)   bands (ev):

   -77.8113 -49.0256 -49.0145 -48.9859 -24.5854 -24.5096 -21.8083 -20.4382
   -14.0334 -11.4566  -9.7346  -9.5732  -9.2960  -9.2868  -9.2455  -8.9897
    -8.7743  -7.7725  -7.6175  -7.3761  -5.4617  -3.3103  -3.1852  -3.1620
    -3.1190  -0.3971  -0.1189   2.1691   2.1840   2.3109   2.9178   3.0841
     3.6344   3.6936   4.0382

          k = 0.0650 0.0375 0.0000 ( 11671 PWs)   bands (ev):

   -77.8116 -49.0236 -49.0140 -48.9863 -24.5973 -24.5213 -21.8176 -20.4434
   -14.0432 -11.4610  -9.6971  -9.5199  -9.2941  -9.2764  -9.2337  -8.9687
    -8.7816  -7.7563  -7.6054  -7.3841  -5.4527  -3.3019  -3.1724  -3.1681
    -3.1165  -0.4299  -0.1475   2.1608   2.1759   2.2839   2.9575   3.1209
     3.6047   3.6638   4.0032

          k = 0.0600 0.0346 0.0000 ( 11663 PWs)   bands (ev):

   -77.8118 -49.0218 -49.0136 -48.9866 -24.6083 -24.5322 -21.8263 -20.4481
   -14.0522 -11.4652  -9.6639  -9.4697  -9.2906  -9.2668  -9.2226  -8.9487
    -8.7883  -7.7403  -7.5940  -7.3930  -5.4446  -3.2938  -3.1762  -3.1598
    -3.1120  -0.4613  -0.1748   2.1507   2.1667   2.2596   2.9986   3.1588
     3.5771   3.6360   3.9682

          k = 0.0550 0.0318 0.0000 ( 11651 PWs)   bands (ev):

   -77.8120 -49.0201 -49.0132 -48.9869 -24.6185 -24.5422 -21.8342 -20.4525
   -14.0606 -11.4690  -9.6351  -9.4227  -9.2853  -9.2580  -9.2123  -8.9301
    -8.7944  -7.7245  -7.5835  -7.4028  -5.4373  -3.2858  -3.1848  -3.1477
    -3.1068  -0.4910  -0.2008   2.1390   2.1568   2.2385   3.0405   3.1970
     3.5515   3.6103   3.9331

          k = 0.0500 0.0289 0.0000 ( 11655 PWs)   bands (ev):

   -77.8122 -49.0186 -49.0129 -48.9872 -24.6278 -24.5514 -21.8415 -20.4565
   -14.0683 -11.4726  -9.6107  -9.3791  -9.2784  -9.2499  -9.2029  -8.9127
    -8.8000  -7.7090  -7.5738  -7.4134  -5.4308  -3.2782  -3.1932  -3.1362
    -3.1016  -0.5189  -0.2251   2.1260   2.1465   2.2209   3.0828   3.2346
     3.5280   3.5867   3.8979

          k = 0.0450 0.0260 0.0000 ( 11651 PWs)   bands (ev):

   -77.8124 -49.0172 -49.0126 -48.9875 -24.6362 -24.5597 -21.8482 -20.4601
   -14.0752 -11.4758  -9.5904  -9.3390  -9.2700  -9.2425  -9.1943  -8.8967
    -8.8050  -7.6937  -7.5649  -7.4247  -5.4250  -3.2710  -3.2011  -3.1253
    -3.0966  -0.5448  -0.2477   2.1119   2.1365   2.2065   3.1253   3.2711
     3.5067   3.5653   3.8628

          k = 0.0400 0.0231 0.0000 ( 11653 PWs)   bands (ev):

   -77.8126 -49.0159 -49.0123 -48.9877 -24.6438 -24.5671 -21.8541 -20.4634
   -14.0815 -11.4788  -9.5740  -9.3029  -9.2604  -9.2360  -9.1866  -8.8822
    -8.8094  -7.6785  -7.5569  -7.4366  -5.4200  -3.2643  -3.2084  -3.1152
    -3.0920  -0.5684  -0.2683   2.0974   2.1271   2.1949   3.1675   3.3059
     3.4876   3.5461   3.8277

          k = 0.0350 0.0202 0.0000 ( 11637 PWs)   bands (ev):

   -77.8127 -49.0148 -49.0120 -48.9879 -24.6504 -24.5736 -21.8593 -20.4663
   -14.0870 -11.4814  -9.5610  -9.2716  -9.2493  -9.2302  -9.1797  -8.8693
    -8.8133  -7.6635  -7.5499  -7.4491  -5.4156  -3.2581  -3.2149  -3.1060
    -3.0878  -0.5897  -0.2868   2.0831   2.1185   2.1854   3.2092   3.3383
     3.4706   3.5291   3.7926

          k = 0.0300 0.0173 0.0000 ( 11645 PWs)   bands (ev):

   -77.8129 -49.0139 -49.0118 -48.9881 -24.6562 -24.5793 -21.8639 -20.4688
   -14.0919 -11.4836  -9.5509  -9.2489  -9.2338  -9.2252  -9.1738  -8.8579
    -8.8166  -7.6487  -7.5437  -7.4620  -5.4119  -3.2526  -3.2207  -3.0978
    -3.0841  -0.6086  -0.3032   2.0698   2.1110   2.1778   3.2499   3.3680
     3.4559   3.5143   3.7577

          k = 0.0250 0.0144 0.0000 ( 11647 PWs)   bands (ev):

   -77.8130 -49.0131 -49.0116 -48.9882 -24.6611 -24.5841 -21.8678 -20.4709
   -14.0960 -11.4855  -9.5432  -9.2363  -9.2210  -9.2127  -9.1687  -8.8481
    -8.8194  -7.6341  -7.5384  -7.4752  -5.4088  -3.2478  -3.2256  -3.0907
    -3.0810  -0.6247  -0.3172   2.0579   2.1045   2.1716   3.2893   3.3946
     3.4434   3.5018   3.7232

          k = 0.0200 0.0115 0.0000 ( 11637 PWs)   bands (ev):

   -77.8131 -49.0124 -49.0115 -48.9883 -24.6651 -24.5881 -21.8709 -20.4726
   -14.0993 -11.4871  -9.5375  -9.2275  -9.2176  -9.1932  -9.1646  -8.8401
    -8.8217  -7.6199  -7.5341  -7.4884  -5.4064  -3.2438  -3.2296  -3.0847
    -3.0784  -0.6381  -0.3288   2.0478   2.0992   2.1667   3.3267   3.4177
     3.4331   3.4915   3.6893

          k = 0.0150 0.0087 0.0000 ( 11631 PWs)   bands (ev):

   -77.8131 -49.0119 -49.0114 -48.9884 -24.6682 -24.5911 -21.8734 -20.4740
   -14.1019 -11.4883  -9.5335  -9.2206  -9.2149  -9.1776  -9.1613  -8.8338
    -8.8235  -7.6062  -7.5308  -7.5013  -5.4045  -3.2406  -3.2328  -3.0800
    -3.0764  -0.6486  -0.3379   2.0397   2.0949   2.1630   3.3607   3.4251
     3.4375   3.4835   3.6568

          k = 0.0100 0.0058 0.0000 ( 11627 PWs)   bands (ev):

   -77.8132 -49.0115 -49.0113 -48.9885 -24.6704 -24.5933 -21.8751 -20.4750
   -14.1038 -11.4892  -9.5307  -9.2155  -9.2130  -9.1662  -9.1590  -8.8293
    -8.8247  -7.5938  -7.5283  -7.5133  -5.4031  -3.2383  -3.2350  -3.0766
    -3.0749  -0.6562  -0.3445   2.0339   2.0919   2.1604   3.3889   3.4194
     3.4542   3.4778   3.6272

          k = 0.0050 0.0029 0.0000 ( 11615 PWs)   bands (ev):

   -77.8132 -49.0113 -49.0112 -48.9885 -24.6718 -24.5946 -21.8762 -20.4755
   -14.1049 -11.4897  -9.5292  -9.2125  -9.2118  -9.1594  -9.1576  -8.8265
    -8.8255  -7.5840  -7.5269  -7.5228  -5.4023  -3.2372  -3.2362  -3.0745
    -3.0740  -0.6608  -0.3484   2.0303   2.0901   2.1588   3.4079   3.4160
     3.4676   3.4744   3.6043

          k = 0.0000 0.0000 0.0000 ( 11637 PWs)   bands (ev):

   -77.8132 -49.0112 -49.0112 -48.9886 -24.6722 -24.5951 -21.8765 -20.4757
   -14.1053 -11.4899  -9.5287  -9.2115  -9.2114  -9.1571  -9.1571  -8.8258
    -8.8256  -7.5800  -7.5270  -7.5262  -5.4021  -3.2372  -3.2361  -3.0739
    -3.0737  -0.6623  -0.3497   2.0291   2.0895   2.1583   3.4144   3.4150
     3.4731   3.4736   3.5950

     Writing all to output data dir ./tmp/crsi2n4.save/ :
     XML data file, pseudopotentials, collected wavefunctions
 
     init_run     :      1.38s CPU      1.46s WALL (       1 calls)
     electrons    :    529.54s CPU    532.45s WALL (       1 calls)

     Called by init_run:
     wfcinit      :      0.00s CPU      0.00s WALL (       1 calls)
     wfcinit:atom :      0.21s CPU      0.22s WALL (     261 calls)
     wfcinit:wfcr :      9.71s CPU      9.80s WALL (     261 calls)
     potinit      :      0.69s CPU      0.73s WALL (       1 calls)
     hinit0       :      0.29s CPU      0.30s WALL (       1 calls)

     Called by electrons:
     c_bands      :    529.54s CPU    532.44s WALL (       1 calls)
     v_of_rho     :      0.02s CPU      0.06s WALL (       1 calls)
     v_h          :      0.00s CPU      0.01s WALL (       1 calls)
     v_xc         :      0.02s CPU      0.05s WALL (       1 calls)

     Called by c_bands:
     init_us_2    :      0.15s CPU      0.19s WALL (     261 calls)
     cegterg      :    518.59s CPU    520.83s WALL (    1069 calls)

     Called by sum_band:

     Called by *egterg:
     cdiaghg      :     83.42s CPU     83.86s WALL (   19148 calls)
                                       83.74s GPU  (   19148 calls)
     cegterg:over :    113.54s CPU    113.74s WALL (   18887 calls)
     cegterg:upda :     32.59s CPU     32.70s WALL (   18887 calls)
     cegterg:last :     39.38s CPU     39.45s WALL (    8719 calls)
     h_psi        :    240.48s CPU    242.41s WALL (   20217 calls)
                                      242.27s GPU  (   20217 calls)
     g_psi        :      0.17s CPU      2.61s WALL (   18887 calls)
                                        2.52s GPU  (   18887 calls)

     Called by h_psi:
     h_psi:calbec :      1.61s CPU     35.86s WALL (   20217 calls)
                                       35.72s GPU  (   20217 calls)
     vloc_psi     :    173.06s CPU    174.76s WALL (   20217 calls)
                                      174.65s GPU  (   20217 calls)
     add_vuspsi   :      5.96s CPU     29.86s WALL (   20217 calls)
                                       29.72s GPU  (   20217 calls)

     General routines
     calbec       :      1.52s CPU      1.60s WALL (   20217 calls)
     fft          :      0.33s CPU      0.34s WALL (      11 calls)
                                        0.01s GPU  (      10 calls)
     ffts         :      0.33s CPU      0.33s WALL (       1 calls)
     fftw         :      2.03s CPU    147.17s WALL (   65596 calls)
                                      146.81s GPU  (   65596 calls)
     interpolate  :      0.66s CPU      0.66s WALL (       1 calls)
     davcio       :      0.09s CPU      0.88s WALL (     522 calls)
 
     Parallel routines
 
     PWSCF        :   8m51.85s CPU   8m56.02s WALL

 
   This run was terminated on:   1:40: 7  13Mar2026            

=------------------------------------------------------------------------------=
   JOB DONE.
=------------------------------------------------------------------------------=
