28

Cr         2.21219        0.34833        8.88378
N          0.80434        1.16116        7.73431
N          0.80434        1.16115       10.04778
N          2.21231        0.34824       12.36383
N         -0.60339        1.97391        5.44002
Si         0.80445        1.16110        5.98834
Si         0.80458        1.16100       11.80626
Cr         0.80441        2.78667        8.88378
N         -0.60345        3.59950        7.73431
N         -0.60345        3.59949       10.04778
N          0.80453        2.78659       12.36383
N         -2.01117        4.41226        5.44002
Si        -0.60333        3.59944        5.98834
Si        -0.60320        3.59934       11.80626
Cr         5.02775        0.34833        8.88378
N          3.61990        1.16116        7.73431
N          3.61990        1.16115       10.04778
N          5.02787        0.34824       12.36383
N          2.21217        1.97391        5.44002
Si         3.62001        1.16110        5.98834
Si         3.62013        1.16100       11.80626
Cr         3.61997        2.78667        8.88378
N          2.21211        3.59950        7.73431
N          2.21211        3.59949       10.04778
N          3.62009        2.78659       12.36383
N          0.80439        4.41226        5.44002
Si         2.21223        3.59944        5.98834
Si         2.21236        3.59934       11.80626
