28

Cr         2.16751        0.34128        8.88489
N          0.78816        1.13766        7.72476
N          0.78806        1.13771       10.05747
N          2.16756        0.34124       12.39809
N         -0.59114        1.93400        5.40428
Si         0.78822        1.13763        5.98199
Si         0.78824        1.13759       11.81285
Cr         0.78817        2.73037        8.88489
N         -0.59118        3.52674        7.72476
N         -0.59128        3.52679       10.05747
N          0.78822        2.73033       12.39809
N         -1.97048        4.32309        5.40428
Si        -0.59112        3.52672        5.98199
Si        -0.59110        3.52668       11.81285
Cr         4.92619        0.34128        8.88489
N          3.54684        1.13766        7.72476
N          3.54674        1.13771       10.05747
N          4.92624        0.34124       12.39809
N          2.16754        1.93400        5.40428
Si         3.54690        1.13763        5.98199
Si         3.54692        1.13759       11.81285
Cr         3.54685        2.73037        8.88489
N          2.16750        3.52674        7.72476
N          2.16740        3.52679       10.05747
N          3.54690        2.73033       12.39809
N          0.78820        4.32309        5.40428
Si         2.16756        3.52672        5.98199
Si         2.16758        3.52668       11.81285
