28

Cr         2.12279        0.33426        8.88594
N          0.77192        1.11419        7.71486
N          0.77178        1.11427       10.06774
N          2.12287        0.33420       12.43545
N         -0.57893        1.89412        5.36544
Si         0.77200        1.11416        5.97507
Si         0.77199        1.11413       11.81984
Cr         0.77189        2.67409        8.88594
N         -0.57898        3.45402        7.71486
N         -0.57912        3.45410       10.06774
N          0.77197        2.67403       12.43545
N         -1.92984        4.23394        5.36544
Si        -0.57890        3.45398        5.97507
Si        -0.57891        3.45396       11.81984
Cr         4.82459        0.33426        8.88594
N          3.47372        1.11419        7.71486
N          3.47358        1.11427       10.06774
N          4.82467        0.33420       12.43545
N          2.12287        1.89412        5.36544
Si         3.47380        1.11416        5.97507
Si         3.47379        1.11413       11.81984
Cr         3.47369        2.67409        8.88594
N          2.12282        3.45402        7.71486
N          2.12268        3.45410       10.06774
N          3.47377        2.67403       12.43545
N          0.77197        4.23394        5.36544
Si         2.12290        3.45398        5.97507
Si         2.12289        3.45396       11.81984
