28

Cr         2.34578        0.36971        8.88135
N          0.85242        1.23192        7.75518
N          0.85271        1.23173       10.02613
N          2.34639        0.36935       12.28576
N         -0.63902        2.09300        5.52184
Si         0.85380        1.23112        6.00122
Si         0.85332        1.23137       11.79285
Cr         0.85268        2.95584        8.88135
N         -0.64068        3.81804        7.75518
N         -0.64039        3.81786       10.02613
N          0.85329        2.95548       12.28576
N         -2.13212        4.67912        5.52184
Si        -0.63930        3.81725        6.00122
Si        -0.63978        3.81750       11.79285
Cr         5.33198        0.36971        8.88135
N          3.83861        1.23192        7.75518
N          3.83891        1.23173       10.02613
N          5.33259        0.36935       12.28576
N          2.34718        2.09300        5.52184
Si         3.84000        1.23112        6.00122
Si         3.83952        1.23137       11.79285
Cr         3.83888        2.95584        8.88135
N          2.34551        3.81804        7.75518
N          2.34581        3.81786       10.02613
N          3.83949        2.95548       12.28576
N          0.85408        4.67912        5.52184
Si         2.34690        3.81725        6.00122
Si         2.34642        3.81750       11.79285
