
     Program PWSCF v.7.4.1 starts on 13Mar2026 at  4:33:43 

     This program is part of the open-source Quantum ESPRESSO suite
     for quantum simulation of materials; please cite
         "P. Giannozzi et al., J. Phys.:Condens. Matter 21 395502 (2009);
         "P. Giannozzi et al., J. Phys.:Condens. Matter 29 465901 (2017);
         "P. Giannozzi et al., J. Chem. Phys. 152 154105 (2020);
          URL http://www.quantum-espresso.org", 
     in publications or presentations arising from this work. More details at
     http://www.quantum-espresso.org/quote

     Parallel version (MPI), running on     1 processors

     MPI processes distributed on     1 nodes
     9106 MiB available memory on the printing compute node when the environment starts
 
     Reading input from scf.in

     Current dimensions of program PWSCF are:
     Max number of different atomic species (ntypx) = 10
     Max number of k-points (npk) =  40000
     Max angular momentum in pseudopotentials (lmaxx) =  4
     Message from routine setup:
     no reason to have ecutrho>4*ecutwfc
 
     Subspace diagonalization in iterative solution of the eigenvalue problem:
     a serial algorithm will be used

 
     G-vector sticks info
     --------------------
     sticks:   dense  smooth     PW     G-vecs:    dense   smooth      PW
     Sum         871     703    199               145911   104473   16411
 
     Using Slab Decomposition
 


     bravais-lattice index     =            4
     lattice parameter (alat)  =       5.6431  a.u.
     unit-cell volume          =    1082.2310 (a.u.)^3
     number of atoms/cell      =            7
     number of atomic types    =            3
     number of electrons       =        42.00
     number of Kohn-Sham states=           21
     kinetic-energy cutoff     =      80.0000  Ry
     charge density cutoff     =     400.0000  Ry
     scf convergence threshold =      1.0E-10
     mixing beta               =       0.5000
     number of iterations used =            8  plain     mixing
     Exchange-correlation= PBE
                           (   1   4   3   4   0   0   0)

     GPU acceleration is ACTIVE.  1 visible GPUs per MPI rank
     GPU-aware MPI enabled


     GPU used by master process:

        Device Number: 0
        Device name: NVIDIA RTX A2000 12GB
        Compute capability : 86
        Ratio of single to double precision performance  : 64
        Memory Clock Rate (KHz): 6001000
        Memory Bus Width (bits): 192
        Peak Memory Bandwidth (GB/s): 288.05

     celldm(1)=   5.643100  celldm(2)=   0.000000  celldm(3)=   6.954022
     celldm(4)=   0.000000  celldm(5)=   0.000000  celldm(6)=   0.000000

     crystal axes: (cart. coord. in units of alat)
               a(1) = (   1.000000   0.000000   0.000000 )  
               a(2) = (  -0.500000   0.866025   0.000000 )  
               a(3) = (   0.000000   0.000000   6.954022 )  

     reciprocal axes: (cart. coord. in units 2 pi/alat)
               b(1) = (  1.000000  0.577350 -0.000000 )  
               b(2) = (  0.000000  1.154701  0.000000 )  
               b(3) = (  0.000000 -0.000000  0.143802 )  


     PseudoPot. # 1 for Cr read from file:
     /home/rao/Desktop/pseudo/ONCVPSP/sg15/Cr_ONCV_PBE_sr.upf
     MD5 check sum: 8c25700f94aee329d8014e8d8708abb4
     Pseudo is Norm-conserving, Zval = 14.0
     Generated using ONCVPSP code by D. R. Hamann
     Using radial grid of 1490 points,  6 beta functions with: 
                l(1) =   0
                l(2) =   0
                l(3) =   1
                l(4) =   1
                l(5) =   2
                l(6) =   2

     PseudoPot. # 2 for Si read from file:
     /home/rao/Desktop/pseudo/ONCVPSP/sg15/Si_ONCV_PBE_sr.upf
     MD5 check sum: 8553c464762ac42b85b1eed164b4d029
     Pseudo is Norm-conserving, Zval =  4.0
     Generated using ONCVPSP code by D. R. Hamann
     Using radial grid of 1510 points,  4 beta functions with: 
                l(1) =   0
                l(2) =   0
                l(3) =   1
                l(4) =   1

     PseudoPot. # 3 for N  read from file:
     /home/rao/Desktop/pseudo/ONCVPSP/sg15/N_ONCV_PBE_sr.upf
     MD5 check sum: 584dff68b02d160f04ff099e3496afa1
     Pseudo is Norm-conserving, Zval =  5.0
     Generated using ONCVPSP code by D. R. Hamann
     Using radial grid of 1058 points,  4 beta functions with: 
                l(1) =   0
                l(2) =   0
                l(3) =   1
                l(4) =   1

     atomic species   valence    mass     pseudopotential
     Cr               14.00    51.99600     Cr( 1.00)
     Si                4.00    28.08600     Si( 1.00)
     N                 5.00    14.00700     N ( 1.00)

     No symmetry found


                                    s                        frac. trans.

      isym =  1     identity                                     

 cryst.   s( 1) = (     1          0          0      )
                  (     0          1          0      )
                  (     0          0          1      )

 cart.    s( 1) = (  1.0000000  0.0000000  0.0000000 )
                  (  0.0000000  1.0000000  0.0000000 )
                  (  0.0000000  0.0000000  1.0000000 )


     point group C_1 (1)    
     there are  1 classes
     the character table:

       E    
A      1.00

     the symmetry operations in each class and the name of the first element:

     E        1
          identity                                               

   Cartesian axes

     site n.     atom                  positions (alat units)
         1        Cr     tau(   1) = (   0.7855412   0.1238071   2.9741314  )
         2        N      tau(   2) = (   0.2854514   0.4125359   2.5970044  )
         3        N      tau(   3) = (   0.2855503   0.4124751   3.3574876  )
         4        N      tau(   4) = (   0.7857434   0.1236859   4.1141787  )
         5        N      tau(   5) = (  -0.2139897   0.7008906   1.8491189  )
         6        Si     tau(   6) = (   0.2859161   0.4122699   2.0096514  )
         7        Si     tau(   7) = (   0.2857543   0.4123546   3.9491163  )

   Crystallographic axes

     site n.     atom                  positions (cryst. coord.)
         1        Cr     tau(   1) = (  0.8570213  0.1429601  0.4276851  )
         2        N      tau(   2) = (  0.5236291  0.4763554  0.3734536  )
         3        N      tau(   3) = (  0.5236929  0.4762852  0.4828123  )
         4        N      tau(   4) = (  0.8571535  0.1428202  0.5916258  )
         5        N      tau(   5) = (  0.1906697  0.8093187  0.2659064  )
         6        Si     tau(   6) = (  0.5239403  0.4760483  0.2889912  )
         7        Si     tau(   7) = (  0.5238273  0.4761460  0.5678895  )

     number of k points=    61
                       cart. coord. in units 2pi/alat
        k(    1) = (   0.0000000   0.0000000   0.0000000), wk =   0.0165289
        k(    2) = (   0.0000000   0.1049728   0.0000000), wk =   0.0330579
        k(    3) = (   0.0000000   0.2099456   0.0000000), wk =   0.0330579
        k(    4) = (   0.0000000   0.3149183   0.0000000), wk =   0.0330579
        k(    5) = (   0.0000000   0.4198911   0.0000000), wk =   0.0330579
        k(    6) = (   0.0000000   0.5248639   0.0000000), wk =   0.0330579
        k(    7) = (   0.0909091   0.1574592   0.0000000), wk =   0.0330579
        k(    8) = (   0.0909091   0.2624319   0.0000000), wk =   0.0330579
        k(    9) = (   0.0909091   0.3674047   0.0000000), wk =   0.0330579
        k(   10) = (   0.0909091   0.4723775   0.0000000), wk =   0.0330579
        k(   11) = (   0.0909091   0.5773503   0.0000000), wk =   0.0330579
        k(   12) = (   0.1818182   0.3149183   0.0000000), wk =   0.0330579
        k(   13) = (   0.1818182   0.4198911   0.0000000), wk =   0.0330579
        k(   14) = (   0.1818182   0.5248639   0.0000000), wk =   0.0330579
        k(   15) = (   0.2727273   0.4723775   0.0000000), wk =   0.0330579
        k(   16) = (   0.2727273   0.5773503   0.0000000), wk =   0.0330579
        k(   17) = (  -0.0909091   0.0524864   0.0000000), wk =   0.0330579
        k(   18) = (   0.0909091   0.0524864   0.0000000), wk =   0.0330579
        k(   19) = (  -0.1818182   0.1049728   0.0000000), wk =   0.0330579
        k(   20) = (   0.1818182   0.1049728   0.0000000), wk =   0.0330579
        k(   21) = (  -0.2727273   0.1574592   0.0000000), wk =   0.0330579
        k(   22) = (   0.2727273   0.1574592   0.0000000), wk =   0.0330579
        k(   23) = (  -0.3636364   0.2099456   0.0000000), wk =   0.0330579
        k(   24) = (   0.3636364   0.2099456   0.0000000), wk =   0.0330579
        k(   25) = (  -0.4545455   0.2624319   0.0000000), wk =   0.0330579
        k(   26) = (   0.4545455   0.2624319   0.0000000), wk =   0.0330579
        k(   27) = (  -0.0909091   0.1574592   0.0000000), wk =   0.0330579
        k(   28) = (   0.1818182  -0.0000000   0.0000000), wk =   0.0330579
        k(   29) = (  -0.0909091   0.2624319   0.0000000), wk =   0.0330579
        k(   30) = (  -0.1818182   0.2099456   0.0000000), wk =   0.0330579
        k(   31) = (   0.2727273   0.0524864   0.0000000), wk =   0.0330579
        k(   32) = (  -0.1818182  -0.2099456   0.0000000), wk =   0.0330579
        k(   33) = (   0.2727273  -0.0524864   0.0000000), wk =   0.0330579
        k(   34) = (  -0.0909091   0.3674047   0.0000000), wk =   0.0330579
        k(   35) = (  -0.2727273   0.2624319   0.0000000), wk =   0.0330579
        k(   36) = (   0.3636364   0.1049728   0.0000000), wk =   0.0330579
        k(   37) = (  -0.2727273  -0.2624319   0.0000000), wk =   0.0330579
        k(   38) = (   0.3636364  -0.1049728   0.0000000), wk =   0.0330579
        k(   39) = (  -0.0909091   0.4723775   0.0000000), wk =   0.0330579
        k(   40) = (  -0.3636364   0.3149183   0.0000000), wk =   0.0330579
        k(   41) = (   0.4545455   0.1574592   0.0000000), wk =   0.0330579
        k(   42) = (  -0.3636364  -0.3149183   0.0000000), wk =   0.0330579
        k(   43) = (   0.4545455  -0.1574592   0.0000000), wk =   0.0330579
        k(   44) = (  -0.4545455   0.3674047   0.0000000), wk =   0.0330579
        k(   45) = (   0.5454545   0.2099456   0.0000000), wk =   0.0330579
        k(   46) = (  -0.1818182   0.3149183   0.0000000), wk =   0.0330579
        k(   47) = (   0.3636364  -0.0000000   0.0000000), wk =   0.0330579
        k(   48) = (  -0.1818182   0.4198911   0.0000000), wk =   0.0330579
        k(   49) = (  -0.2727273   0.3674047   0.0000000), wk =   0.0330579
        k(   50) = (   0.4545455   0.0524864   0.0000000), wk =   0.0330579
        k(   51) = (  -0.2727273  -0.3674047   0.0000000), wk =   0.0330579
        k(   52) = (   0.4545455  -0.0524864   0.0000000), wk =   0.0330579
        k(   53) = (  -0.1818182   0.5248639   0.0000000), wk =   0.0330579
        k(   54) = (  -0.3636364   0.4198911   0.0000000), wk =   0.0330579
        k(   55) = (   0.5454545   0.1049728   0.0000000), wk =   0.0330579
        k(   56) = (  -0.3636364  -0.4198911   0.0000000), wk =   0.0330579
        k(   57) = (   0.5454545  -0.1049728   0.0000000), wk =   0.0330579
        k(   58) = (  -0.2727273   0.4723775   0.0000000), wk =   0.0330579
        k(   59) = (   0.5454545  -0.0000000   0.0000000), wk =   0.0330579
        k(   60) = (  -0.3636364   0.5248639   0.0000000), wk =   0.0330579
        k(   61) = (   0.6363636   0.0524864   0.0000000), wk =   0.0330579

                       cryst. coord.
        k(    1) = (   0.0000000   0.0000000   0.0000000), wk =   0.0165289
        k(    2) = (   0.0000000   0.0909091   0.0000000), wk =   0.0330579
        k(    3) = (   0.0000000   0.1818182   0.0000000), wk =   0.0330579
        k(    4) = (   0.0000000   0.2727273   0.0000000), wk =   0.0330579
        k(    5) = (   0.0000000   0.3636364   0.0000000), wk =   0.0330579
        k(    6) = (   0.0000000   0.4545455   0.0000000), wk =   0.0330579
        k(    7) = (   0.0909091   0.0909091   0.0000000), wk =   0.0330579
        k(    8) = (   0.0909091   0.1818182   0.0000000), wk =   0.0330579
        k(    9) = (   0.0909091   0.2727273   0.0000000), wk =   0.0330579
        k(   10) = (   0.0909091   0.3636364   0.0000000), wk =   0.0330579
        k(   11) = (   0.0909091   0.4545455   0.0000000), wk =   0.0330579
        k(   12) = (   0.1818182   0.1818182   0.0000000), wk =   0.0330579
        k(   13) = (   0.1818182   0.2727273   0.0000000), wk =   0.0330579
        k(   14) = (   0.1818182   0.3636364   0.0000000), wk =   0.0330579
        k(   15) = (   0.2727273   0.2727273   0.0000000), wk =   0.0330579
        k(   16) = (   0.2727273   0.3636364   0.0000000), wk =   0.0330579
        k(   17) = (  -0.0909091   0.0909091   0.0000000), wk =   0.0330579
        k(   18) = (   0.0909091  -0.0000000   0.0000000), wk =   0.0330579
        k(   19) = (  -0.1818182   0.1818182   0.0000000), wk =   0.0330579
        k(   20) = (   0.1818182  -0.0000000   0.0000000), wk =   0.0330579
        k(   21) = (  -0.2727273   0.2727273   0.0000000), wk =   0.0330579
        k(   22) = (   0.2727273  -0.0000000   0.0000000), wk =   0.0330579
        k(   23) = (  -0.3636364   0.3636364   0.0000000), wk =   0.0330579
        k(   24) = (   0.3636364  -0.0000000   0.0000000), wk =   0.0330579
        k(   25) = (  -0.4545455   0.4545455   0.0000000), wk =   0.0330579
        k(   26) = (   0.4545455   0.0000000   0.0000000), wk =   0.0330579
        k(   27) = (  -0.0909091   0.1818182   0.0000000), wk =   0.0330579
        k(   28) = (   0.1818182  -0.0909091   0.0000000), wk =   0.0330579
        k(   29) = (  -0.0909091   0.2727273   0.0000000), wk =   0.0330579
        k(   30) = (  -0.1818182   0.2727273   0.0000000), wk =   0.0330579
        k(   31) = (   0.2727273  -0.0909091   0.0000000), wk =   0.0330579
        k(   32) = (  -0.1818182  -0.0909091   0.0000000), wk =   0.0330579
        k(   33) = (   0.2727273  -0.1818182   0.0000000), wk =   0.0330579
        k(   34) = (  -0.0909091   0.3636364   0.0000000), wk =   0.0330579
        k(   35) = (  -0.2727273   0.3636364   0.0000000), wk =   0.0330579
        k(   36) = (   0.3636364  -0.0909091   0.0000000), wk =   0.0330579
        k(   37) = (  -0.2727273  -0.0909091   0.0000000), wk =   0.0330579
        k(   38) = (   0.3636364  -0.2727273   0.0000000), wk =   0.0330579
        k(   39) = (  -0.0909091   0.4545455   0.0000000), wk =   0.0330579
        k(   40) = (  -0.3636364   0.4545455   0.0000000), wk =   0.0330579
        k(   41) = (   0.4545455  -0.0909091   0.0000000), wk =   0.0330579
        k(   42) = (  -0.3636364  -0.0909091   0.0000000), wk =   0.0330579
        k(   43) = (   0.4545455  -0.3636364   0.0000000), wk =   0.0330579
        k(   44) = (  -0.4545455   0.5454545   0.0000000), wk =   0.0330579
        k(   45) = (   0.5454545  -0.0909091   0.0000000), wk =   0.0330579
        k(   46) = (  -0.1818182   0.3636364   0.0000000), wk =   0.0330579
        k(   47) = (   0.3636364  -0.1818182   0.0000000), wk =   0.0330579
        k(   48) = (  -0.1818182   0.4545455   0.0000000), wk =   0.0330579
        k(   49) = (  -0.2727273   0.4545455   0.0000000), wk =   0.0330579
        k(   50) = (   0.4545455  -0.1818182   0.0000000), wk =   0.0330579
        k(   51) = (  -0.2727273  -0.1818182   0.0000000), wk =   0.0330579
        k(   52) = (   0.4545455  -0.2727273   0.0000000), wk =   0.0330579
        k(   53) = (  -0.1818182   0.5454545   0.0000000), wk =   0.0330579
        k(   54) = (  -0.3636364   0.5454545   0.0000000), wk =   0.0330579
        k(   55) = (   0.5454545  -0.1818182   0.0000000), wk =   0.0330579
        k(   56) = (  -0.3636364  -0.1818182   0.0000000), wk =   0.0330579
        k(   57) = (   0.5454545  -0.3636364   0.0000000), wk =   0.0330579
        k(   58) = (  -0.2727273   0.5454545   0.0000000), wk =   0.0330579
        k(   59) = (   0.5454545  -0.2727273   0.0000000), wk =   0.0330579
        k(   60) = (  -0.3636364   0.6363636   0.0000000), wk =   0.0330579
        k(   61) = (   0.6363636  -0.2727273   0.0000000), wk =   0.0330579

     Dense  grid:   145911 G-vectors     FFT dimensions: (  36,  36, 250)

     Smooth grid:   104473 G-vectors     FFT dimensions: (  36,  36, 225)

     Dynamical RAM for                 wfc:       4.19 MB

     Dynamical RAM for     wfc (w. buffer):     259.80 MB

     Dynamical RAM for           str. fact:       6.68 MB

     Dynamical RAM for           local pot:       0.00 MB

     Dynamical RAM for          nlocal pot:      13.17 MB

     Dynamical RAM for                qrad:       4.82 MB

     Dynamical RAM for          rho,v,vnew:      14.10 MB

     Dynamical RAM for               rhoin:       4.70 MB

     Dynamical RAM for            rho*nmix:      35.62 MB

     Dynamical RAM for           G-vectors:       9.15 MB

     Dynamical RAM for          h,s,v(r/c):       0.08 MB

     Dynamical RAM for          <psi|beta>:       0.02 MB

     Dynamical RAM for                 psi:       8.38 MB

     Dynamical RAM for                hpsi:       8.38 MB

     Dynamical RAM for      wfcinit/wfcrot:       8.39 MB

     Estimated static dynamical RAM per process >     333.67 MB

     Estimated max dynamical RAM per process >     386.16 MB
 ----2D----2D----2D----2D----2D----2D----2D----2D----2D----2D----2D----2D
  The code is running with the 2D cutoff
  Please refer to:
  Sohier, T., Calandra, M., & Mauri, F. (2017), 
  Density functional perturbation theory for gated two-dimensional heterostructures:
  Theoretical developments and application to flexural phonons in graphene.
  Physical Review B, 96(7), 75448. https://doi.org/10.1103/PhysRevB.96.075448
 ----2D----2D----2D----2D----2D----2D----2D----2D----2D----2D----2D----2D

     Initial potential from superposition of free atoms

     starting charge      41.9980, renormalised to      42.0000

     negative rho (up, down):  1.116E-06 0.000E+00
     Starting wfcs are   34 randomized atomic wfcs

     total cpu time spent up to now is        3.7 secs

     Self-consistent Calculation
[tb_dev] Currently allocated     1.51E+00 Mbytes, locked:    0 /   5
[tb_pin] Currently allocated     0.00E+00 Mbytes, locked:    0 /   0

     iteration #  1     ecut=    80.00 Ry     beta= 0.50
     Davidson diagonalization with overlap

---- Real-time Memory Report at c_bands before calling an iterative solver
           939 MiB given to the printing process from OS
             0 MiB allocation reported by mallinfo(arena+hblkhd)
          8582 MiB available memory on the node where the printing process lives
     GPU memory used/free/total (MiB): 2071 / 9843 / 11914
------------------
     ethr =  1.00E-02,  avg # of iterations =  2.0

     total cpu time spent up to now is        9.1 secs

     total energy              =    -262.36135814 Ry
     estimated scf accuracy    <       2.37320069 Ry
[tb_dev] Currently allocated     2.67E-05 Mbytes, locked:    0 /   1
[tb_pin] Currently allocated     0.00E+00 Mbytes, locked:    0 /   0

     iteration #  2     ecut=    80.00 Ry     beta= 0.50
     Davidson diagonalization with overlap

---- Real-time Memory Report at c_bands before calling an iterative solver
           954 MiB given to the printing process from OS
             0 MiB allocation reported by mallinfo(arena+hblkhd)
          8564 MiB available memory on the node where the printing process lives
     GPU memory used/free/total (MiB): 2097 / 9817 / 11914
------------------
     ethr =  5.65E-03,  avg # of iterations =  9.4

     total cpu time spent up to now is       20.5 secs

     total energy              =    -261.37177078 Ry
     estimated scf accuracy    <      13.46878754 Ry
[tb_dev] Currently allocated     2.67E-05 Mbytes, locked:    0 /   1
[tb_pin] Currently allocated     0.00E+00 Mbytes, locked:    0 /   0

     iteration #  3     ecut=    80.00 Ry     beta= 0.50
     Davidson diagonalization with overlap

---- Real-time Memory Report at c_bands before calling an iterative solver
           976 MiB given to the printing process from OS
             0 MiB allocation reported by mallinfo(arena+hblkhd)
          8544 MiB available memory on the node where the printing process lives
     GPU memory used/free/total (MiB): 2097 / 9817 / 11914
------------------
     ethr =  5.65E-03,  avg # of iterations =  7.2

     total cpu time spent up to now is       29.2 secs

     total energy              =    -262.96365200 Ry
     estimated scf accuracy    <       3.08896181 Ry
[tb_dev] Currently allocated     2.67E-05 Mbytes, locked:    0 /   1
[tb_pin] Currently allocated     0.00E+00 Mbytes, locked:    0 /   0

     iteration #  4     ecut=    80.00 Ry     beta= 0.50
     Davidson diagonalization with overlap

---- Real-time Memory Report at c_bands before calling an iterative solver
           980 MiB given to the printing process from OS
             0 MiB allocation reported by mallinfo(arena+hblkhd)
          8539 MiB available memory on the node where the printing process lives
     GPU memory used/free/total (MiB): 2097 / 9817 / 11914
------------------
     ethr =  5.65E-03,  avg # of iterations =  4.2

     total cpu time spent up to now is       36.5 secs

     total energy              =    -263.25041262 Ry
     estimated scf accuracy    <       0.32676222 Ry
[tb_dev] Currently allocated     2.67E-05 Mbytes, locked:    0 /   1
[tb_pin] Currently allocated     0.00E+00 Mbytes, locked:    0 /   0

     iteration #  5     ecut=    80.00 Ry     beta= 0.50
     Davidson diagonalization with overlap

---- Real-time Memory Report at c_bands before calling an iterative solver
           984 MiB given to the printing process from OS
             0 MiB allocation reported by mallinfo(arena+hblkhd)
          8539 MiB available memory on the node where the printing process lives
     GPU memory used/free/total (MiB): 2097 / 9817 / 11914
------------------
     ethr =  7.78E-04,  avg # of iterations =  4.2

     total cpu time spent up to now is       43.1 secs

     total energy              =    -263.27612835 Ry
     estimated scf accuracy    <       0.12260282 Ry
[tb_dev] Currently allocated     2.67E-05 Mbytes, locked:    0 /   1
[tb_pin] Currently allocated     0.00E+00 Mbytes, locked:    0 /   0

     iteration #  6     ecut=    80.00 Ry     beta= 0.50
     Davidson diagonalization with overlap

---- Real-time Memory Report at c_bands before calling an iterative solver
           987 MiB given to the printing process from OS
             0 MiB allocation reported by mallinfo(arena+hblkhd)
          8534 MiB available memory on the node where the printing process lives
     GPU memory used/free/total (MiB): 2097 / 9817 / 11914
------------------
     ethr =  2.92E-04,  avg # of iterations =  4.7

     total cpu time spent up to now is       49.9 secs

     total energy              =    -263.28733973 Ry
     estimated scf accuracy    <       0.02839677 Ry
[tb_dev] Currently allocated     2.67E-05 Mbytes, locked:    0 /   1
[tb_pin] Currently allocated     0.00E+00 Mbytes, locked:    0 /   0

     iteration #  7     ecut=    80.00 Ry     beta= 0.50
     Davidson diagonalization with overlap

---- Real-time Memory Report at c_bands before calling an iterative solver
           994 MiB given to the printing process from OS
             0 MiB allocation reported by mallinfo(arena+hblkhd)
          8525 MiB available memory on the node where the printing process lives
     GPU memory used/free/total (MiB): 2097 / 9817 / 11914
------------------
     ethr =  6.76E-05,  avg # of iterations =  7.3

     total cpu time spent up to now is       58.9 secs

     total energy              =    -263.29900183 Ry
     estimated scf accuracy    <       0.03209140 Ry
[tb_dev] Currently allocated     2.67E-05 Mbytes, locked:    0 /   1
[tb_pin] Currently allocated     0.00E+00 Mbytes, locked:    0 /   0

     iteration #  8     ecut=    80.00 Ry     beta= 0.50
     Davidson diagonalization with overlap

---- Real-time Memory Report at c_bands before calling an iterative solver
          1000 MiB given to the printing process from OS
             0 MiB allocation reported by mallinfo(arena+hblkhd)
          8523 MiB available memory on the node where the printing process lives
     GPU memory used/free/total (MiB): 2097 / 9817 / 11914
------------------
     ethr =  6.76E-05,  avg # of iterations =  1.9

     total cpu time spent up to now is       63.5 secs

     total energy              =    -263.29516523 Ry
     estimated scf accuracy    <       0.02236428 Ry
[tb_dev] Currently allocated     2.67E-05 Mbytes, locked:    0 /   1
[tb_pin] Currently allocated     0.00E+00 Mbytes, locked:    0 /   0

     iteration #  9     ecut=    80.00 Ry     beta= 0.50
     Davidson diagonalization with overlap

---- Real-time Memory Report at c_bands before calling an iterative solver
          1005 MiB given to the printing process from OS
             0 MiB allocation reported by mallinfo(arena+hblkhd)
          8517 MiB available memory on the node where the printing process lives
     GPU memory used/free/total (MiB): 2097 / 9817 / 11914
------------------
     ethr =  5.32E-05,  avg # of iterations =  5.0

     total cpu time spent up to now is       70.8 secs

     total energy              =    -263.29841499 Ry
     estimated scf accuracy    <       0.00678809 Ry
[tb_dev] Currently allocated     2.67E-05 Mbytes, locked:    0 /   1
[tb_pin] Currently allocated     0.00E+00 Mbytes, locked:    0 /   0

     iteration # 10     ecut=    80.00 Ry     beta= 0.50
     Davidson diagonalization with overlap

---- Real-time Memory Report at c_bands before calling an iterative solver
          1012 MiB given to the printing process from OS
             0 MiB allocation reported by mallinfo(arena+hblkhd)
          8508 MiB available memory on the node where the printing process lives
     GPU memory used/free/total (MiB): 2097 / 9817 / 11914
------------------
     ethr =  1.62E-05,  avg # of iterations =  2.1

     total cpu time spent up to now is       75.6 secs

     total energy              =    -263.29733402 Ry
     estimated scf accuracy    <       0.00377164 Ry
[tb_dev] Currently allocated     2.67E-05 Mbytes, locked:    0 /   1
[tb_pin] Currently allocated     0.00E+00 Mbytes, locked:    0 /   0

     iteration # 11     ecut=    80.00 Ry     beta= 0.50
     Davidson diagonalization with overlap

---- Real-time Memory Report at c_bands before calling an iterative solver
          1012 MiB given to the printing process from OS
             0 MiB allocation reported by mallinfo(arena+hblkhd)
          8509 MiB available memory on the node where the printing process lives
     GPU memory used/free/total (MiB): 2097 / 9817 / 11914
------------------
     ethr =  8.98E-06,  avg # of iterations =  6.4

     total cpu time spent up to now is       83.7 secs

     total energy              =    -263.29850566 Ry
     estimated scf accuracy    <       0.00228505 Ry
[tb_dev] Currently allocated     2.67E-05 Mbytes, locked:    0 /   1
[tb_pin] Currently allocated     0.00E+00 Mbytes, locked:    0 /   0

     iteration # 12     ecut=    80.00 Ry     beta= 0.50
     Davidson diagonalization with overlap

---- Real-time Memory Report at c_bands before calling an iterative solver
          1012 MiB given to the printing process from OS
             0 MiB allocation reported by mallinfo(arena+hblkhd)
          8508 MiB available memory on the node where the printing process lives
     GPU memory used/free/total (MiB): 2097 / 9817 / 11914
------------------
     ethr =  5.44E-06,  avg # of iterations =  2.0

     total cpu time spent up to now is       88.4 secs

     total energy              =    -263.29816488 Ry
     estimated scf accuracy    <       0.00092496 Ry
[tb_dev] Currently allocated     2.67E-05 Mbytes, locked:    0 /   1
[tb_pin] Currently allocated     0.00E+00 Mbytes, locked:    0 /   0

     iteration # 13     ecut=    80.00 Ry     beta= 0.50
     Davidson diagonalization with overlap

---- Real-time Memory Report at c_bands before calling an iterative solver
          1012 MiB given to the printing process from OS
             0 MiB allocation reported by mallinfo(arena+hblkhd)
          8507 MiB available memory on the node where the printing process lives
     GPU memory used/free/total (MiB): 2097 / 9817 / 11914
------------------
     ethr =  2.20E-06,  avg # of iterations =  8.3

     total cpu time spent up to now is       98.2 secs

     total energy              =    -263.29871566 Ry
     estimated scf accuracy    <       0.00351963 Ry
[tb_dev] Currently allocated     2.67E-05 Mbytes, locked:    0 /   1
[tb_pin] Currently allocated     0.00E+00 Mbytes, locked:    0 /   0

     iteration # 14     ecut=    80.00 Ry     beta= 0.50
     Davidson diagonalization with overlap

---- Real-time Memory Report at c_bands before calling an iterative solver
          1012 MiB given to the printing process from OS
             0 MiB allocation reported by mallinfo(arena+hblkhd)
          8501 MiB available memory on the node where the printing process lives
     GPU memory used/free/total (MiB): 2099 / 9815 / 11914
------------------
     ethr =  2.20E-06,  avg # of iterations =  2.7

     total cpu time spent up to now is      103.6 secs

     total energy              =    -263.29832770 Ry
     estimated scf accuracy    <       0.00191233 Ry
[tb_dev] Currently allocated     2.67E-05 Mbytes, locked:    0 /   1
[tb_pin] Currently allocated     0.00E+00 Mbytes, locked:    0 /   0

     iteration # 15     ecut=    80.00 Ry     beta= 0.50
     Davidson diagonalization with overlap

---- Real-time Memory Report at c_bands before calling an iterative solver
          1012 MiB given to the printing process from OS
             0 MiB allocation reported by mallinfo(arena+hblkhd)
          8501 MiB available memory on the node where the printing process lives
     GPU memory used/free/total (MiB): 2099 / 9815 / 11914
------------------
     ethr =  2.20E-06,  avg # of iterations =  6.0

     total cpu time spent up to now is      111.2 secs

     total energy              =    -263.29870595 Ry
     estimated scf accuracy    <       0.00006538 Ry
[tb_dev] Currently allocated     2.67E-05 Mbytes, locked:    0 /   1
[tb_pin] Currently allocated     0.00E+00 Mbytes, locked:    0 /   0

     iteration # 16     ecut=    80.00 Ry     beta= 0.50
     Davidson diagonalization with overlap

---- Real-time Memory Report at c_bands before calling an iterative solver
          1012 MiB given to the printing process from OS
             0 MiB allocation reported by mallinfo(arena+hblkhd)
          8500 MiB available memory on the node where the printing process lives
     GPU memory used/free/total (MiB): 2099 / 9815 / 11914
------------------
     ethr =  1.56E-07,  avg # of iterations =  6.3

     total cpu time spent up to now is      119.4 secs

     total energy              =    -263.29867954 Ry
     estimated scf accuracy    <       0.00028230 Ry
[tb_dev] Currently allocated     2.67E-05 Mbytes, locked:    0 /   1
[tb_pin] Currently allocated     0.00E+00 Mbytes, locked:    0 /   0

     iteration # 17     ecut=    80.00 Ry     beta= 0.50
     Davidson diagonalization with overlap

---- Real-time Memory Report at c_bands before calling an iterative solver
          1013 MiB given to the printing process from OS
             0 MiB allocation reported by mallinfo(arena+hblkhd)
          8498 MiB available memory on the node where the printing process lives
     GPU memory used/free/total (MiB): 2099 / 9815 / 11914
------------------
     ethr =  1.56E-07,  avg # of iterations =  5.0

     total cpu time spent up to now is      126.8 secs

     total energy              =    -263.29868289 Ry
     estimated scf accuracy    <       0.00005720 Ry
[tb_dev] Currently allocated     2.67E-05 Mbytes, locked:    0 /   1
[tb_pin] Currently allocated     0.00E+00 Mbytes, locked:    0 /   0

     iteration # 18     ecut=    80.00 Ry     beta= 0.50
     Davidson diagonalization with overlap

---- Real-time Memory Report at c_bands before calling an iterative solver
          1013 MiB given to the printing process from OS
             0 MiB allocation reported by mallinfo(arena+hblkhd)
          8495 MiB available memory on the node where the printing process lives
     GPU memory used/free/total (MiB): 2099 / 9815 / 11914
------------------
     ethr =  1.36E-07,  avg # of iterations =  4.9

     total cpu time spent up to now is      134.1 secs

     total energy              =    -263.29868954 Ry
     estimated scf accuracy    <       0.00000491 Ry
[tb_dev] Currently allocated     2.67E-05 Mbytes, locked:    0 /   1
[tb_pin] Currently allocated     0.00E+00 Mbytes, locked:    0 /   0

     iteration # 19     ecut=    80.00 Ry     beta= 0.50
     Davidson diagonalization with overlap

---- Real-time Memory Report at c_bands before calling an iterative solver
          1013 MiB given to the printing process from OS
             0 MiB allocation reported by mallinfo(arena+hblkhd)
          8493 MiB available memory on the node where the printing process lives
     GPU memory used/free/total (MiB): 2099 / 9815 / 11914
------------------
     ethr =  1.17E-08,  avg # of iterations =  6.8

     total cpu time spent up to now is      143.2 secs

     total energy              =    -263.29869246 Ry
     estimated scf accuracy    <       0.00000106 Ry
[tb_dev] Currently allocated     2.67E-05 Mbytes, locked:    0 /   1
[tb_pin] Currently allocated     0.00E+00 Mbytes, locked:    0 /   0

     iteration # 20     ecut=    80.00 Ry     beta= 0.50
     Davidson diagonalization with overlap

---- Real-time Memory Report at c_bands before calling an iterative solver
          1013 MiB given to the printing process from OS
             0 MiB allocation reported by mallinfo(arena+hblkhd)
          8493 MiB available memory on the node where the printing process lives
     GPU memory used/free/total (MiB): 2099 / 9815 / 11914
------------------
     ethr =  2.53E-09,  avg # of iterations =  2.7

     total cpu time spent up to now is      148.4 secs

     total energy              =    -263.29869236 Ry
     estimated scf accuracy    <       0.00000037 Ry
[tb_dev] Currently allocated     2.67E-05 Mbytes, locked:    0 /   1
[tb_pin] Currently allocated     0.00E+00 Mbytes, locked:    0 /   0

     iteration # 21     ecut=    80.00 Ry     beta= 0.50
     Davidson diagonalization with overlap

---- Real-time Memory Report at c_bands before calling an iterative solver
          1013 MiB given to the printing process from OS
             0 MiB allocation reported by mallinfo(arena+hblkhd)
          8493 MiB available memory on the node where the printing process lives
     GPU memory used/free/total (MiB): 2099 / 9815 / 11914
------------------
     ethr =  8.78E-10,  avg # of iterations =  7.8

     total cpu time spent up to now is      157.7 secs

     total energy              =    -263.29869251 Ry
     estimated scf accuracy    <       0.00000098 Ry
[tb_dev] Currently allocated     2.67E-05 Mbytes, locked:    0 /   1
[tb_pin] Currently allocated     0.00E+00 Mbytes, locked:    0 /   0

     iteration # 22     ecut=    80.00 Ry     beta= 0.50
     Davidson diagonalization with overlap

---- Real-time Memory Report at c_bands before calling an iterative solver
          1014 MiB given to the printing process from OS
             0 MiB allocation reported by mallinfo(arena+hblkhd)
          8498 MiB available memory on the node where the printing process lives
     GPU memory used/free/total (MiB): 2099 / 9815 / 11914
------------------
     ethr =  8.78E-10,  avg # of iterations =  4.5

     total cpu time spent up to now is      164.6 secs

     total energy              =    -263.29869248 Ry
     estimated scf accuracy    <       0.00000024 Ry
[tb_dev] Currently allocated     2.67E-05 Mbytes, locked:    0 /   1
[tb_pin] Currently allocated     0.00E+00 Mbytes, locked:    0 /   0

     iteration # 23     ecut=    80.00 Ry     beta= 0.50
     Davidson diagonalization with overlap

---- Real-time Memory Report at c_bands before calling an iterative solver
          1014 MiB given to the printing process from OS
             0 MiB allocation reported by mallinfo(arena+hblkhd)
          8507 MiB available memory on the node where the printing process lives
     GPU memory used/free/total (MiB): 2099 / 9815 / 11914
------------------
     ethr =  5.78E-10,  avg # of iterations =  6.1

     total cpu time spent up to now is      172.4 secs

     total energy              =    -263.29869257 Ry
     estimated scf accuracy    <       0.00000012 Ry
[tb_dev] Currently allocated     2.67E-05 Mbytes, locked:    0 /   1
[tb_pin] Currently allocated     0.00E+00 Mbytes, locked:    0 /   0

     iteration # 24     ecut=    80.00 Ry     beta= 0.50
     Davidson diagonalization with overlap

---- Real-time Memory Report at c_bands before calling an iterative solver
          1014 MiB given to the printing process from OS
             0 MiB allocation reported by mallinfo(arena+hblkhd)
          8506 MiB available memory on the node where the printing process lives
     GPU memory used/free/total (MiB): 2099 / 9815 / 11914
------------------
     ethr =  2.77E-10,  avg # of iterations =  1.0

     total cpu time spent up to now is      176.5 secs

     total energy              =    -263.29869254 Ry
     estimated scf accuracy    <       0.00000010 Ry
[tb_dev] Currently allocated     2.67E-05 Mbytes, locked:    0 /   1
[tb_pin] Currently allocated     0.00E+00 Mbytes, locked:    0 /   0

     iteration # 25     ecut=    80.00 Ry     beta= 0.50
     Davidson diagonalization with overlap

---- Real-time Memory Report at c_bands before calling an iterative solver
          1014 MiB given to the printing process from OS
             0 MiB allocation reported by mallinfo(arena+hblkhd)
          8504 MiB available memory on the node where the printing process lives
     GPU memory used/free/total (MiB): 2099 / 9815 / 11914
------------------
     ethr =  2.37E-10,  avg # of iterations =  5.6

     total cpu time spent up to now is      184.1 secs

     total energy              =    -263.29869257 Ry
     estimated scf accuracy    <       0.00000003 Ry
[tb_dev] Currently allocated     2.67E-05 Mbytes, locked:    0 /   1
[tb_pin] Currently allocated     0.00E+00 Mbytes, locked:    0 /   0

     iteration # 26     ecut=    80.00 Ry     beta= 0.50
     Davidson diagonalization with overlap

---- Real-time Memory Report at c_bands before calling an iterative solver
          1014 MiB given to the printing process from OS
             0 MiB allocation reported by mallinfo(arena+hblkhd)
          8501 MiB available memory on the node where the printing process lives
     GPU memory used/free/total (MiB): 2099 / 9815 / 11914
------------------
     ethr =  6.50E-11,  avg # of iterations =  3.4

     total cpu time spent up to now is      190.3 secs

     total energy              =    -263.29869256 Ry
     estimated scf accuracy    <       0.00000004 Ry
[tb_dev] Currently allocated     2.67E-05 Mbytes, locked:    0 /   1
[tb_pin] Currently allocated     0.00E+00 Mbytes, locked:    0 /   0

     iteration # 27     ecut=    80.00 Ry     beta= 0.50
     Davidson diagonalization with overlap

---- Real-time Memory Report at c_bands before calling an iterative solver
          1014 MiB given to the printing process from OS
             0 MiB allocation reported by mallinfo(arena+hblkhd)
          8499 MiB available memory on the node where the printing process lives
     GPU memory used/free/total (MiB): 2099 / 9815 / 11914
------------------
     ethr =  6.50E-11,  avg # of iterations =  1.9

     total cpu time spent up to now is      194.9 secs

     total energy              =    -263.29869256 Ry
     estimated scf accuracy    <       0.00000002 Ry
[tb_dev] Currently allocated     2.67E-05 Mbytes, locked:    0 /   1
[tb_pin] Currently allocated     0.00E+00 Mbytes, locked:    0 /   0

     iteration # 28     ecut=    80.00 Ry     beta= 0.50
     Davidson diagonalization with overlap

---- Real-time Memory Report at c_bands before calling an iterative solver
          1014 MiB given to the printing process from OS
             0 MiB allocation reported by mallinfo(arena+hblkhd)
          8500 MiB available memory on the node where the printing process lives
     GPU memory used/free/total (MiB): 2099 / 9815 / 11914
------------------
     ethr =  5.54E-11,  avg # of iterations =  4.6

     total cpu time spent up to now is      201.8 secs

     total energy              =    -263.29869256 Ry
     estimated scf accuracy    <          1.1E-09 Ry
[tb_dev] Currently allocated     2.67E-05 Mbytes, locked:    0 /   1
[tb_pin] Currently allocated     0.00E+00 Mbytes, locked:    0 /   0

     iteration # 29     ecut=    80.00 Ry     beta= 0.50
     Davidson diagonalization with overlap

---- Real-time Memory Report at c_bands before calling an iterative solver
          1014 MiB given to the printing process from OS
             0 MiB allocation reported by mallinfo(arena+hblkhd)
          8500 MiB available memory on the node where the printing process lives
     GPU memory used/free/total (MiB): 2099 / 9815 / 11914
------------------
     ethr =  2.72E-12,  avg # of iterations =  8.8

     total cpu time spent up to now is      212.5 secs

     total energy              =    -263.29869256 Ry
     estimated scf accuracy    <          3.5E-10 Ry
[tb_dev] Currently allocated     2.67E-05 Mbytes, locked:    0 /   1
[tb_pin] Currently allocated     0.00E+00 Mbytes, locked:    0 /   0

     iteration # 30     ecut=    80.00 Ry     beta= 0.50
     Davidson diagonalization with overlap

---- Real-time Memory Report at c_bands before calling an iterative solver
          1014 MiB given to the printing process from OS
             0 MiB allocation reported by mallinfo(arena+hblkhd)
          8499 MiB available memory on the node where the printing process lives
     GPU memory used/free/total (MiB): 2099 / 9815 / 11914
------------------
     ethr =  8.42E-13,  avg # of iterations =  3.2

     total cpu time spent up to now is      218.5 secs

     End of self-consistent calculation

          k = 0.0000 0.0000 0.0000 ( 12939 PWs)   bands (ev):

   -77.7477 -48.9979 -48.9979 -48.8328 -23.5050 -23.3855 -21.0348 -19.6463
   -13.2220 -10.4542  -9.1705  -9.1697  -9.0877  -9.0853  -8.6559  -8.6309
    -8.6308  -7.3672  -7.3661  -6.9475  -5.1496

     occupation numbers 
     1.0000   1.0000   1.0000   1.0000   1.0000   1.0000   1.0000   1.0000
     1.0000   1.0000   1.0000   1.0000   1.0000   1.0000   1.0000   1.0000
     1.0000   1.0000   1.0000   1.0000   1.0000

          k = 0.0000 0.1050 0.0000 ( 12978 PWs)   bands (ev):

   -77.7463 -49.0107 -49.0009 -48.8306 -23.3814 -23.2633 -20.9504 -19.6046
   -13.1404 -10.4278  -9.7730  -9.6941  -9.2895  -9.2157  -8.8735  -8.5591
    -8.4948  -7.4994  -7.4821  -6.8438  -5.2434

     occupation numbers 
     1.0000   1.0000   1.0000   1.0000   1.0000   1.0000   1.0000   1.0000
     1.0000   1.0000   1.0000   1.0000   1.0000   1.0000   1.0000   1.0000
     1.0000   1.0000   1.0000   1.0000   1.0000

          k = 0.0000 0.2099 0.0000 ( 13034 PWs)   bands (ev):

   -77.7425 -49.0448 -49.0088 -48.8248 -23.0217 -22.9076 -20.7217 -19.4959
   -12.9763 -11.1309 -10.9214 -10.2607  -9.5970  -9.5338  -9.4087  -8.3430
    -8.2802  -7.7962  -7.7640  -6.9095  -5.5695

     occupation numbers 
     1.0000   1.0000   1.0000   1.0000   1.0000   1.0000   1.0000   1.0000
     1.0000   1.0000   1.0000   1.0000   1.0000   1.0000   1.0000   1.0000
     1.0000   1.0000   1.0000   1.0000   1.0000

          k = 0.0000 0.3149 0.0000 ( 13068 PWs)   bands (ev):

   -77.7374 -49.0892 -49.0191 -48.8171 -22.4655 -22.3572 -20.4246 -19.3717
   -13.2200 -12.5712 -11.7637 -10.2618  -9.9634  -9.9304  -9.9007  -8.2773
    -8.1091  -8.0236  -8.0065  -7.0498  -5.8950

     occupation numbers 
     1.0000   1.0000   1.0000   1.0000   1.0000   1.0000   1.0000   1.0000
     1.0000   1.0000   1.0000   1.0000   1.0000   1.0000   1.0000   1.0000
     1.0000   1.0000   1.0000   1.0000   1.0000

          k = 0.0000 0.4199 0.0000 ( 13070 PWs)   bands (ev):

   -77.7328 -49.1298 -49.0286 -48.8100 -21.8056 -21.7047 -20.1886 -19.3174
   -14.1694 -13.8070 -11.7415 -10.6672 -10.2677 -10.2008 -10.0684  -8.6166
    -8.3616  -7.8186  -7.6952  -7.1117  -6.0035

     occupation numbers 
     1.0000   1.0000   1.0000   1.0000   1.0000   1.0000   1.0000   1.0000
     1.0000   1.0000   1.0000   1.0000   1.0000   1.0000   1.0000   1.0000
     1.0000   1.0000   1.0000   1.0000   1.0000

          k = 0.0000 0.5249 0.0000 ( 13094 PWs)   bands (ev):

   -77.7301 -49.1538 -49.0342 -48.8058 -21.2635 -21.1724 -20.1320 -19.3752
   -14.8656 -14.5337 -11.5865 -11.0231 -10.4360 -10.3661 -10.1660  -8.7290
    -8.5083  -7.6282  -7.4807  -7.1189  -5.9751

     occupation numbers 
     1.0000   1.0000   1.0000   1.0000   1.0000   1.0000   1.0000   1.0000
     1.0000   1.0000   1.0000   1.0000   1.0000   1.0000   1.0000   1.0000
     1.0000   1.0000   1.0000   1.0000   1.0000

          k = 0.0909 0.1575 0.0000 ( 13020 PWs)   bands (ev):

   -77.7437 -49.0334 -49.0071 -48.8266 -23.1396 -23.0242 -20.7937 -19.5292
   -13.0126 -10.7152 -10.5469 -10.2524  -9.6441  -9.5426  -9.1358  -8.4485
    -8.3309  -7.8019  -7.5751  -6.8527  -5.4641

     occupation numbers 
     1.0000   1.0000   1.0000   1.0000   1.0000   1.0000   1.0000   1.0000
     1.0000   1.0000   1.0000   1.0000   1.0000   1.0000   1.0000   1.0000
     1.0000   1.0000   1.0000   1.0000   1.0000

          k = 0.0909 0.2624 0.0000 ( 13049 PWs)   bands (ev):

   -77.7392 -49.0707 -49.0181 -48.8198 -22.6801 -22.5696 -20.5293 -19.4109
   -12.9913 -11.9471 -11.4879 -10.2739 -10.1621  -9.9930  -9.5653  -8.3467
    -8.2186  -8.1016  -7.6773  -7.0049  -5.7993

     occupation numbers 
     1.0000   1.0000   1.0000   1.0000   1.0000   1.0000   1.0000   1.0000
     1.0000   1.0000   1.0000   1.0000   1.0000   1.0000   1.0000   1.0000
     1.0000   1.0000   1.0000   1.0000   1.0000

          k = 0.0909 0.3674 0.0000 ( 13095 PWs)   bands (ev):

   -77.7344 -49.1111 -49.0302 -48.8124 -22.0645 -21.9604 -20.2589 -19.3179
   -13.6651 -13.2212 -11.7563 -10.7365 -10.5040 -10.1235  -9.9624  -8.7885
    -8.0384  -7.9750  -7.7654  -7.1094  -6.0060

     occupation numbers 
     1.0000   1.0000   1.0000   1.0000   1.0000   1.0000   1.0000   1.0000
     1.0000   1.0000   1.0000   1.0000   1.0000   1.0000   1.0000   1.0000
     1.0000   1.0000   1.0000   1.0000   1.0000

          k = 0.0909 0.4724 0.0000 ( 13100 PWs)   bands (ev):

   -77.7307 -49.1417 -49.0394 -48.8068 -21.4338 -21.3386 -20.1198 -19.3290
   -14.5244 -14.1819 -11.6394 -11.0738 -10.7528 -10.4772 -10.0795  -8.9285
    -8.2794  -7.8169  -7.6001  -7.0808  -6.0101

     occupation numbers 
     1.0000   1.0000   1.0000   1.0000   1.0000   1.0000   1.0000   1.0000
     1.0000   1.0000   1.0000   1.0000   1.0000   1.0000   1.0000   1.0000
     1.0000   1.0000   1.0000   1.0000   1.0000

          k = 0.0909 0.5774 0.0000 ( 13104 PWs)   bands (ev):

   -77.7293 -49.1531 -49.0428 -48.8047 -21.1171 -21.0285 -20.1270 -19.3864
   -14.8790 -14.5439 -11.5723 -11.2007 -10.7568 -10.7147 -10.1544  -8.8732
    -8.4505  -7.7525  -7.4880  -7.0533  -5.9715

     occupation numbers 
     1.0000   1.0000   1.0000   1.0000   1.0000   1.0000   1.0000   1.0000
     1.0000   1.0000   1.0000   1.0000   1.0000   1.0000   1.0000   1.0000
     1.0000   1.0000   1.0000   1.0000   1.0000

          k = 0.1818 0.3149 0.0000 ( 13098 PWs)   bands (ev):

   -77.7350 -49.1005 -49.0343 -48.8133 -22.1565 -22.0513 -20.2881 -19.3200
   -13.3933 -12.8446 -11.6649 -11.0330 -10.8693 -10.0224  -9.8558  -8.9244
    -8.1639  -7.9657  -7.5169  -7.1884  -6.0115

     occupation numbers 
     1.0000   1.0000   1.0000   1.0000   1.0000   1.0000   1.0000   1.0000
     1.0000   1.0000   1.0000   1.0000   1.0000   1.0000   1.0000   1.0000
     1.0000   1.0000   1.0000   1.0000   1.0000

          k = 0.1818 0.4199 0.0000 ( 13115 PWs)   bands (ev):

   -77.7311 -49.1257 -49.0513 -48.8074 -21.5438 -21.4459 -20.1124 -19.2928
   -14.0718 -13.6816 -11.7812 -11.5834 -11.3357 -10.2007 -10.0016  -9.2207
    -8.2687  -7.9775  -7.5336  -7.1264  -6.0545

     occupation numbers 
     1.0000   1.0000   1.0000   1.0000   1.0000   1.0000   1.0000   1.0000
     1.0000   1.0000   1.0000   1.0000   1.0000   1.0000   1.0000   1.0000
     1.0000   1.0000   1.0000   1.0000   1.0000

          k = 0.1818 0.5249 0.0000 ( 13104 PWs)   bands (ev):

   -77.7288 -49.1399 -49.0620 -48.8038 -21.0486 -20.9599 -20.0929 -19.3535
   -14.5731 -14.2181 -12.0733 -11.9117 -11.0986 -10.5587 -10.1687  -9.0526
    -8.5040  -8.1721  -7.4517  -6.9724  -5.9695

     occupation numbers 
     1.0000   1.0000   1.0000   1.0000   1.0000   1.0000   1.0000   1.0000
     1.0000   1.0000   1.0000   1.0000   1.0000   1.0000   1.0000   1.0000
     1.0000   1.0000   1.0000   1.0000   1.0000

          k = 0.2727 0.4724 0.0000 ( 13132 PWs)   bands (ev):

   -77.7286 -49.1287 -49.0756 -48.8035 -21.0346 -20.9455 -20.0714 -19.3304
   -14.2944 -13.8940 -12.5662 -12.4300 -11.1382 -10.2896 -10.1311  -9.2557
    -8.7579  -8.1602  -7.4510  -6.9590  -5.9621

     occupation numbers 
     1.0000   1.0000   1.0000   1.0000   1.0000   1.0000   1.0000   1.0000
     1.0000   1.0000   1.0000   1.0000   1.0000   1.0000   1.0000   1.0000
     1.0000   1.0000   1.0000   1.0000   1.0000

          k = 0.2727 0.5774 0.0000 ( 13088 PWs)   bands (ev):

   -77.7277 -49.1259 -49.0886 -48.8021 -20.7918 -20.7014 -20.1105 -19.3748
   -14.3465 -13.9258 -12.9096 -12.8186 -10.9240 -10.4067 -10.1558  -9.3510
    -8.7815  -8.4139  -7.3929  -6.8626  -5.8770

     occupation numbers 
     1.0000   1.0000   1.0000   1.0000   1.0000   1.0000   1.0000   1.0000
     1.0000   1.0000   1.0000   1.0000   1.0000   1.0000   1.0000   1.0000
     1.0000   1.0000   1.0000   1.0000   1.0000

          k =-0.0909 0.0525 0.0000 ( 12978 PWs)   bands (ev):

   -77.7463 -49.0107 -49.0009 -48.8306 -23.3814 -23.2633 -20.9504 -19.6046
   -13.1404 -10.4278  -9.7735  -9.6957  -9.2890  -9.2139  -8.8736  -8.5591
    -8.4948  -7.4984  -7.4828  -6.8442  -5.2434

     occupation numbers 
     1.0000   1.0000   1.0000   1.0000   1.0000   1.0000   1.0000   1.0000
     1.0000   1.0000   1.0000   1.0000   1.0000   1.0000   1.0000   1.0000
     1.0000   1.0000   1.0000   1.0000   1.0000

          k = 0.0909 0.0525 0.0000 ( 12978 PWs)   bands (ev):

   -77.7463 -49.0107 -49.0009 -48.8306 -23.3814 -23.2633 -20.9504 -19.6046
   -13.1404 -10.4278  -9.7730  -9.6941  -9.2895  -9.2157  -8.8735  -8.5591
    -8.4948  -7.4994  -7.4821  -6.8438  -5.2434

     occupation numbers 
     1.0000   1.0000   1.0000   1.0000   1.0000   1.0000   1.0000   1.0000
     1.0000   1.0000   1.0000   1.0000   1.0000   1.0000   1.0000   1.0000
     1.0000   1.0000   1.0000   1.0000   1.0000

          k =-0.1818 0.1050 0.0000 ( 13034 PWs)   bands (ev):

   -77.7425 -49.0448 -49.0088 -48.8248 -23.0217 -22.9075 -20.7217 -19.4959
   -12.9765 -11.1313 -10.9222 -10.2610  -9.5967  -9.5320  -9.4087  -8.3430
    -8.2801  -7.7950  -7.7645  -6.9106  -5.5695

     occupation numbers 
     1.0000   1.0000   1.0000   1.0000   1.0000   1.0000   1.0000   1.0000
     1.0000   1.0000   1.0000   1.0000   1.0000   1.0000   1.0000   1.0000
     1.0000   1.0000   1.0000   1.0000   1.0000

          k = 0.1818 0.1050 0.0000 ( 13034 PWs)   bands (ev):

   -77.7425 -49.0448 -49.0088 -48.8248 -23.0217 -22.9076 -20.7217 -19.4959
   -12.9763 -11.1309 -10.9214 -10.2607  -9.5970  -9.5338  -9.4087  -8.3430
    -8.2802  -7.7963  -7.7640  -6.9095  -5.5695

     occupation numbers 
     1.0000   1.0000   1.0000   1.0000   1.0000   1.0000   1.0000   1.0000
     1.0000   1.0000   1.0000   1.0000   1.0000   1.0000   1.0000   1.0000
     1.0000   1.0000   1.0000   1.0000   1.0000

          k =-0.2727 0.1575 0.0000 ( 13068 PWs)   bands (ev):

   -77.7374 -49.0892 -49.0191 -48.8171 -22.4655 -22.3571 -20.4248 -19.3719
   -13.2206 -12.5716 -11.7638 -10.2623  -9.9631  -9.9299  -9.8991  -8.2762
    -8.1099  -8.0235  -8.0061  -7.0512  -5.8950

     occupation numbers 
     1.0000   1.0000   1.0000   1.0000   1.0000   1.0000   1.0000   1.0000
     1.0000   1.0000   1.0000   1.0000   1.0000   1.0000   1.0000   1.0000
     1.0000   1.0000   1.0000   1.0000   1.0000

          k = 0.2727 0.1575 0.0000 ( 13068 PWs)   bands (ev):

   -77.7374 -49.0892 -49.0191 -48.8171 -22.4655 -22.3572 -20.4246 -19.3717
   -13.2200 -12.5712 -11.7637 -10.2618  -9.9634  -9.9304  -9.9007  -8.2773
    -8.1091  -8.0236  -8.0065  -7.0499  -5.8950

     occupation numbers 
     1.0000   1.0000   1.0000   1.0000   1.0000   1.0000   1.0000   1.0000
     1.0000   1.0000   1.0000   1.0000   1.0000   1.0000   1.0000   1.0000
     1.0000   1.0000   1.0000   1.0000   1.0000

          k =-0.3636 0.2099 0.0000 ( 13070 PWs)   bands (ev):

   -77.7328 -49.1298 -49.0286 -48.8100 -21.8055 -21.7043 -20.1890 -19.3177
   -14.1701 -13.8072 -11.7417 -10.6673 -10.2673 -10.1994 -10.0679  -8.6156
    -8.3620  -7.8186  -7.6952  -7.1133  -6.0035

     occupation numbers 
     1.0000   1.0000   1.0000   1.0000   1.0000   1.0000   1.0000   1.0000
     1.0000   1.0000   1.0000   1.0000   1.0000   1.0000   1.0000   1.0000
     1.0000   1.0000   1.0000   1.0000   1.0000

          k = 0.3636 0.2099 0.0000 ( 13070 PWs)   bands (ev):

   -77.7328 -49.1298 -49.0286 -48.8100 -21.8056 -21.7047 -20.1886 -19.3174
   -14.1694 -13.8070 -11.7415 -10.6672 -10.2677 -10.2008 -10.0684  -8.6166
    -8.3616  -7.8186  -7.6952  -7.1117  -6.0035

     occupation numbers 
     1.0000   1.0000   1.0000   1.0000   1.0000   1.0000   1.0000   1.0000
     1.0000   1.0000   1.0000   1.0000   1.0000   1.0000   1.0000   1.0000
     1.0000   1.0000   1.0000   1.0000   1.0000

          k =-0.4545 0.2624 0.0000 ( 13094 PWs)   bands (ev):

   -77.7301 -49.1538 -49.0342 -48.8058 -21.2635 -21.1713 -20.1327 -19.3757
   -14.8662 -14.5337 -11.5873 -11.0225 -10.4356 -10.3648 -10.1657  -8.7280
    -8.5087  -7.6278  -7.4808  -7.1210  -5.9751

     occupation numbers 
     1.0000   1.0000   1.0000   1.0000   1.0000   1.0000   1.0000   1.0000
     1.0000   1.0000   1.0000   1.0000   1.0000   1.0000   1.0000   1.0000
     1.0000   1.0000   1.0000   1.0000   1.0000

          k = 0.4545 0.2624 0.0000 ( 13094 PWs)   bands (ev):

   -77.7301 -49.1538 -49.0342 -48.8058 -21.2635 -21.1724 -20.1320 -19.3752
   -14.8656 -14.5337 -11.5865 -11.0231 -10.4360 -10.3661 -10.1660  -8.7290
    -8.5083  -7.6282  -7.4807  -7.1189  -5.9751

     occupation numbers 
     1.0000   1.0000   1.0000   1.0000   1.0000   1.0000   1.0000   1.0000
     1.0000   1.0000   1.0000   1.0000   1.0000   1.0000   1.0000   1.0000
     1.0000   1.0000   1.0000   1.0000   1.0000

          k =-0.0909 0.1575 0.0000 ( 13020 PWs)   bands (ev):

   -77.7437 -49.0334 -49.0071 -48.8266 -23.1396 -23.0242 -20.7937 -19.5292
   -13.0127 -10.7156 -10.5479 -10.2528  -9.6436  -9.5409  -9.1357  -8.4487
    -8.3306  -7.8018  -7.5743  -6.8538  -5.4641

     occupation numbers 
     1.0000   1.0000   1.0000   1.0000   1.0000   1.0000   1.0000   1.0000
     1.0000   1.0000   1.0000   1.0000   1.0000   1.0000   1.0000   1.0000
     1.0000   1.0000   1.0000   1.0000   1.0000

          k = 0.1818-0.0000 0.0000 ( 13020 PWs)   bands (ev):

   -77.7437 -49.0334 -49.0071 -48.8266 -23.1396 -23.0242 -20.7937 -19.5292
   -13.0127 -10.7156 -10.5479 -10.2528  -9.6436  -9.5409  -9.1357  -8.4487
    -8.3306  -7.8018  -7.5743  -6.8538  -5.4641

     occupation numbers 
     1.0000   1.0000   1.0000   1.0000   1.0000   1.0000   1.0000   1.0000
     1.0000   1.0000   1.0000   1.0000   1.0000   1.0000   1.0000   1.0000
     1.0000   1.0000   1.0000   1.0000   1.0000

          k =-0.0909 0.2624 0.0000 ( 13049 PWs)   bands (ev):

   -77.7392 -49.0707 -49.0181 -48.8198 -22.6801 -22.5696 -20.5293 -19.4109
   -12.9916 -11.9475 -11.4882 -10.2734 -10.1621  -9.9922  -9.5654  -8.3462
    -8.2191  -8.1008  -7.6772  -7.0060  -5.7992

     occupation numbers 
     1.0000   1.0000   1.0000   1.0000   1.0000   1.0000   1.0000   1.0000
     1.0000   1.0000   1.0000   1.0000   1.0000   1.0000   1.0000   1.0000
     1.0000   1.0000   1.0000   1.0000   1.0000

          k =-0.1818 0.2099 0.0000 ( 13049 PWs)   bands (ev):

   -77.7392 -49.0707 -49.0181 -48.8198 -22.6801 -22.5695 -20.5294 -19.4109
   -12.9918 -11.9478 -11.4884 -10.2738 -10.1615  -9.9916  -9.5652  -8.3462
    -8.2189  -8.1008  -7.6769  -7.0066  -5.7992

     occupation numbers 
     1.0000   1.0000   1.0000   1.0000   1.0000   1.0000   1.0000   1.0000
     1.0000   1.0000   1.0000   1.0000   1.0000   1.0000   1.0000   1.0000
     1.0000   1.0000   1.0000   1.0000   1.0000

          k = 0.2727 0.0525 0.0000 ( 13049 PWs)   bands (ev):

   -77.7392 -49.0707 -49.0181 -48.8198 -22.6801 -22.5696 -20.5293 -19.4109
   -12.9916 -11.9475 -11.4882 -10.2734 -10.1620  -9.9922  -9.5654  -8.3462
    -8.2191  -8.1008  -7.6772  -7.0060  -5.7992

     occupation numbers 
     1.0000   1.0000   1.0000   1.0000   1.0000   1.0000   1.0000   1.0000
     1.0000   1.0000   1.0000   1.0000   1.0000   1.0000   1.0000   1.0000
     1.0000   1.0000   1.0000   1.0000   1.0000

          k =-0.1818-0.2099 0.0000 ( 13049 PWs)   bands (ev):

   -77.7392 -49.0707 -49.0181 -48.8198 -22.6801 -22.5696 -20.5293 -19.4109
   -12.9913 -11.9471 -11.4879 -10.2739 -10.1621  -9.9930  -9.5653  -8.3467
    -8.2186  -8.1016  -7.6773  -7.0049  -5.7993

     occupation numbers 
     1.0000   1.0000   1.0000   1.0000   1.0000   1.0000   1.0000   1.0000
     1.0000   1.0000   1.0000   1.0000   1.0000   1.0000   1.0000   1.0000
     1.0000   1.0000   1.0000   1.0000   1.0000

          k = 0.2727-0.0525 0.0000 ( 13049 PWs)   bands (ev):

   -77.7392 -49.0707 -49.0181 -48.8198 -22.6801 -22.5695 -20.5294 -19.4109
   -12.9918 -11.9478 -11.4884 -10.2738 -10.1615  -9.9916  -9.5652  -8.3462
    -8.2189  -8.1008  -7.6769  -7.0066  -5.7992

     occupation numbers 
     1.0000   1.0000   1.0000   1.0000   1.0000   1.0000   1.0000   1.0000
     1.0000   1.0000   1.0000   1.0000   1.0000   1.0000   1.0000   1.0000
     1.0000   1.0000   1.0000   1.0000   1.0000

          k =-0.0909 0.3674 0.0000 ( 13095 PWs)   bands (ev):

   -77.7344 -49.1111 -49.0302 -48.8124 -22.0645 -21.9603 -20.2590 -19.3180
   -13.6654 -13.2214 -11.7562 -10.7363 -10.5034 -10.1235  -9.9627  -8.7875
    -8.0386  -7.9751  -7.7658  -7.1098  -6.0057

     occupation numbers 
     1.0000   1.0000   1.0000   1.0000   1.0000   1.0000   1.0000   1.0000
     1.0000   1.0000   1.0000   1.0000   1.0000   1.0000   1.0000   1.0000
     1.0000   1.0000   1.0000   1.0000   1.0000

          k =-0.2727 0.2624 0.0000 ( 13095 PWs)   bands (ev):

   -77.7344 -49.1111 -49.0301 -48.8124 -22.0645 -21.9601 -20.2591 -19.3181
   -13.6660 -13.2217 -11.7562 -10.7362 -10.5028 -10.1235  -9.9620  -8.7876
    -8.0384  -7.9746  -7.7657  -7.1110  -6.0058

     occupation numbers 
     1.0000   1.0000   1.0000   1.0000   1.0000   1.0000   1.0000   1.0000
     1.0000   1.0000   1.0000   1.0000   1.0000   1.0000   1.0000   1.0000
     1.0000   1.0000   1.0000   1.0000   1.0000

          k = 0.3636 0.1050 0.0000 ( 13095 PWs)   bands (ev):

   -77.7344 -49.1111 -49.0302 -48.8124 -22.0645 -21.9603 -20.2590 -19.3180
   -13.6654 -13.2214 -11.7562 -10.7363 -10.5034 -10.1235  -9.9627  -8.7875
    -8.0386  -7.9751  -7.7658  -7.1098  -6.0057

     occupation numbers 
     1.0000   1.0000   1.0000   1.0000   1.0000   1.0000   1.0000   1.0000
     1.0000   1.0000   1.0000   1.0000   1.0000   1.0000   1.0000   1.0000
     1.0000   1.0000   1.0000   1.0000   1.0000

          k =-0.2727-0.2624 0.0000 ( 13095 PWs)   bands (ev):

   -77.7344 -49.1111 -49.0302 -48.8124 -22.0645 -21.9604 -20.2589 -19.3179
   -13.6651 -13.2212 -11.7563 -10.7365 -10.5040 -10.1235  -9.9624  -8.7885
    -8.0384  -7.9750  -7.7654  -7.1094  -6.0060

     occupation numbers 
     1.0000   1.0000   1.0000   1.0000   1.0000   1.0000   1.0000   1.0000
     1.0000   1.0000   1.0000   1.0000   1.0000   1.0000   1.0000   1.0000
     1.0000   1.0000   1.0000   1.0000   1.0000

          k = 0.3636-0.1050 0.0000 ( 13095 PWs)   bands (ev):

   -77.7344 -49.1111 -49.0301 -48.8124 -22.0645 -21.9601 -20.2591 -19.3181
   -13.6660 -13.2217 -11.7562 -10.7362 -10.5028 -10.1235  -9.9620  -8.7876
    -8.0384  -7.9746  -7.7657  -7.1111  -6.0058

     occupation numbers 
     1.0000   1.0000   1.0000   1.0000   1.0000   1.0000   1.0000   1.0000
     1.0000   1.0000   1.0000   1.0000   1.0000   1.0000   1.0000   1.0000
     1.0000   1.0000   1.0000   1.0000   1.0000

          k =-0.0909 0.4724 0.0000 ( 13100 PWs)   bands (ev):

   -77.7307 -49.1417 -49.0394 -48.8068 -21.4338 -21.3385 -20.1198 -19.3291
   -14.5246 -14.1820 -11.6393 -11.0738 -10.7524 -10.4774 -10.0798  -8.9272
    -8.2806  -7.8169  -7.6002  -7.0809  -6.0098

     occupation numbers 
     1.0000   1.0000   1.0000   1.0000   1.0000   1.0000   1.0000   1.0000
     1.0000   1.0000   1.0000   1.0000   1.0000   1.0000   1.0000   1.0000
     1.0000   1.0000   1.0000   1.0000   1.0000

          k =-0.3636 0.3149 0.0000 ( 13100 PWs)   bands (ev):

   -77.7307 -49.1417 -49.0394 -48.8068 -21.4338 -21.3378 -20.1203 -19.3294
   -14.5252 -14.1821 -11.6396 -11.0736 -10.7516 -10.4769 -10.0794  -8.9272
    -8.2797  -7.8170  -7.6003  -7.0824  -6.0099

     occupation numbers 
     1.0000   1.0000   1.0000   1.0000   1.0000   1.0000   1.0000   1.0000
     1.0000   1.0000   1.0000   1.0000   1.0000   1.0000   1.0000   1.0000
     1.0000   1.0000   1.0000   1.0000   1.0000

          k = 0.4545 0.1575 0.0000 ( 13100 PWs)   bands (ev):

   -77.7307 -49.1417 -49.0394 -48.8068 -21.4338 -21.3385 -20.1198 -19.3291
   -14.5246 -14.1820 -11.6393 -11.0738 -10.7524 -10.4774 -10.0798  -8.9272
    -8.2806  -7.8169  -7.6002  -7.0809  -6.0098

     occupation numbers 
     1.0000   1.0000   1.0000   1.0000   1.0000   1.0000   1.0000   1.0000
     1.0000   1.0000   1.0000   1.0000   1.0000   1.0000   1.0000   1.0000
     1.0000   1.0000   1.0000   1.0000   1.0000

          k =-0.3636-0.3149 0.0000 ( 13100 PWs)   bands (ev):

   -77.7307 -49.1417 -49.0394 -48.8068 -21.4338 -21.3386 -20.1198 -19.3290
   -14.5244 -14.1819 -11.6394 -11.0738 -10.7528 -10.4772 -10.0795  -8.9285
    -8.2794  -7.8169  -7.6001  -7.0808  -6.0101

     occupation numbers 
     1.0000   1.0000   1.0000   1.0000   1.0000   1.0000   1.0000   1.0000
     1.0000   1.0000   1.0000   1.0000   1.0000   1.0000   1.0000   1.0000
     1.0000   1.0000   1.0000   1.0000   1.0000

          k = 0.4545-0.1575 0.0000 ( 13100 PWs)   bands (ev):

   -77.7307 -49.1417 -49.0394 -48.8068 -21.4338 -21.3378 -20.1203 -19.3294
   -14.5252 -14.1821 -11.6396 -11.0736 -10.7516 -10.4769 -10.0794  -8.9272
    -8.2797  -7.8170  -7.6003  -7.0824  -6.0099

     occupation numbers 
     1.0000   1.0000   1.0000   1.0000   1.0000   1.0000   1.0000   1.0000
     1.0000   1.0000   1.0000   1.0000   1.0000   1.0000   1.0000   1.0000
     1.0000   1.0000   1.0000   1.0000   1.0000

          k =-0.4545 0.3674 0.0000 ( 13104 PWs)   bands (ev):

   -77.7293 -49.1531 -49.0428 -48.8047 -21.1172 -21.0272 -20.1278 -19.3870
   -14.8796 -14.5439 -11.5727 -11.2005 -10.7559 -10.7141 -10.1543  -8.8723
    -8.4504  -7.7527  -7.4880  -7.0549  -5.9715

     occupation numbers 
     1.0000   1.0000   1.0000   1.0000   1.0000   1.0000   1.0000   1.0000
     1.0000   1.0000   1.0000   1.0000   1.0000   1.0000   1.0000   1.0000
     1.0000   1.0000   1.0000   1.0000   1.0000

          k = 0.5455 0.2099 0.0000 ( 13104 PWs)   bands (ev):

   -77.7293 -49.1531 -49.0428 -48.8047 -21.1171 -21.0285 -20.1270 -19.3864
   -14.8790 -14.5439 -11.5723 -11.2007 -10.7568 -10.7147 -10.1544  -8.8732
    -8.4505  -7.7525  -7.4880  -7.0533  -5.9715

     occupation numbers 
     1.0000   1.0000   1.0000   1.0000   1.0000   1.0000   1.0000   1.0000
     1.0000   1.0000   1.0000   1.0000   1.0000   1.0000   1.0000   1.0000
     1.0000   1.0000   1.0000   1.0000   1.0000

          k =-0.1818 0.3149 0.0000 ( 13098 PWs)   bands (ev):

   -77.7350 -49.1005 -49.0343 -48.8133 -22.1565 -22.0511 -20.2883 -19.3201
   -13.3940 -12.8453 -11.6649 -11.0325 -10.8680 -10.0225  -9.8560  -8.9236
    -8.1638  -7.9652  -7.5173  -7.1899  -6.0113

     occupation numbers 
     1.0000   1.0000   1.0000   1.0000   1.0000   1.0000   1.0000   1.0000
     1.0000   1.0000   1.0000   1.0000   1.0000   1.0000   1.0000   1.0000
     1.0000   1.0000   1.0000   1.0000   1.0000

          k = 0.3636-0.0000 0.0000 ( 13098 PWs)   bands (ev):

   -77.7350 -49.1005 -49.0343 -48.8133 -22.1565 -22.0511 -20.2883 -19.3201
   -13.3940 -12.8453 -11.6649 -11.0325 -10.8680 -10.0225  -9.8560  -8.9236
    -8.1638  -7.9652  -7.5173  -7.1899  -6.0113

     occupation numbers 
     1.0000   1.0000   1.0000   1.0000   1.0000   1.0000   1.0000   1.0000
     1.0000   1.0000   1.0000   1.0000   1.0000   1.0000   1.0000   1.0000
     1.0000   1.0000   1.0000   1.0000   1.0000

          k =-0.1818 0.4199 0.0000 ( 13115 PWs)   bands (ev):

   -77.7311 -49.1257 -49.0513 -48.8074 -21.5438 -21.4456 -20.1126 -19.2929
   -14.0723 -13.6819 -11.7808 -11.5826 -11.3355 -10.2011 -10.0021  -9.2194
    -8.2681  -7.9777  -7.5355  -7.1260  -6.0543

     occupation numbers 
     1.0000   1.0000   1.0000   1.0000   1.0000   1.0000   1.0000   1.0000
     1.0000   1.0000   1.0000   1.0000   1.0000   1.0000   1.0000   1.0000
     1.0000   1.0000   1.0000   1.0000   1.0000

          k =-0.2727 0.3674 0.0000 ( 13115 PWs)   bands (ev):

   -77.7311 -49.1257 -49.0513 -48.8074 -21.5438 -21.4454 -20.1128 -19.2930
   -14.0726 -13.6821 -11.7805 -11.5825 -11.3354 -10.2011 -10.0018  -9.2194
    -8.2680  -7.9775  -7.5355  -7.1267  -6.0543

     occupation numbers 
     1.0000   1.0000   1.0000   1.0000   1.0000   1.0000   1.0000   1.0000
     1.0000   1.0000   1.0000   1.0000   1.0000   1.0000   1.0000   1.0000
     1.0000   1.0000   1.0000   1.0000   1.0000

          k = 0.4545 0.0525 0.0000 ( 13115 PWs)   bands (ev):

   -77.7311 -49.1257 -49.0513 -48.8074 -21.5438 -21.4456 -20.1126 -19.2929
   -14.0723 -13.6820 -11.7808 -11.5826 -11.3355 -10.2011 -10.0021  -9.2194
    -8.2681  -7.9777  -7.5355  -7.1260  -6.0543

     occupation numbers 
     1.0000   1.0000   1.0000   1.0000   1.0000   1.0000   1.0000   1.0000
     1.0000   1.0000   1.0000   1.0000   1.0000   1.0000   1.0000   1.0000
     1.0000   1.0000   1.0000   1.0000   1.0000

          k =-0.2727-0.3674 0.0000 ( 13115 PWs)   bands (ev):

   -77.7311 -49.1257 -49.0513 -48.8074 -21.5438 -21.4459 -20.1124 -19.2928
   -14.0718 -13.6816 -11.7812 -11.5834 -11.3357 -10.2007 -10.0016  -9.2207
    -8.2687  -7.9775  -7.5336  -7.1264  -6.0545

     occupation numbers 
     1.0000   1.0000   1.0000   1.0000   1.0000   1.0000   1.0000   1.0000
     1.0000   1.0000   1.0000   1.0000   1.0000   1.0000   1.0000   1.0000
     1.0000   1.0000   1.0000   1.0000   1.0000

          k = 0.4545-0.0525 0.0000 ( 13115 PWs)   bands (ev):

   -77.7311 -49.1257 -49.0513 -48.8074 -21.5438 -21.4454 -20.1128 -19.2930
   -14.0726 -13.6821 -11.7805 -11.5825 -11.3354 -10.2011 -10.0018  -9.2194
    -8.2680  -7.9775  -7.5355  -7.1267  -6.0543

     occupation numbers 
     1.0000   1.0000   1.0000   1.0000   1.0000   1.0000   1.0000   1.0000
     1.0000   1.0000   1.0000   1.0000   1.0000   1.0000   1.0000   1.0000
     1.0000   1.0000   1.0000   1.0000   1.0000

          k =-0.1818 0.5249 0.0000 ( 13104 PWs)   bands (ev):

   -77.7288 -49.1399 -49.0620 -48.8038 -21.0486 -20.9597 -20.0931 -19.3536
   -14.5733 -14.2182 -12.0732 -11.9114 -11.0985 -10.5589 -10.1689  -9.0518
    -8.5040  -8.1725  -7.4524  -6.9721  -5.9694

     occupation numbers 
     1.0000   1.0000   1.0000   1.0000   1.0000   1.0000   1.0000   1.0000
     1.0000   1.0000   1.0000   1.0000   1.0000   1.0000   1.0000   1.0000
     1.0000   1.0000   1.0000   1.0000   1.0000

          k =-0.3636 0.4199 0.0000 ( 13104 PWs)   bands (ev):

   -77.7288 -49.1400 -49.0620 -48.8038 -21.0487 -20.9589 -20.0936 -19.3539
   -14.5738 -14.2183 -12.0727 -11.9109 -11.0988 -10.5587 -10.1688  -9.0515
    -8.5030  -8.1729  -7.4530  -6.9726  -5.9695

     occupation numbers 
     1.0000   1.0000   1.0000   1.0000   1.0000   1.0000   1.0000   1.0000
     1.0000   1.0000   1.0000   1.0000   1.0000   1.0000   1.0000   1.0000
     1.0000   1.0000   1.0000   1.0000   1.0000

          k = 0.5455 0.1050 0.0000 ( 13104 PWs)   bands (ev):

   -77.7288 -49.1399 -49.0620 -48.8038 -21.0486 -20.9597 -20.0931 -19.3536
   -14.5733 -14.2182 -12.0732 -11.9114 -11.0985 -10.5589 -10.1689  -9.0518
    -8.5040  -8.1725  -7.4523  -6.9721  -5.9694

     occupation numbers 
     1.0000   1.0000   1.0000   1.0000   1.0000   1.0000   1.0000   1.0000
     1.0000   1.0000   1.0000   1.0000   1.0000   1.0000   1.0000   1.0000
     1.0000   1.0000   1.0000   1.0000   1.0000

          k =-0.3636-0.4199 0.0000 ( 13104 PWs)   bands (ev):

   -77.7288 -49.1399 -49.0620 -48.8038 -21.0486 -20.9599 -20.0929 -19.3535
   -14.5731 -14.2181 -12.0733 -11.9117 -11.0986 -10.5586 -10.1687  -9.0526
    -8.5040  -8.1721  -7.4517  -6.9724  -5.9695

     occupation numbers 
     1.0000   1.0000   1.0000   1.0000   1.0000   1.0000   1.0000   1.0000
     1.0000   1.0000   1.0000   1.0000   1.0000   1.0000   1.0000   1.0000
     1.0000   1.0000   1.0000   1.0000   1.0000

          k = 0.5455-0.1050 0.0000 ( 13104 PWs)   bands (ev):

   -77.7288 -49.1400 -49.0620 -48.8038 -21.0487 -20.9589 -20.0936 -19.3539
   -14.5738 -14.2183 -12.0727 -11.9109 -11.0988 -10.5587 -10.1688  -9.0515
    -8.5030  -8.1729  -7.4530  -6.9726  -5.9695

     occupation numbers 
     1.0000   1.0000   1.0000   1.0000   1.0000   1.0000   1.0000   1.0000
     1.0000   1.0000   1.0000   1.0000   1.0000   1.0000   1.0000   1.0000
     1.0000   1.0000   1.0000   1.0000   1.0000

          k =-0.2727 0.4724 0.0000 ( 13132 PWs)   bands (ev):

   -77.7286 -49.1287 -49.0756 -48.8035 -21.0347 -20.9449 -20.0718 -19.3306
   -14.2949 -13.8944 -12.5658 -12.4289 -11.1381 -10.2904 -10.1311  -9.2553
    -8.7563  -8.1610  -7.4527  -6.9584  -5.9620

     occupation numbers 
     1.0000   1.0000   1.0000   1.0000   1.0000   1.0000   1.0000   1.0000
     1.0000   1.0000   1.0000   1.0000   1.0000   1.0000   1.0000   1.0000
     1.0000   1.0000   1.0000   1.0000   1.0000

          k = 0.5455-0.0000 0.0000 ( 13132 PWs)   bands (ev):

   -77.7286 -49.1287 -49.0756 -48.8035 -21.0347 -20.9449 -20.0718 -19.3306
   -14.2949 -13.8944 -12.5658 -12.4289 -11.1381 -10.2904 -10.1311  -9.2553
    -8.7563  -8.1610  -7.4527  -6.9584  -5.9620

     occupation numbers 
     1.0000   1.0000   1.0000   1.0000   1.0000   1.0000   1.0000   1.0000
     1.0000   1.0000   1.0000   1.0000   1.0000   1.0000   1.0000   1.0000
     1.0000   1.0000   1.0000   1.0000   1.0000

          k =-0.3636 0.5249 0.0000 ( 13088 PWs)   bands (ev):

   -77.7277 -49.1259 -49.0886 -48.8021 -20.7920 -20.7008 -20.1109 -19.3750
   -14.3469 -13.9261 -12.9093 -12.8179 -10.9241 -10.4070 -10.1557  -9.3510
    -8.7799  -8.4148  -7.3937  -6.8624  -5.8771

     occupation numbers 
     1.0000   1.0000   1.0000   1.0000   1.0000   1.0000   1.0000   1.0000
     1.0000   1.0000   1.0000   1.0000   1.0000   1.0000   1.0000   1.0000
     1.0000   1.0000   1.0000   1.0000   1.0000

          k = 0.6364 0.0525 0.0000 ( 13088 PWs)   bands (ev):

   -77.7277 -49.1259 -49.0886 -48.8021 -20.7918 -20.7014 -20.1105 -19.3748
   -14.3465 -13.9258 -12.9096 -12.8186 -10.9240 -10.4067 -10.1558  -9.3510
    -8.7815  -8.4139  -7.3929  -6.8626  -5.8770

     occupation numbers 
     1.0000   1.0000   1.0000   1.0000   1.0000   1.0000   1.0000   1.0000
     1.0000   1.0000   1.0000   1.0000   1.0000   1.0000   1.0000   1.0000
     1.0000   1.0000   1.0000   1.0000   1.0000

     highest occupied level (ev):    -5.1496

!    total energy              =    -263.29869256 Ry
     estimated scf accuracy    <          8.6E-11 Ry

     The total energy is the sum of the following terms:
     one-electron contribution =   -4151.11733562 Ry
     hartree contribution      =    2072.50996749 Ry
     xc contribution           =     -44.29197147 Ry
     ewald contribution        =    1859.60064703 Ry

     convergence has been achieved in  30 iterations

     Writing all to output data dir ./tmp/crsi2n4.save/ :
     XML data file, charge density, pseudopotentials, collected wavefunctions
 
     init_run     :      3.41s CPU      3.57s WALL (       1 calls)
     electrons    :    214.44s CPU    214.85s WALL (       1 calls)

     Called by init_run:
     wfcinit      :      2.71s CPU      2.82s WALL (       1 calls)
     wfcinit:atom :      0.04s CPU      0.04s WALL (      61 calls)
     wfcinit:wfcr :      2.57s CPU      2.61s WALL (      61 calls)
     potinit      :      0.44s CPU      0.47s WALL (       1 calls)
     hinit0       :      0.17s CPU      0.18s WALL (       1 calls)

     Called by electrons:
     c_bands      :    196.02s CPU    196.39s WALL (      30 calls)
     sum_band     :     17.14s CPU     17.15s WALL (      30 calls)
     v_of_rho     :      0.38s CPU      0.41s WALL (      31 calls)
     v_h          :      0.09s CPU      0.10s WALL (      31 calls)
     v_xc         :      0.28s CPU      0.31s WALL (      31 calls)
     mix_rho      :      0.57s CPU      0.58s WALL (      30 calls)

     Called by c_bands:
     init_us_2    :      2.29s CPU      2.30s WALL (    3721 calls)
     cegterg      :    187.89s CPU    188.24s WALL (    1830 calls)

     Called by sum_band:
     sum_band:wei :      0.00s CPU      0.00s WALL (      30 calls)
     sum_band:loo :     17.03s CPU     17.05s WALL (      30 calls)
     sum_band:buf :      1.97s CPU      1.97s WALL (    1830 calls)
     sum_band:ini :      1.13s CPU      1.13s WALL (    1830 calls)

     Called by *egterg:
     cdiaghg      :     21.30s CPU     21.45s WALL (   10739 calls)
                                       21.38s GPU  (   10739 calls)
     cegterg:over :     40.43s CPU     40.46s WALL (    8909 calls)
     cegterg:upda :      8.18s CPU      8.19s WALL (    8909 calls)
     cegterg:last :      7.11s CPU      7.12s WALL (    4369 calls)
     h_psi        :    107.51s CPU    107.91s WALL (   10800 calls)
                                      107.81s GPU  (   10800 calls)
     g_psi        :      0.03s CPU      0.77s WALL (    8909 calls)
                                        0.73s GPU  (    8909 calls)

     Called by h_psi:
     h_psi:calbec :      0.35s CPU     16.38s WALL (   10800 calls)
                                       16.33s GPU  (   10800 calls)
     vloc_psi     :     76.97s CPU     77.32s WALL (   10800 calls)
                                       77.27s GPU  (   10800 calls)
     add_vuspsi   :      2.08s CPU     13.57s WALL (   10800 calls)
                                       13.48s GPU  (   10800 calls)

     General routines
     calbec       :      0.33s CPU      0.35s WALL (   10800 calls)
     fft          :      0.33s CPU      0.46s WALL (     369 calls)
                                        0.13s GPU  (     338 calls)
     ffts         :      0.26s CPU      0.27s WALL (      61 calls)
                                        0.01s GPU  (      30 calls)
     fftw         :      0.36s CPU     78.77s WALL (   33062 calls)
                                       78.62s GPU  (   33062 calls)
     interpolate  :      0.63s CPU      0.63s WALL (      31 calls)
 
     Parallel routines
 
     PWSCF        :   3m38.06s CPU   3m38.75s WALL

 
   This run was terminated on:   4:37:22  13Mar2026            

=------------------------------------------------------------------------------=
   JOB DONE.
=------------------------------------------------------------------------------=
