
     Program PWSCF v.7.4.1 starts on 13Mar2026 at  2:23:14 

     This program is part of the open-source Quantum ESPRESSO suite
     for quantum simulation of materials; please cite
         "P. Giannozzi et al., J. Phys.:Condens. Matter 21 395502 (2009);
         "P. Giannozzi et al., J. Phys.:Condens. Matter 29 465901 (2017);
         "P. Giannozzi et al., J. Chem. Phys. 152 154105 (2020);
          URL http://www.quantum-espresso.org", 
     in publications or presentations arising from this work. More details at
     http://www.quantum-espresso.org/quote

     Parallel version (MPI), running on     1 processors

     MPI processes distributed on     1 nodes
     5027 MiB available memory on the printing compute node when the environment starts
 
     Reading input from bands.in

     Current dimensions of program PWSCF are:
     Max number of different atomic species (ntypx) = 10
     Max number of k-points (npk) =  40000
     Max angular momentum in pseudopotentials (lmaxx) =  4

     Atomic positions and unit cell read from directory:
     ./tmp/crsi2n4.save/
 
     Message from routine setup:
     no reason to have ecutrho>4*ecutwfc
 
     Subspace diagonalization in iterative solution of the eigenvalue problem:
     a serial algorithm will be used

 
     G-vector sticks info
     --------------------
     sticks:   dense  smooth     PW     G-vecs:    dense   smooth      PW
     Sum         745     595    187               124953    89281   14311
 
     Using Slab Decomposition
 


     bravais-lattice index     =            4
     lattice parameter (alat)  =       5.2131  a.u.
     unit-cell volume          =     923.6019 (a.u.)^3
     number of atoms/cell      =            7
     number of atomic types    =            3
     number of electrons       =        42.00
     number of Kohn-Sham states=           35
     kinetic-energy cutoff     =      80.0000  Ry
     charge density cutoff     =     400.0000  Ry
     Exchange-correlation= PBE
                           (   1   4   3   4   0   0   0)

     GPU acceleration is ACTIVE.  1 visible GPUs per MPI rank
     GPU-aware MPI enabled


     GPU used by master process:

        Device Number: 0
        Device name: NVIDIA RTX A2000 12GB
        Compute capability : 86
        Ratio of single to double precision performance  : 64
        Memory Clock Rate (KHz): 6001000
        Memory Bus Width (bits): 192
        Peak Memory Bandwidth (GB/s): 288.05

     celldm(1)=   5.213150  celldm(2)=   0.000000  celldm(3)=   7.527549
     celldm(4)=   0.000000  celldm(5)=   0.000000  celldm(6)=   0.000000

     crystal axes: (cart. coord. in units of alat)
               a(1) = (   1.000000   0.000000   0.000000 )  
               a(2) = (  -0.500000   0.866025   0.000000 )  
               a(3) = (   0.000000   0.000000   7.527549 )  

     reciprocal axes: (cart. coord. in units 2 pi/alat)
               b(1) = (  1.000000  0.577350 -0.000000 )  
               b(2) = (  0.000000  1.154701  0.000000 )  
               b(3) = (  0.000000 -0.000000  0.132845 )  


     PseudoPot. # 1 for Cr read from file:
     /home/rao/Desktop/pseudo/ONCVPSP/sg15/Cr_ONCV_PBE_sr.upf
     MD5 check sum: 8c25700f94aee329d8014e8d8708abb4
     Pseudo is Norm-conserving, Zval = 14.0
     Generated using ONCVPSP code by D. R. Hamann
     Using radial grid of 1490 points,  6 beta functions with: 
                l(1) =   0
                l(2) =   0
                l(3) =   1
                l(4) =   1
                l(5) =   2
                l(6) =   2

     PseudoPot. # 2 for Si read from file:
     /home/rao/Desktop/pseudo/ONCVPSP/sg15/Si_ONCV_PBE_sr.upf
     MD5 check sum: 8553c464762ac42b85b1eed164b4d029
     Pseudo is Norm-conserving, Zval =  4.0
     Generated using ONCVPSP code by D. R. Hamann
     Using radial grid of 1510 points,  4 beta functions with: 
                l(1) =   0
                l(2) =   0
                l(3) =   1
                l(4) =   1

     PseudoPot. # 3 for N  read from file:
     /home/rao/Desktop/pseudo/ONCVPSP/sg15/N_ONCV_PBE_sr.upf
     MD5 check sum: 584dff68b02d160f04ff099e3496afa1
     Pseudo is Norm-conserving, Zval =  5.0
     Generated using ONCVPSP code by D. R. Hamann
     Using radial grid of 1058 points,  4 beta functions with: 
                l(1) =   0
                l(2) =   0
                l(3) =   1
                l(4) =   1

     atomic species   valence    mass     pseudopotential
     Cr               14.00    51.99600     Cr( 1.00)
     Si                4.00    28.08600     Si( 1.00)
     N                 5.00    14.00700     N ( 1.00)

     No symmetry found


                                    s                        frac. trans.

      isym =  1     identity                                     

 cryst.   s( 1) = (     1          0          0      )
                  (     0          1          0      )
                  (     0          0          1      )

 cart.    s( 1) = (  1.0000000  0.0000000  0.0000000 )
                  (  0.0000000  1.0000000  0.0000000 )
                  (  0.0000000  0.0000000  1.0000000 )


     point group C_1 (1)    
     there are  1 classes
     the character table:

       E    
A      1.00

     the symmetry operations in each class and the name of the first element:

     E        1
          identity                                               

   Cartesian axes

     site n.     atom                  positions (alat units)
         1        Cr     tau(   1) = (   0.7857061   0.1237121   3.2207042  )
         2        N      tau(   2) = (   0.2856999   0.4123919   2.8001646  )
         3        N      tau(   3) = (   0.2856665   0.4124092   3.6457545  )
         4        N      tau(   4) = (   0.7857236   0.1236963   4.4942100  )
         5        N      tau(   5) = (  -0.2142834   0.7010606   1.9590099  )
         6        Si     tau(   6) = (   0.2857220   0.4123823   2.1684254  )
         7        Si     tau(   7) = (   0.2857322   0.4123666   4.2820647  )

   Crystallographic axes

     site n.     atom                  positions (cryst. coord.)
         1        Cr     tau(   1) = (  0.8571314  0.1428505  0.4278556  )
         2        N      tau(   2) = (  0.5237945  0.4761892  0.3719889  )
         3        N      tau(   3) = (  0.5237710  0.4762091  0.4843216  )
         4        N      tau(   4) = (  0.8571398  0.1428322  0.5970349  )
         5        N      tau(   5) = (  0.1904741  0.8095150  0.2602454  )
         6        Si     tau(   6) = (  0.5238110  0.4761780  0.2880652  )
         7        Si     tau(   7) = (  0.5238122  0.4761600  0.5688524  )

     number of k points=   261
                       cart. coord. in units 2pi/alat
        k(    1) = (   0.0000000   0.0000000   0.0000000), wk =   0.0076628
        k(    2) = (   0.0033333   0.0057735   0.0000000), wk =   0.0076628
        k(    3) = (   0.0066667   0.0115470   0.0000000), wk =   0.0076628
        k(    4) = (   0.0100000   0.0173205   0.0000000), wk =   0.0076628
        k(    5) = (   0.0133333   0.0230940   0.0000000), wk =   0.0076628
        k(    6) = (   0.0166667   0.0288675   0.0000000), wk =   0.0076628
        k(    7) = (   0.0200000   0.0346410   0.0000000), wk =   0.0076628
        k(    8) = (   0.0233333   0.0404145   0.0000000), wk =   0.0076628
        k(    9) = (   0.0266667   0.0461880   0.0000000), wk =   0.0076628
        k(   10) = (   0.0300000   0.0519615   0.0000000), wk =   0.0076628
        k(   11) = (   0.0333333   0.0577350   0.0000000), wk =   0.0076628
        k(   12) = (   0.0366667   0.0635085   0.0000000), wk =   0.0076628
        k(   13) = (   0.0400000   0.0692820   0.0000000), wk =   0.0076628
        k(   14) = (   0.0433333   0.0750555   0.0000000), wk =   0.0076628
        k(   15) = (   0.0466667   0.0808290   0.0000000), wk =   0.0076628
        k(   16) = (   0.0500000   0.0866025   0.0000000), wk =   0.0076628
        k(   17) = (   0.0533333   0.0923760   0.0000000), wk =   0.0076628
        k(   18) = (   0.0566667   0.0981495   0.0000000), wk =   0.0076628
        k(   19) = (   0.0600000   0.1039230   0.0000000), wk =   0.0076628
        k(   20) = (   0.0633333   0.1096966   0.0000000), wk =   0.0076628
        k(   21) = (   0.0666667   0.1154701   0.0000000), wk =   0.0076628
        k(   22) = (   0.0700000   0.1212436   0.0000000), wk =   0.0076628
        k(   23) = (   0.0733333   0.1270171   0.0000000), wk =   0.0076628
        k(   24) = (   0.0766667   0.1327906   0.0000000), wk =   0.0076628
        k(   25) = (   0.0800000   0.1385641   0.0000000), wk =   0.0076628
        k(   26) = (   0.0833333   0.1443376   0.0000000), wk =   0.0076628
        k(   27) = (   0.0866667   0.1501111   0.0000000), wk =   0.0076628
        k(   28) = (   0.0900000   0.1558846   0.0000000), wk =   0.0076628
        k(   29) = (   0.0933333   0.1616581   0.0000000), wk =   0.0076628
        k(   30) = (   0.0966667   0.1674316   0.0000000), wk =   0.0076628
        k(   31) = (   0.1000000   0.1732051   0.0000000), wk =   0.0076628
        k(   32) = (   0.1033333   0.1789786   0.0000000), wk =   0.0076628
        k(   33) = (   0.1066667   0.1847521   0.0000000), wk =   0.0076628
        k(   34) = (   0.1100000   0.1905256   0.0000000), wk =   0.0076628
        k(   35) = (   0.1133333   0.1962991   0.0000000), wk =   0.0076628
        k(   36) = (   0.1166667   0.2020726   0.0000000), wk =   0.0076628
        k(   37) = (   0.1200000   0.2078461   0.0000000), wk =   0.0076628
        k(   38) = (   0.1233333   0.2136196   0.0000000), wk =   0.0076628
        k(   39) = (   0.1266667   0.2193931   0.0000000), wk =   0.0076628
        k(   40) = (   0.1300000   0.2251666   0.0000000), wk =   0.0076628
        k(   41) = (   0.1333333   0.2309401   0.0000000), wk =   0.0076628
        k(   42) = (   0.1366667   0.2367136   0.0000000), wk =   0.0076628
        k(   43) = (   0.1400000   0.2424871   0.0000000), wk =   0.0076628
        k(   44) = (   0.1433333   0.2482606   0.0000000), wk =   0.0076628
        k(   45) = (   0.1466667   0.2540341   0.0000000), wk =   0.0076628
        k(   46) = (   0.1500000   0.2598076   0.0000000), wk =   0.0076628
        k(   47) = (   0.1533333   0.2655811   0.0000000), wk =   0.0076628
        k(   48) = (   0.1566667   0.2713546   0.0000000), wk =   0.0076628
        k(   49) = (   0.1600000   0.2771281   0.0000000), wk =   0.0076628
        k(   50) = (   0.1633333   0.2829016   0.0000000), wk =   0.0076628
        k(   51) = (   0.1666667   0.2886751   0.0000000), wk =   0.0076628
        k(   52) = (   0.1700000   0.2944486   0.0000000), wk =   0.0076628
        k(   53) = (   0.1733333   0.3002221   0.0000000), wk =   0.0076628
        k(   54) = (   0.1766667   0.3059956   0.0000000), wk =   0.0076628
        k(   55) = (   0.1800000   0.3117691   0.0000000), wk =   0.0076628
        k(   56) = (   0.1833333   0.3175426   0.0000000), wk =   0.0076628
        k(   57) = (   0.1866667   0.3233162   0.0000000), wk =   0.0076628
        k(   58) = (   0.1900000   0.3290897   0.0000000), wk =   0.0076628
        k(   59) = (   0.1933333   0.3348632   0.0000000), wk =   0.0076628
        k(   60) = (   0.1966667   0.3406367   0.0000000), wk =   0.0076628
        k(   61) = (   0.2000000   0.3464102   0.0000000), wk =   0.0076628
        k(   62) = (   0.2033333   0.3521837   0.0000000), wk =   0.0076628
        k(   63) = (   0.2066667   0.3579572   0.0000000), wk =   0.0076628
        k(   64) = (   0.2100000   0.3637307   0.0000000), wk =   0.0076628
        k(   65) = (   0.2133333   0.3695042   0.0000000), wk =   0.0076628
        k(   66) = (   0.2166667   0.3752777   0.0000000), wk =   0.0076628
        k(   67) = (   0.2200000   0.3810512   0.0000000), wk =   0.0076628
        k(   68) = (   0.2233333   0.3868247   0.0000000), wk =   0.0076628
        k(   69) = (   0.2266667   0.3925982   0.0000000), wk =   0.0076628
        k(   70) = (   0.2300000   0.3983717   0.0000000), wk =   0.0076628
        k(   71) = (   0.2333333   0.4041452   0.0000000), wk =   0.0076628
        k(   72) = (   0.2366667   0.4099187   0.0000000), wk =   0.0076628
        k(   73) = (   0.2400000   0.4156922   0.0000000), wk =   0.0076628
        k(   74) = (   0.2433333   0.4214657   0.0000000), wk =   0.0076628
        k(   75) = (   0.2466667   0.4272392   0.0000000), wk =   0.0076628
        k(   76) = (   0.2500000   0.4330127   0.0000000), wk =   0.0076628
        k(   77) = (   0.2533333   0.4387862   0.0000000), wk =   0.0076628
        k(   78) = (   0.2566667   0.4445597   0.0000000), wk =   0.0076628
        k(   79) = (   0.2600000   0.4503332   0.0000000), wk =   0.0076628
        k(   80) = (   0.2633333   0.4561067   0.0000000), wk =   0.0076628
        k(   81) = (   0.2666667   0.4618802   0.0000000), wk =   0.0076628
        k(   82) = (   0.2700000   0.4676537   0.0000000), wk =   0.0076628
        k(   83) = (   0.2733333   0.4734272   0.0000000), wk =   0.0076628
        k(   84) = (   0.2766667   0.4792007   0.0000000), wk =   0.0076628
        k(   85) = (   0.2800000   0.4849742   0.0000000), wk =   0.0076628
        k(   86) = (   0.2833333   0.4907477   0.0000000), wk =   0.0076628
        k(   87) = (   0.2866667   0.4965212   0.0000000), wk =   0.0076628
        k(   88) = (   0.2900000   0.5022947   0.0000000), wk =   0.0076628
        k(   89) = (   0.2933333   0.5080682   0.0000000), wk =   0.0076628
        k(   90) = (   0.2966667   0.5138417   0.0000000), wk =   0.0076628
        k(   91) = (   0.3000000   0.5196152   0.0000000), wk =   0.0076628
        k(   92) = (   0.3033333   0.5253887   0.0000000), wk =   0.0076628
        k(   93) = (   0.3066667   0.5311622   0.0000000), wk =   0.0076628
        k(   94) = (   0.3100000   0.5369358   0.0000000), wk =   0.0076628
        k(   95) = (   0.3133333   0.5427093   0.0000000), wk =   0.0076628
        k(   96) = (   0.3166667   0.5484828   0.0000000), wk =   0.0076628
        k(   97) = (   0.3200000   0.5542563   0.0000000), wk =   0.0076628
        k(   98) = (   0.3233333   0.5600298   0.0000000), wk =   0.0076628
        k(   99) = (   0.3266667   0.5658033   0.0000000), wk =   0.0076628
        k(  100) = (   0.3300000   0.5715768   0.0000000), wk =   0.0076628
        k(  101) = (   0.3333333   0.5773503   0.0000000), wk =   0.0076628
        k(  102) = (   0.3361111   0.5725390   0.0000000), wk =   0.0076628
        k(  103) = (   0.3388889   0.5677278   0.0000000), wk =   0.0076628
        k(  104) = (   0.3416667   0.5629165   0.0000000), wk =   0.0076628
        k(  105) = (   0.3444444   0.5581053   0.0000000), wk =   0.0076628
        k(  106) = (   0.3472222   0.5532940   0.0000000), wk =   0.0076628
        k(  107) = (   0.3500000   0.5484828   0.0000000), wk =   0.0076628
        k(  108) = (   0.3527778   0.5436715   0.0000000), wk =   0.0076628
        k(  109) = (   0.3555556   0.5388603   0.0000000), wk =   0.0076628
        k(  110) = (   0.3583333   0.5340490   0.0000000), wk =   0.0076628
        k(  111) = (   0.3611111   0.5292377   0.0000000), wk =   0.0076628
        k(  112) = (   0.3638889   0.5244265   0.0000000), wk =   0.0076628
        k(  113) = (   0.3666667   0.5196152   0.0000000), wk =   0.0076628
        k(  114) = (   0.3694444   0.5148040   0.0000000), wk =   0.0076628
        k(  115) = (   0.3722222   0.5099927   0.0000000), wk =   0.0076628
        k(  116) = (   0.3750000   0.5051815   0.0000000), wk =   0.0076628
        k(  117) = (   0.3777778   0.5003702   0.0000000), wk =   0.0076628
        k(  118) = (   0.3805556   0.4955590   0.0000000), wk =   0.0076628
        k(  119) = (   0.3833333   0.4907477   0.0000000), wk =   0.0076628
        k(  120) = (   0.3861111   0.4859365   0.0000000), wk =   0.0076628
        k(  121) = (   0.3888889   0.4811252   0.0000000), wk =   0.0076628
        k(  122) = (   0.3916667   0.4763140   0.0000000), wk =   0.0076628
        k(  123) = (   0.3944444   0.4715027   0.0000000), wk =   0.0076628
        k(  124) = (   0.3972222   0.4666915   0.0000000), wk =   0.0076628
        k(  125) = (   0.4000000   0.4618802   0.0000000), wk =   0.0076628
        k(  126) = (   0.4027778   0.4570690   0.0000000), wk =   0.0076628
        k(  127) = (   0.4055556   0.4522577   0.0000000), wk =   0.0076628
        k(  128) = (   0.4083333   0.4474465   0.0000000), wk =   0.0076628
        k(  129) = (   0.4111111   0.4426352   0.0000000), wk =   0.0076628
        k(  130) = (   0.4138889   0.4378240   0.0000000), wk =   0.0076628
        k(  131) = (   0.4166667   0.4330127   0.0000000), wk =   0.0076628
        k(  132) = (   0.4194444   0.4282014   0.0000000), wk =   0.0076628
        k(  133) = (   0.4222222   0.4233902   0.0000000), wk =   0.0076628
        k(  134) = (   0.4250000   0.4185789   0.0000000), wk =   0.0076628
        k(  135) = (   0.4277778   0.4137677   0.0000000), wk =   0.0076628
        k(  136) = (   0.4305556   0.4089564   0.0000000), wk =   0.0076628
        k(  137) = (   0.4333333   0.4041452   0.0000000), wk =   0.0076628
        k(  138) = (   0.4361111   0.3993339   0.0000000), wk =   0.0076628
        k(  139) = (   0.4388889   0.3945227   0.0000000), wk =   0.0076628
        k(  140) = (   0.4416667   0.3897114   0.0000000), wk =   0.0076628
        k(  141) = (   0.4444444   0.3849002   0.0000000), wk =   0.0076628
        k(  142) = (   0.4472222   0.3800889   0.0000000), wk =   0.0076628
        k(  143) = (   0.4500000   0.3752777   0.0000000), wk =   0.0076628
        k(  144) = (   0.4527778   0.3704664   0.0000000), wk =   0.0076628
        k(  145) = (   0.4555556   0.3656552   0.0000000), wk =   0.0076628
        k(  146) = (   0.4583333   0.3608439   0.0000000), wk =   0.0076628
        k(  147) = (   0.4611111   0.3560327   0.0000000), wk =   0.0076628
        k(  148) = (   0.4638889   0.3512214   0.0000000), wk =   0.0076628
        k(  149) = (   0.4666667   0.3464102   0.0000000), wk =   0.0076628
        k(  150) = (   0.4694444   0.3415989   0.0000000), wk =   0.0076628
        k(  151) = (   0.4722222   0.3367877   0.0000000), wk =   0.0076628
        k(  152) = (   0.4750000   0.3319764   0.0000000), wk =   0.0076628
        k(  153) = (   0.4777778   0.3271652   0.0000000), wk =   0.0076628
        k(  154) = (   0.4805556   0.3223539   0.0000000), wk =   0.0076628
        k(  155) = (   0.4833333   0.3175426   0.0000000), wk =   0.0076628
        k(  156) = (   0.4861111   0.3127314   0.0000000), wk =   0.0076628
        k(  157) = (   0.4888889   0.3079201   0.0000000), wk =   0.0076628
        k(  158) = (   0.4916667   0.3031089   0.0000000), wk =   0.0076628
        k(  159) = (   0.4944444   0.2982976   0.0000000), wk =   0.0076628
        k(  160) = (   0.4972222   0.2934864   0.0000000), wk =   0.0076628
        k(  161) = (   0.5000000   0.2886751   0.0000000), wk =   0.0076628
        k(  162) = (   0.4950000   0.2857884   0.0000000), wk =   0.0076628
        k(  163) = (   0.4900000   0.2829016   0.0000000), wk =   0.0076628
        k(  164) = (   0.4850000   0.2800149   0.0000000), wk =   0.0076628
        k(  165) = (   0.4800000   0.2771281   0.0000000), wk =   0.0076628
        k(  166) = (   0.4750000   0.2742414   0.0000000), wk =   0.0076628
        k(  167) = (   0.4700000   0.2713546   0.0000000), wk =   0.0076628
        k(  168) = (   0.4650000   0.2684679   0.0000000), wk =   0.0076628
        k(  169) = (   0.4600000   0.2655811   0.0000000), wk =   0.0076628
        k(  170) = (   0.4550000   0.2626944   0.0000000), wk =   0.0076628
        k(  171) = (   0.4500000   0.2598076   0.0000000), wk =   0.0076628
        k(  172) = (   0.4450000   0.2569209   0.0000000), wk =   0.0076628
        k(  173) = (   0.4400000   0.2540341   0.0000000), wk =   0.0076628
        k(  174) = (   0.4350000   0.2511474   0.0000000), wk =   0.0076628
        k(  175) = (   0.4300000   0.2482606   0.0000000), wk =   0.0076628
        k(  176) = (   0.4250000   0.2453739   0.0000000), wk =   0.0076628
        k(  177) = (   0.4200000   0.2424871   0.0000000), wk =   0.0076628
        k(  178) = (   0.4150000   0.2396004   0.0000000), wk =   0.0076628
        k(  179) = (   0.4100000   0.2367136   0.0000000), wk =   0.0076628
        k(  180) = (   0.4050000   0.2338269   0.0000000), wk =   0.0076628
        k(  181) = (   0.4000000   0.2309401   0.0000000), wk =   0.0076628
        k(  182) = (   0.3950000   0.2280534   0.0000000), wk =   0.0076628
        k(  183) = (   0.3900000   0.2251666   0.0000000), wk =   0.0076628
        k(  184) = (   0.3850000   0.2222799   0.0000000), wk =   0.0076628
        k(  185) = (   0.3800000   0.2193931   0.0000000), wk =   0.0076628
        k(  186) = (   0.3750000   0.2165064   0.0000000), wk =   0.0076628
        k(  187) = (   0.3700000   0.2136196   0.0000000), wk =   0.0076628
        k(  188) = (   0.3650000   0.2107328   0.0000000), wk =   0.0076628
        k(  189) = (   0.3600000   0.2078461   0.0000000), wk =   0.0076628
        k(  190) = (   0.3550000   0.2049593   0.0000000), wk =   0.0076628
        k(  191) = (   0.3500000   0.2020726   0.0000000), wk =   0.0076628
        k(  192) = (   0.3450000   0.1991858   0.0000000), wk =   0.0076628
        k(  193) = (   0.3400000   0.1962991   0.0000000), wk =   0.0076628
        k(  194) = (   0.3350000   0.1934123   0.0000000), wk =   0.0076628
        k(  195) = (   0.3300000   0.1905256   0.0000000), wk =   0.0076628
        k(  196) = (   0.3250000   0.1876388   0.0000000), wk =   0.0076628
        k(  197) = (   0.3200000   0.1847521   0.0000000), wk =   0.0076628
        k(  198) = (   0.3150000   0.1818653   0.0000000), wk =   0.0076628
        k(  199) = (   0.3100000   0.1789786   0.0000000), wk =   0.0076628
        k(  200) = (   0.3050000   0.1760918   0.0000000), wk =   0.0076628
        k(  201) = (   0.3000000   0.1732051   0.0000000), wk =   0.0076628
        k(  202) = (   0.2950000   0.1703183   0.0000000), wk =   0.0076628
        k(  203) = (   0.2900000   0.1674316   0.0000000), wk =   0.0076628
        k(  204) = (   0.2850000   0.1645448   0.0000000), wk =   0.0076628
        k(  205) = (   0.2800000   0.1616581   0.0000000), wk =   0.0076628
        k(  206) = (   0.2750000   0.1587713   0.0000000), wk =   0.0076628
        k(  207) = (   0.2700000   0.1558846   0.0000000), wk =   0.0076628
        k(  208) = (   0.2650000   0.1529978   0.0000000), wk =   0.0076628
        k(  209) = (   0.2600000   0.1501111   0.0000000), wk =   0.0076628
        k(  210) = (   0.2550000   0.1472243   0.0000000), wk =   0.0076628
        k(  211) = (   0.2500000   0.1443376   0.0000000), wk =   0.0076628
        k(  212) = (   0.2450000   0.1414508   0.0000000), wk =   0.0076628
        k(  213) = (   0.2400000   0.1385641   0.0000000), wk =   0.0076628
        k(  214) = (   0.2350000   0.1356773   0.0000000), wk =   0.0076628
        k(  215) = (   0.2300000   0.1327906   0.0000000), wk =   0.0076628
        k(  216) = (   0.2250000   0.1299038   0.0000000), wk =   0.0076628
        k(  217) = (   0.2200000   0.1270171   0.0000000), wk =   0.0076628
        k(  218) = (   0.2150000   0.1241303   0.0000000), wk =   0.0076628
        k(  219) = (   0.2100000   0.1212436   0.0000000), wk =   0.0076628
        k(  220) = (   0.2050000   0.1183568   0.0000000), wk =   0.0076628
        k(  221) = (   0.2000000   0.1154701   0.0000000), wk =   0.0076628
        k(  222) = (   0.1950000   0.1125833   0.0000000), wk =   0.0076628
        k(  223) = (   0.1900000   0.1096966   0.0000000), wk =   0.0076628
        k(  224) = (   0.1850000   0.1068098   0.0000000), wk =   0.0076628
        k(  225) = (   0.1800000   0.1039230   0.0000000), wk =   0.0076628
        k(  226) = (   0.1750000   0.1010363   0.0000000), wk =   0.0076628
        k(  227) = (   0.1700000   0.0981495   0.0000000), wk =   0.0076628
        k(  228) = (   0.1650000   0.0952628   0.0000000), wk =   0.0076628
        k(  229) = (   0.1600000   0.0923760   0.0000000), wk =   0.0076628
        k(  230) = (   0.1550000   0.0894893   0.0000000), wk =   0.0076628
        k(  231) = (   0.1500000   0.0866025   0.0000000), wk =   0.0076628
        k(  232) = (   0.1450000   0.0837158   0.0000000), wk =   0.0076628
        k(  233) = (   0.1400000   0.0808290   0.0000000), wk =   0.0076628
        k(  234) = (   0.1350000   0.0779423   0.0000000), wk =   0.0076628
        k(  235) = (   0.1300000   0.0750555   0.0000000), wk =   0.0076628
        k(  236) = (   0.1250000   0.0721688   0.0000000), wk =   0.0076628
        k(  237) = (   0.1200000   0.0692820   0.0000000), wk =   0.0076628
        k(  238) = (   0.1150000   0.0663953   0.0000000), wk =   0.0076628
        k(  239) = (   0.1100000   0.0635085   0.0000000), wk =   0.0076628
        k(  240) = (   0.1050000   0.0606218   0.0000000), wk =   0.0076628
        k(  241) = (   0.1000000   0.0577350   0.0000000), wk =   0.0076628
        k(  242) = (   0.0950000   0.0548483   0.0000000), wk =   0.0076628
        k(  243) = (   0.0900000   0.0519615   0.0000000), wk =   0.0076628
        k(  244) = (   0.0850000   0.0490748   0.0000000), wk =   0.0076628
        k(  245) = (   0.0800000   0.0461880   0.0000000), wk =   0.0076628
        k(  246) = (   0.0750000   0.0433013   0.0000000), wk =   0.0076628
        k(  247) = (   0.0700000   0.0404145   0.0000000), wk =   0.0076628
        k(  248) = (   0.0650000   0.0375278   0.0000000), wk =   0.0076628
        k(  249) = (   0.0600000   0.0346410   0.0000000), wk =   0.0076628
        k(  250) = (   0.0550000   0.0317543   0.0000000), wk =   0.0076628
        k(  251) = (   0.0500000   0.0288675   0.0000000), wk =   0.0076628
        k(  252) = (   0.0450000   0.0259808   0.0000000), wk =   0.0076628
        k(  253) = (   0.0400000   0.0230940   0.0000000), wk =   0.0076628
        k(  254) = (   0.0350000   0.0202073   0.0000000), wk =   0.0076628
        k(  255) = (   0.0300000   0.0173205   0.0000000), wk =   0.0076628
        k(  256) = (   0.0250000   0.0144338   0.0000000), wk =   0.0076628
        k(  257) = (   0.0200000   0.0115470   0.0000000), wk =   0.0076628
        k(  258) = (   0.0150000   0.0086603   0.0000000), wk =   0.0076628
        k(  259) = (   0.0100000   0.0057735   0.0000000), wk =   0.0076628
        k(  260) = (   0.0050000   0.0028868   0.0000000), wk =   0.0076628
        k(  261) = (   0.0000000   0.0000000   0.0000000), wk =   0.0076628

                       cryst. coord.
        k(    1) = (   0.0000000   0.0000000   0.0000000), wk =   0.0076628
        k(    2) = (   0.0033333   0.0033333   0.0000000), wk =   0.0076628
        k(    3) = (   0.0066667   0.0066667   0.0000000), wk =   0.0076628
        k(    4) = (   0.0100000   0.0100000   0.0000000), wk =   0.0076628
        k(    5) = (   0.0133333   0.0133333   0.0000000), wk =   0.0076628
        k(    6) = (   0.0166667   0.0166667   0.0000000), wk =   0.0076628
        k(    7) = (   0.0200000   0.0200000   0.0000000), wk =   0.0076628
        k(    8) = (   0.0233333   0.0233333   0.0000000), wk =   0.0076628
        k(    9) = (   0.0266667   0.0266667   0.0000000), wk =   0.0076628
        k(   10) = (   0.0300000   0.0300000   0.0000000), wk =   0.0076628
        k(   11) = (   0.0333333   0.0333333   0.0000000), wk =   0.0076628
        k(   12) = (   0.0366667   0.0366667   0.0000000), wk =   0.0076628
        k(   13) = (   0.0400000   0.0400000   0.0000000), wk =   0.0076628
        k(   14) = (   0.0433333   0.0433333   0.0000000), wk =   0.0076628
        k(   15) = (   0.0466667   0.0466667   0.0000000), wk =   0.0076628
        k(   16) = (   0.0500000   0.0500000   0.0000000), wk =   0.0076628
        k(   17) = (   0.0533333   0.0533333   0.0000000), wk =   0.0076628
        k(   18) = (   0.0566667   0.0566667   0.0000000), wk =   0.0076628
        k(   19) = (   0.0600000   0.0600000   0.0000000), wk =   0.0076628
        k(   20) = (   0.0633333   0.0633333   0.0000000), wk =   0.0076628
        k(   21) = (   0.0666667   0.0666667   0.0000000), wk =   0.0076628
        k(   22) = (   0.0700000   0.0700000   0.0000000), wk =   0.0076628
        k(   23) = (   0.0733333   0.0733333   0.0000000), wk =   0.0076628
        k(   24) = (   0.0766667   0.0766667   0.0000000), wk =   0.0076628
        k(   25) = (   0.0800000   0.0800000   0.0000000), wk =   0.0076628
        k(   26) = (   0.0833333   0.0833333   0.0000000), wk =   0.0076628
        k(   27) = (   0.0866667   0.0866667   0.0000000), wk =   0.0076628
        k(   28) = (   0.0900000   0.0900000   0.0000000), wk =   0.0076628
        k(   29) = (   0.0933333   0.0933333   0.0000000), wk =   0.0076628
        k(   30) = (   0.0966667   0.0966667   0.0000000), wk =   0.0076628
        k(   31) = (   0.1000000   0.1000000   0.0000000), wk =   0.0076628
        k(   32) = (   0.1033333   0.1033333   0.0000000), wk =   0.0076628
        k(   33) = (   0.1066667   0.1066667   0.0000000), wk =   0.0076628
        k(   34) = (   0.1100000   0.1100000   0.0000000), wk =   0.0076628
        k(   35) = (   0.1133333   0.1133333   0.0000000), wk =   0.0076628
        k(   36) = (   0.1166667   0.1166667   0.0000000), wk =   0.0076628
        k(   37) = (   0.1200000   0.1200000   0.0000000), wk =   0.0076628
        k(   38) = (   0.1233333   0.1233333   0.0000000), wk =   0.0076628
        k(   39) = (   0.1266667   0.1266667   0.0000000), wk =   0.0076628
        k(   40) = (   0.1300000   0.1300000   0.0000000), wk =   0.0076628
        k(   41) = (   0.1333333   0.1333333   0.0000000), wk =   0.0076628
        k(   42) = (   0.1366667   0.1366667   0.0000000), wk =   0.0076628
        k(   43) = (   0.1400000   0.1400000   0.0000000), wk =   0.0076628
        k(   44) = (   0.1433333   0.1433333   0.0000000), wk =   0.0076628
        k(   45) = (   0.1466667   0.1466667   0.0000000), wk =   0.0076628
        k(   46) = (   0.1500000   0.1500000   0.0000000), wk =   0.0076628
        k(   47) = (   0.1533333   0.1533333   0.0000000), wk =   0.0076628
        k(   48) = (   0.1566667   0.1566667   0.0000000), wk =   0.0076628
        k(   49) = (   0.1600000   0.1600000   0.0000000), wk =   0.0076628
        k(   50) = (   0.1633333   0.1633333   0.0000000), wk =   0.0076628
        k(   51) = (   0.1666667   0.1666667   0.0000000), wk =   0.0076628
        k(   52) = (   0.1700000   0.1700000   0.0000000), wk =   0.0076628
        k(   53) = (   0.1733333   0.1733333   0.0000000), wk =   0.0076628
        k(   54) = (   0.1766667   0.1766667   0.0000000), wk =   0.0076628
        k(   55) = (   0.1800000   0.1800000   0.0000000), wk =   0.0076628
        k(   56) = (   0.1833333   0.1833333   0.0000000), wk =   0.0076628
        k(   57) = (   0.1866667   0.1866667   0.0000000), wk =   0.0076628
        k(   58) = (   0.1900000   0.1900000   0.0000000), wk =   0.0076628
        k(   59) = (   0.1933333   0.1933333   0.0000000), wk =   0.0076628
        k(   60) = (   0.1966667   0.1966667   0.0000000), wk =   0.0076628
        k(   61) = (   0.2000000   0.2000000   0.0000000), wk =   0.0076628
        k(   62) = (   0.2033333   0.2033333   0.0000000), wk =   0.0076628
        k(   63) = (   0.2066667   0.2066667   0.0000000), wk =   0.0076628
        k(   64) = (   0.2100000   0.2100000   0.0000000), wk =   0.0076628
        k(   65) = (   0.2133333   0.2133333   0.0000000), wk =   0.0076628
        k(   66) = (   0.2166667   0.2166667   0.0000000), wk =   0.0076628
        k(   67) = (   0.2200000   0.2200000   0.0000000), wk =   0.0076628
        k(   68) = (   0.2233333   0.2233333   0.0000000), wk =   0.0076628
        k(   69) = (   0.2266667   0.2266667   0.0000000), wk =   0.0076628
        k(   70) = (   0.2300000   0.2300000   0.0000000), wk =   0.0076628
        k(   71) = (   0.2333333   0.2333333   0.0000000), wk =   0.0076628
        k(   72) = (   0.2366667   0.2366667   0.0000000), wk =   0.0076628
        k(   73) = (   0.2400000   0.2400000   0.0000000), wk =   0.0076628
        k(   74) = (   0.2433333   0.2433333   0.0000000), wk =   0.0076628
        k(   75) = (   0.2466667   0.2466667   0.0000000), wk =   0.0076628
        k(   76) = (   0.2500000   0.2500000   0.0000000), wk =   0.0076628
        k(   77) = (   0.2533333   0.2533333   0.0000000), wk =   0.0076628
        k(   78) = (   0.2566667   0.2566667   0.0000000), wk =   0.0076628
        k(   79) = (   0.2600000   0.2600000   0.0000000), wk =   0.0076628
        k(   80) = (   0.2633333   0.2633333   0.0000000), wk =   0.0076628
        k(   81) = (   0.2666667   0.2666667   0.0000000), wk =   0.0076628
        k(   82) = (   0.2700000   0.2700000   0.0000000), wk =   0.0076628
        k(   83) = (   0.2733333   0.2733333   0.0000000), wk =   0.0076628
        k(   84) = (   0.2766667   0.2766667   0.0000000), wk =   0.0076628
        k(   85) = (   0.2800000   0.2800000   0.0000000), wk =   0.0076628
        k(   86) = (   0.2833333   0.2833333   0.0000000), wk =   0.0076628
        k(   87) = (   0.2866667   0.2866667   0.0000000), wk =   0.0076628
        k(   88) = (   0.2900000   0.2900000   0.0000000), wk =   0.0076628
        k(   89) = (   0.2933333   0.2933333   0.0000000), wk =   0.0076628
        k(   90) = (   0.2966667   0.2966667   0.0000000), wk =   0.0076628
        k(   91) = (   0.3000000   0.3000000   0.0000000), wk =   0.0076628
        k(   92) = (   0.3033333   0.3033333   0.0000000), wk =   0.0076628
        k(   93) = (   0.3066667   0.3066667   0.0000000), wk =   0.0076628
        k(   94) = (   0.3100000   0.3100000   0.0000000), wk =   0.0076628
        k(   95) = (   0.3133333   0.3133333   0.0000000), wk =   0.0076628
        k(   96) = (   0.3166667   0.3166667   0.0000000), wk =   0.0076628
        k(   97) = (   0.3200000   0.3200000   0.0000000), wk =   0.0076628
        k(   98) = (   0.3233333   0.3233333   0.0000000), wk =   0.0076628
        k(   99) = (   0.3266667   0.3266667   0.0000000), wk =   0.0076628
        k(  100) = (   0.3300000   0.3300000   0.0000000), wk =   0.0076628
        k(  101) = (   0.3333333   0.3333333   0.0000000), wk =   0.0076628
        k(  102) = (   0.3361111   0.3277778   0.0000000), wk =   0.0076628
        k(  103) = (   0.3388889   0.3222222   0.0000000), wk =   0.0076628
        k(  104) = (   0.3416667   0.3166667   0.0000000), wk =   0.0076628
        k(  105) = (   0.3444444   0.3111111   0.0000000), wk =   0.0076628
        k(  106) = (   0.3472222   0.3055556   0.0000000), wk =   0.0076628
        k(  107) = (   0.3500000   0.3000000   0.0000000), wk =   0.0076628
        k(  108) = (   0.3527778   0.2944444   0.0000000), wk =   0.0076628
        k(  109) = (   0.3555556   0.2888889   0.0000000), wk =   0.0076628
        k(  110) = (   0.3583333   0.2833333   0.0000000), wk =   0.0076628
        k(  111) = (   0.3611111   0.2777778   0.0000000), wk =   0.0076628
        k(  112) = (   0.3638889   0.2722222   0.0000000), wk =   0.0076628
        k(  113) = (   0.3666667   0.2666667   0.0000000), wk =   0.0076628
        k(  114) = (   0.3694444   0.2611111   0.0000000), wk =   0.0076628
        k(  115) = (   0.3722222   0.2555556   0.0000000), wk =   0.0076628
        k(  116) = (   0.3750000   0.2500000   0.0000000), wk =   0.0076628
        k(  117) = (   0.3777778   0.2444444   0.0000000), wk =   0.0076628
        k(  118) = (   0.3805556   0.2388889   0.0000000), wk =   0.0076628
        k(  119) = (   0.3833333   0.2333333   0.0000000), wk =   0.0076628
        k(  120) = (   0.3861111   0.2277778   0.0000000), wk =   0.0076628
        k(  121) = (   0.3888889   0.2222222   0.0000000), wk =   0.0076628
        k(  122) = (   0.3916667   0.2166667   0.0000000), wk =   0.0076628
        k(  123) = (   0.3944444   0.2111111   0.0000000), wk =   0.0076628
        k(  124) = (   0.3972222   0.2055556   0.0000000), wk =   0.0076628
        k(  125) = (   0.4000000   0.2000000   0.0000000), wk =   0.0076628
        k(  126) = (   0.4027778   0.1944444   0.0000000), wk =   0.0076628
        k(  127) = (   0.4055556   0.1888889   0.0000000), wk =   0.0076628
        k(  128) = (   0.4083333   0.1833333   0.0000000), wk =   0.0076628
        k(  129) = (   0.4111111   0.1777778   0.0000000), wk =   0.0076628
        k(  130) = (   0.4138889   0.1722222   0.0000000), wk =   0.0076628
        k(  131) = (   0.4166667   0.1666667   0.0000000), wk =   0.0076628
        k(  132) = (   0.4194444   0.1611111   0.0000000), wk =   0.0076628
        k(  133) = (   0.4222222   0.1555556   0.0000000), wk =   0.0076628
        k(  134) = (   0.4250000   0.1500000   0.0000000), wk =   0.0076628
        k(  135) = (   0.4277778   0.1444444   0.0000000), wk =   0.0076628
        k(  136) = (   0.4305556   0.1388889   0.0000000), wk =   0.0076628
        k(  137) = (   0.4333333   0.1333333   0.0000000), wk =   0.0076628
        k(  138) = (   0.4361111   0.1277778   0.0000000), wk =   0.0076628
        k(  139) = (   0.4388889   0.1222222   0.0000000), wk =   0.0076628
        k(  140) = (   0.4416667   0.1166667   0.0000000), wk =   0.0076628
        k(  141) = (   0.4444444   0.1111111   0.0000000), wk =   0.0076628
        k(  142) = (   0.4472222   0.1055556   0.0000000), wk =   0.0076628
        k(  143) = (   0.4500000   0.1000000   0.0000000), wk =   0.0076628
        k(  144) = (   0.4527778   0.0944444   0.0000000), wk =   0.0076628
        k(  145) = (   0.4555556   0.0888889   0.0000000), wk =   0.0076628
        k(  146) = (   0.4583333   0.0833333   0.0000000), wk =   0.0076628
        k(  147) = (   0.4611111   0.0777778   0.0000000), wk =   0.0076628
        k(  148) = (   0.4638889   0.0722222   0.0000000), wk =   0.0076628
        k(  149) = (   0.4666667   0.0666667   0.0000000), wk =   0.0076628
        k(  150) = (   0.4694444   0.0611111   0.0000000), wk =   0.0076628
        k(  151) = (   0.4722222   0.0555556   0.0000000), wk =   0.0076628
        k(  152) = (   0.4750000   0.0500000   0.0000000), wk =   0.0076628
        k(  153) = (   0.4777778   0.0444444   0.0000000), wk =   0.0076628
        k(  154) = (   0.4805556   0.0388889   0.0000000), wk =   0.0076628
        k(  155) = (   0.4833333   0.0333333   0.0000000), wk =   0.0076628
        k(  156) = (   0.4861111   0.0277778   0.0000000), wk =   0.0076628
        k(  157) = (   0.4888889   0.0222222   0.0000000), wk =   0.0076628
        k(  158) = (   0.4916667   0.0166667   0.0000000), wk =   0.0076628
        k(  159) = (   0.4944444   0.0111111   0.0000000), wk =   0.0076628
        k(  160) = (   0.4972222   0.0055556   0.0000000), wk =   0.0076628
        k(  161) = (   0.5000000   0.0000000   0.0000000), wk =   0.0076628
        k(  162) = (   0.4950000   0.0000000   0.0000000), wk =   0.0076628
        k(  163) = (   0.4900000  -0.0000000   0.0000000), wk =   0.0076628
        k(  164) = (   0.4850000   0.0000000   0.0000000), wk =   0.0076628
        k(  165) = (   0.4800000  -0.0000000   0.0000000), wk =   0.0076628
        k(  166) = (   0.4750000   0.0000000   0.0000000), wk =   0.0076628
        k(  167) = (   0.4700000  -0.0000000   0.0000000), wk =   0.0076628
        k(  168) = (   0.4650000   0.0000000   0.0000000), wk =   0.0076628
        k(  169) = (   0.4600000   0.0000000   0.0000000), wk =   0.0076628
        k(  170) = (   0.4550000   0.0000000   0.0000000), wk =   0.0076628
        k(  171) = (   0.4500000  -0.0000000   0.0000000), wk =   0.0076628
        k(  172) = (   0.4450000   0.0000000   0.0000000), wk =   0.0076628
        k(  173) = (   0.4400000  -0.0000000   0.0000000), wk =   0.0076628
        k(  174) = (   0.4350000   0.0000000   0.0000000), wk =   0.0076628
        k(  175) = (   0.4300000   0.0000000   0.0000000), wk =   0.0076628
        k(  176) = (   0.4250000   0.0000000   0.0000000), wk =   0.0076628
        k(  177) = (   0.4200000   0.0000000   0.0000000), wk =   0.0076628
        k(  178) = (   0.4150000   0.0000000   0.0000000), wk =   0.0076628
        k(  179) = (   0.4100000  -0.0000000   0.0000000), wk =   0.0076628
        k(  180) = (   0.4050000  -0.0000000   0.0000000), wk =   0.0076628
        k(  181) = (   0.4000000  -0.0000000   0.0000000), wk =   0.0076628
        k(  182) = (   0.3950000   0.0000000   0.0000000), wk =   0.0076628
        k(  183) = (   0.3900000   0.0000000   0.0000000), wk =   0.0076628
        k(  184) = (   0.3850000   0.0000000   0.0000000), wk =   0.0076628
        k(  185) = (   0.3800000   0.0000000   0.0000000), wk =   0.0076628
        k(  186) = (   0.3750000   0.0000000   0.0000000), wk =   0.0076628
        k(  187) = (   0.3700000  -0.0000000   0.0000000), wk =   0.0076628
        k(  188) = (   0.3650000  -0.0000000   0.0000000), wk =   0.0076628
        k(  189) = (   0.3600000  -0.0000000   0.0000000), wk =   0.0076628
        k(  190) = (   0.3550000  -0.0000000   0.0000000), wk =   0.0076628
        k(  191) = (   0.3500000   0.0000000   0.0000000), wk =   0.0076628
        k(  192) = (   0.3450000   0.0000000   0.0000000), wk =   0.0076628
        k(  193) = (   0.3400000   0.0000000   0.0000000), wk =   0.0076628
        k(  194) = (   0.3350000   0.0000000   0.0000000), wk =   0.0076628
        k(  195) = (   0.3300000   0.0000000   0.0000000), wk =   0.0076628
        k(  196) = (   0.3250000   0.0000000   0.0000000), wk =   0.0076628
        k(  197) = (   0.3200000  -0.0000000   0.0000000), wk =   0.0076628
        k(  198) = (   0.3150000  -0.0000000   0.0000000), wk =   0.0076628
        k(  199) = (   0.3100000   0.0000000   0.0000000), wk =   0.0076628
        k(  200) = (   0.3050000   0.0000000   0.0000000), wk =   0.0076628
        k(  201) = (   0.3000000   0.0000000   0.0000000), wk =   0.0076628
        k(  202) = (   0.2950000   0.0000000   0.0000000), wk =   0.0076628
        k(  203) = (   0.2900000  -0.0000000   0.0000000), wk =   0.0076628
        k(  204) = (   0.2850000  -0.0000000   0.0000000), wk =   0.0076628
        k(  205) = (   0.2800000  -0.0000000   0.0000000), wk =   0.0076628
        k(  206) = (   0.2750000  -0.0000000   0.0000000), wk =   0.0076628
        k(  207) = (   0.2700000   0.0000000   0.0000000), wk =   0.0076628
        k(  208) = (   0.2650000   0.0000000   0.0000000), wk =   0.0076628
        k(  209) = (   0.2600000   0.0000000   0.0000000), wk =   0.0076628
        k(  210) = (   0.2550000   0.0000000   0.0000000), wk =   0.0076628
        k(  211) = (   0.2500000   0.0000000   0.0000000), wk =   0.0076628
        k(  212) = (   0.2450000  -0.0000000   0.0000000), wk =   0.0076628
        k(  213) = (   0.2400000  -0.0000000   0.0000000), wk =   0.0076628
        k(  214) = (   0.2350000  -0.0000000   0.0000000), wk =   0.0076628
        k(  215) = (   0.2300000  -0.0000000   0.0000000), wk =   0.0076628
        k(  216) = (   0.2250000   0.0000000   0.0000000), wk =   0.0076628
        k(  217) = (   0.2200000   0.0000000   0.0000000), wk =   0.0076628
        k(  218) = (   0.2150000   0.0000000   0.0000000), wk =   0.0076628
        k(  219) = (   0.2100000   0.0000000   0.0000000), wk =   0.0076628
        k(  220) = (   0.2050000  -0.0000000   0.0000000), wk =   0.0076628
        k(  221) = (   0.2000000  -0.0000000   0.0000000), wk =   0.0076628
        k(  222) = (   0.1950000   0.0000000   0.0000000), wk =   0.0076628
        k(  223) = (   0.1900000   0.0000000   0.0000000), wk =   0.0076628
        k(  224) = (   0.1850000  -0.0000000   0.0000000), wk =   0.0076628
        k(  225) = (   0.1800000  -0.0000000   0.0000000), wk =   0.0076628
        k(  226) = (   0.1750000   0.0000000   0.0000000), wk =   0.0076628
        k(  227) = (   0.1700000   0.0000000   0.0000000), wk =   0.0076628
        k(  228) = (   0.1650000   0.0000000   0.0000000), wk =   0.0076628
        k(  229) = (   0.1600000  -0.0000000   0.0000000), wk =   0.0076628
        k(  230) = (   0.1550000  -0.0000000   0.0000000), wk =   0.0076628
        k(  231) = (   0.1500000   0.0000000   0.0000000), wk =   0.0076628
        k(  232) = (   0.1450000  -0.0000000   0.0000000), wk =   0.0076628
        k(  233) = (   0.1400000  -0.0000000   0.0000000), wk =   0.0076628
        k(  234) = (   0.1350000   0.0000000   0.0000000), wk =   0.0076628
        k(  235) = (   0.1300000   0.0000000   0.0000000), wk =   0.0076628
        k(  236) = (   0.1250000   0.0000000   0.0000000), wk =   0.0076628
        k(  237) = (   0.1200000  -0.0000000   0.0000000), wk =   0.0076628
        k(  238) = (   0.1150000  -0.0000000   0.0000000), wk =   0.0076628
        k(  239) = (   0.1100000   0.0000000   0.0000000), wk =   0.0076628
        k(  240) = (   0.1050000   0.0000000   0.0000000), wk =   0.0076628
        k(  241) = (   0.1000000  -0.0000000   0.0000000), wk =   0.0076628
        k(  242) = (   0.0950000   0.0000000   0.0000000), wk =   0.0076628
        k(  243) = (   0.0900000   0.0000000   0.0000000), wk =   0.0076628
        k(  244) = (   0.0850000  -0.0000000   0.0000000), wk =   0.0076628
        k(  245) = (   0.0800000  -0.0000000   0.0000000), wk =   0.0076628
        k(  246) = (   0.0750000   0.0000000   0.0000000), wk =   0.0076628
        k(  247) = (   0.0700000  -0.0000000   0.0000000), wk =   0.0076628
        k(  248) = (   0.0650000   0.0000000   0.0000000), wk =   0.0076628
        k(  249) = (   0.0600000  -0.0000000   0.0000000), wk =   0.0076628
        k(  250) = (   0.0550000   0.0000000   0.0000000), wk =   0.0076628
        k(  251) = (   0.0500000  -0.0000000   0.0000000), wk =   0.0076628
        k(  252) = (   0.0450000   0.0000000   0.0000000), wk =   0.0076628
        k(  253) = (   0.0400000   0.0000000   0.0000000), wk =   0.0076628
        k(  254) = (   0.0350000   0.0000000   0.0000000), wk =   0.0076628
        k(  255) = (   0.0300000   0.0000000   0.0000000), wk =   0.0076628
        k(  256) = (   0.0250000   0.0000000   0.0000000), wk =   0.0076628
        k(  257) = (   0.0200000  -0.0000000   0.0000000), wk =   0.0076628
        k(  258) = (   0.0150000   0.0000000   0.0000000), wk =   0.0076628
        k(  259) = (   0.0100000  -0.0000000   0.0000000), wk =   0.0076628
        k(  260) = (   0.0050000  -0.0000000   0.0000000), wk =   0.0076628
        k(  261) = (   0.0000000   0.0000000   0.0000000), wk =   0.0076628

     Dense  grid:   124953 G-vectors     FFT dimensions: (  36,  36, 250)

     Smooth grid:    89281 G-vectors     FFT dimensions: (  30,  30, 225)

     Dynamical RAM for                 wfc:       5.96 MB

     Dynamical RAM for     wfc (w. buffer):       5.96 MB

     Dynamical RAM for           str. fact:       5.72 MB

     Dynamical RAM for           local pot:       0.00 MB

     Dynamical RAM for          nlocal pot:      11.24 MB

     Dynamical RAM for                qrad:       4.82 MB

     Dynamical RAM for          rho,v,vnew:      13.14 MB

     Dynamical RAM for           G-vectors:       7.83 MB

     Dynamical RAM for          h,s,v(r/c):       0.22 MB

     Dynamical RAM for          <psi|beta>:       0.04 MB

     Dynamical RAM for                 psi:      11.92 MB

     Dynamical RAM for                hpsi:      11.92 MB

     Dynamical RAM for      wfcinit/wfcrot:      11.95 MB

     Estimated static dynamical RAM per process >      68.69 MB

     Estimated max dynamical RAM per process >      92.79 MB
 ----2D----2D----2D----2D----2D----2D----2D----2D----2D----2D----2D----2D
  The code is running with the 2D cutoff
  Please refer to:
  Sohier, T., Calandra, M., & Mauri, F. (2017), 
  Density functional perturbation theory for gated two-dimensional heterostructures:
  Theoretical developments and application to flexural phonons in graphene.
  Physical Review B, 96(7), 75448. https://doi.org/10.1103/PhysRevB.96.075448
 ----2D----2D----2D----2D----2D----2D----2D----2D----2D----2D----2D----2D

     The potential is recalculated from file :
     ./tmp/crsi2n4.save/charge-density

     Starting wfcs are   34 randomized atomic wfcs +    1 random wfcs

     Band Structure Calculation
     Davidson diagonalization with overlap

     Computing kpt #:     1  of   261
     total cpu time spent up to now is        3.7 secs

     Computing kpt #:     2  of   261
     total cpu time spent up to now is        5.4 secs

     Computing kpt #:     3  of   261
     total cpu time spent up to now is        7.2 secs

     Computing kpt #:     4  of   261
     total cpu time spent up to now is        8.9 secs

     Computing kpt #:     5  of   261
     total cpu time spent up to now is       10.7 secs

     Computing kpt #:     6  of   261
     total cpu time spent up to now is       12.5 secs

     Computing kpt #:     7  of   261
     total cpu time spent up to now is       14.4 secs

     Computing kpt #:     8  of   261
     total cpu time spent up to now is       16.2 secs

     Computing kpt #:     9  of   261
     total cpu time spent up to now is       18.1 secs

     Computing kpt #:    10  of   261
     total cpu time spent up to now is       19.8 secs

     Computing kpt #:    11  of   261
     total cpu time spent up to now is       21.6 secs

     Computing kpt #:    12  of   261
     total cpu time spent up to now is       23.5 secs

     Computing kpt #:    13  of   261
     total cpu time spent up to now is       25.4 secs

     Computing kpt #:    14  of   261
     total cpu time spent up to now is       27.3 secs

     Computing kpt #:    15  of   261
     total cpu time spent up to now is       29.1 secs

     Computing kpt #:    16  of   261
     total cpu time spent up to now is       31.0 secs

     Computing kpt #:    17  of   261
     total cpu time spent up to now is       32.8 secs

     Computing kpt #:    18  of   261
     total cpu time spent up to now is       34.7 secs

     Computing kpt #:    19  of   261
     total cpu time spent up to now is       36.5 secs

     Computing kpt #:    20  of   261
     total cpu time spent up to now is       38.4 secs

     Computing kpt #:    21  of   261
     total cpu time spent up to now is       40.3 secs

     Computing kpt #:    22  of   261
     total cpu time spent up to now is       42.3 secs

     Computing kpt #:    23  of   261
     total cpu time spent up to now is       44.2 secs

     Computing kpt #:    24  of   261
     total cpu time spent up to now is       46.1 secs

     Computing kpt #:    25  of   261
     total cpu time spent up to now is       48.3 secs

     Computing kpt #:    26  of   261
     total cpu time spent up to now is       50.5 secs

     Computing kpt #:    27  of   261
     total cpu time spent up to now is       52.6 secs

     Computing kpt #:    28  of   261
     total cpu time spent up to now is       54.8 secs

     Computing kpt #:    29  of   261
     total cpu time spent up to now is       57.0 secs

     Computing kpt #:    30  of   261
     total cpu time spent up to now is       59.5 secs

     Computing kpt #:    31  of   261
     total cpu time spent up to now is       61.6 secs

     Computing kpt #:    32  of   261
     total cpu time spent up to now is       63.7 secs

     Computing kpt #:    33  of   261
     total cpu time spent up to now is       65.9 secs

     Computing kpt #:    34  of   261
     total cpu time spent up to now is       68.2 secs

     Computing kpt #:    35  of   261
     total cpu time spent up to now is       70.5 secs

     Computing kpt #:    36  of   261
     total cpu time spent up to now is       72.7 secs

     Computing kpt #:    37  of   261
     total cpu time spent up to now is       75.0 secs

     Computing kpt #:    38  of   261
     total cpu time spent up to now is       77.4 secs

     Computing kpt #:    39  of   261
     c_bands:  1 eigenvalues not converged
     total cpu time spent up to now is       80.3 secs

     Computing kpt #:    40  of   261
     total cpu time spent up to now is       82.5 secs

     Computing kpt #:    41  of   261
     total cpu time spent up to now is       84.8 secs

     Computing kpt #:    42  of   261
     total cpu time spent up to now is       87.1 secs

     Computing kpt #:    43  of   261
     total cpu time spent up to now is       89.3 secs

     Computing kpt #:    44  of   261
     total cpu time spent up to now is       91.5 secs

     Computing kpt #:    45  of   261
     total cpu time spent up to now is       93.8 secs

     Computing kpt #:    46  of   261
     total cpu time spent up to now is       96.1 secs

     Computing kpt #:    47  of   261
     total cpu time spent up to now is       98.4 secs

     Computing kpt #:    48  of   261
     total cpu time spent up to now is      100.5 secs

     Computing kpt #:    49  of   261
     total cpu time spent up to now is      102.8 secs

     Computing kpt #:    50  of   261
     total cpu time spent up to now is      105.0 secs

     Computing kpt #:    51  of   261
     total cpu time spent up to now is      107.4 secs

     Computing kpt #:    52  of   261
     c_bands:  1 eigenvalues not converged
     total cpu time spent up to now is      110.3 secs

     Computing kpt #:    53  of   261
     c_bands:  1 eigenvalues not converged
     total cpu time spent up to now is      113.2 secs

     Computing kpt #:    54  of   261
     total cpu time spent up to now is      116.1 secs

     Computing kpt #:    55  of   261
     total cpu time spent up to now is      118.6 secs

     Computing kpt #:    56  of   261
     total cpu time spent up to now is      120.9 secs

     Computing kpt #:    57  of   261
     total cpu time spent up to now is      123.0 secs

     Computing kpt #:    58  of   261
     total cpu time spent up to now is      125.1 secs

     Computing kpt #:    59  of   261
     total cpu time spent up to now is      127.2 secs

     Computing kpt #:    60  of   261
     total cpu time spent up to now is      129.2 secs

     Computing kpt #:    61  of   261
     total cpu time spent up to now is      131.1 secs

     Computing kpt #:    62  of   261
     total cpu time spent up to now is      133.0 secs

     Computing kpt #:    63  of   261
     total cpu time spent up to now is      134.9 secs

     Computing kpt #:    64  of   261
     total cpu time spent up to now is      137.1 secs

     Computing kpt #:    65  of   261
     total cpu time spent up to now is      139.2 secs

     Computing kpt #:    66  of   261
     total cpu time spent up to now is      141.5 secs

     Computing kpt #:    67  of   261
     total cpu time spent up to now is      143.7 secs

     Computing kpt #:    68  of   261
     total cpu time spent up to now is      145.8 secs

     Computing kpt #:    69  of   261
     total cpu time spent up to now is      148.4 secs

     Computing kpt #:    70  of   261
     total cpu time spent up to now is      151.3 secs

     Computing kpt #:    71  of   261
     total cpu time spent up to now is      153.9 secs

     Computing kpt #:    72  of   261
     total cpu time spent up to now is      156.2 secs

     Computing kpt #:    73  of   261
     total cpu time spent up to now is      158.5 secs

     Computing kpt #:    74  of   261
     total cpu time spent up to now is      160.5 secs

     Computing kpt #:    75  of   261
     total cpu time spent up to now is      162.6 secs

     Computing kpt #:    76  of   261
     total cpu time spent up to now is      164.5 secs

     Computing kpt #:    77  of   261
     total cpu time spent up to now is      166.4 secs

     Computing kpt #:    78  of   261
     total cpu time spent up to now is      168.3 secs

     Computing kpt #:    79  of   261
     total cpu time spent up to now is      170.2 secs

     Computing kpt #:    80  of   261
     total cpu time spent up to now is      172.0 secs

     Computing kpt #:    81  of   261
     total cpu time spent up to now is      173.8 secs

     Computing kpt #:    82  of   261
     total cpu time spent up to now is      175.6 secs

     Computing kpt #:    83  of   261
     total cpu time spent up to now is      177.4 secs

     Computing kpt #:    84  of   261
     total cpu time spent up to now is      179.2 secs

     Computing kpt #:    85  of   261
     total cpu time spent up to now is      181.0 secs

     Computing kpt #:    86  of   261
     total cpu time spent up to now is      182.8 secs

     Computing kpt #:    87  of   261
     total cpu time spent up to now is      184.7 secs

     Computing kpt #:    88  of   261
     total cpu time spent up to now is      186.5 secs

     Computing kpt #:    89  of   261
     total cpu time spent up to now is      188.4 secs

     Computing kpt #:    90  of   261
     total cpu time spent up to now is      190.3 secs

     Computing kpt #:    91  of   261
     total cpu time spent up to now is      192.2 secs

     Computing kpt #:    92  of   261
     total cpu time spent up to now is      194.1 secs

     Computing kpt #:    93  of   261
     total cpu time spent up to now is      195.7 secs

     Computing kpt #:    94  of   261
     total cpu time spent up to now is      197.4 secs

     Computing kpt #:    95  of   261
     total cpu time spent up to now is      199.3 secs

     Computing kpt #:    96  of   261
     total cpu time spent up to now is      201.2 secs

     Computing kpt #:    97  of   261
     total cpu time spent up to now is      203.0 secs

     Computing kpt #:    98  of   261
     total cpu time spent up to now is      204.7 secs

     Computing kpt #:    99  of   261
     total cpu time spent up to now is      206.2 secs

     Computing kpt #:   100  of   261
     total cpu time spent up to now is      207.7 secs

     Computing kpt #:   101  of   261
     total cpu time spent up to now is      209.2 secs

     Computing kpt #:   102  of   261
     total cpu time spent up to now is      210.7 secs

     Computing kpt #:   103  of   261
     total cpu time spent up to now is      212.3 secs

     Computing kpt #:   104  of   261
     total cpu time spent up to now is      213.9 secs

     Computing kpt #:   105  of   261
     total cpu time spent up to now is      215.6 secs

     Computing kpt #:   106  of   261
     total cpu time spent up to now is      217.1 secs

     Computing kpt #:   107  of   261
     total cpu time spent up to now is      218.8 secs

     Computing kpt #:   108  of   261
     total cpu time spent up to now is      220.4 secs

     Computing kpt #:   109  of   261
     total cpu time spent up to now is      222.1 secs

     Computing kpt #:   110  of   261
     total cpu time spent up to now is      223.8 secs

     Computing kpt #:   111  of   261
     total cpu time spent up to now is      225.5 secs

     Computing kpt #:   112  of   261
     total cpu time spent up to now is      227.2 secs

     Computing kpt #:   113  of   261
     total cpu time spent up to now is      228.9 secs

     Computing kpt #:   114  of   261
     total cpu time spent up to now is      230.6 secs

     Computing kpt #:   115  of   261
     total cpu time spent up to now is      232.3 secs

     Computing kpt #:   116  of   261
     total cpu time spent up to now is      234.1 secs

     Computing kpt #:   117  of   261
     total cpu time spent up to now is      235.9 secs

     Computing kpt #:   118  of   261
     total cpu time spent up to now is      237.7 secs

     Computing kpt #:   119  of   261
     total cpu time spent up to now is      239.4 secs

     Computing kpt #:   120  of   261
     total cpu time spent up to now is      241.2 secs

     Computing kpt #:   121  of   261
     total cpu time spent up to now is      243.0 secs

     Computing kpt #:   122  of   261
     total cpu time spent up to now is      244.9 secs

     Computing kpt #:   123  of   261
     total cpu time spent up to now is      246.8 secs

     Computing kpt #:   124  of   261
     total cpu time spent up to now is      248.8 secs

     Computing kpt #:   125  of   261
     total cpu time spent up to now is      250.7 secs

     Computing kpt #:   126  of   261
     total cpu time spent up to now is      252.8 secs

     Computing kpt #:   127  of   261
     total cpu time spent up to now is      254.8 secs

     Computing kpt #:   128  of   261
     total cpu time spent up to now is      256.8 secs

     Computing kpt #:   129  of   261
     total cpu time spent up to now is      258.7 secs

     Computing kpt #:   130  of   261
     total cpu time spent up to now is      260.7 secs

     Computing kpt #:   131  of   261
     total cpu time spent up to now is      262.7 secs

     Computing kpt #:   132  of   261
     total cpu time spent up to now is      264.5 secs

     Computing kpt #:   133  of   261
     total cpu time spent up to now is      266.2 secs

     Computing kpt #:   134  of   261
     total cpu time spent up to now is      268.0 secs

     Computing kpt #:   135  of   261
     total cpu time spent up to now is      269.8 secs

     Computing kpt #:   136  of   261
     total cpu time spent up to now is      271.6 secs

     Computing kpt #:   137  of   261
     total cpu time spent up to now is      273.4 secs

     Computing kpt #:   138  of   261
     total cpu time spent up to now is      275.4 secs

     Computing kpt #:   139  of   261
     total cpu time spent up to now is      277.2 secs

     Computing kpt #:   140  of   261
     total cpu time spent up to now is      279.0 secs

     Computing kpt #:   141  of   261
     total cpu time spent up to now is      281.0 secs

     Computing kpt #:   142  of   261
     total cpu time spent up to now is      283.0 secs

     Computing kpt #:   143  of   261
     total cpu time spent up to now is      284.9 secs

     Computing kpt #:   144  of   261
     total cpu time spent up to now is      286.9 secs

     Computing kpt #:   145  of   261
     total cpu time spent up to now is      288.9 secs

     Computing kpt #:   146  of   261
     total cpu time spent up to now is      291.0 secs

     Computing kpt #:   147  of   261
     total cpu time spent up to now is      293.0 secs

     Computing kpt #:   148  of   261
     total cpu time spent up to now is      295.0 secs

     Computing kpt #:   149  of   261
     total cpu time spent up to now is      296.9 secs

     Computing kpt #:   150  of   261
     total cpu time spent up to now is      298.8 secs

     Computing kpt #:   151  of   261
     total cpu time spent up to now is      300.8 secs

     Computing kpt #:   152  of   261
     total cpu time spent up to now is      302.8 secs

     Computing kpt #:   153  of   261
     total cpu time spent up to now is      304.6 secs

     Computing kpt #:   154  of   261
     total cpu time spent up to now is      306.6 secs

     Computing kpt #:   155  of   261
     total cpu time spent up to now is      308.5 secs

     Computing kpt #:   156  of   261
     total cpu time spent up to now is      310.4 secs

     Computing kpt #:   157  of   261
     total cpu time spent up to now is      312.0 secs

     Computing kpt #:   158  of   261
     total cpu time spent up to now is      313.9 secs

     Computing kpt #:   159  of   261
     total cpu time spent up to now is      315.7 secs

     Computing kpt #:   160  of   261
     total cpu time spent up to now is      317.2 secs

     Computing kpt #:   161  of   261
     total cpu time spent up to now is      318.8 secs

     Computing kpt #:   162  of   261
     total cpu time spent up to now is      320.4 secs

     Computing kpt #:   163  of   261
     total cpu time spent up to now is      322.0 secs

     Computing kpt #:   164  of   261
     total cpu time spent up to now is      323.7 secs

     Computing kpt #:   165  of   261
     total cpu time spent up to now is      325.3 secs

     Computing kpt #:   166  of   261
     total cpu time spent up to now is      326.9 secs

     Computing kpt #:   167  of   261
     total cpu time spent up to now is      328.6 secs

     Computing kpt #:   168  of   261
     total cpu time spent up to now is      330.2 secs

     Computing kpt #:   169  of   261
     total cpu time spent up to now is      331.9 secs

     Computing kpt #:   170  of   261
     total cpu time spent up to now is      333.5 secs

     Computing kpt #:   171  of   261
     total cpu time spent up to now is      335.2 secs

     Computing kpt #:   172  of   261
     total cpu time spent up to now is      336.8 secs

     Computing kpt #:   173  of   261
     total cpu time spent up to now is      338.5 secs

     Computing kpt #:   174  of   261
     total cpu time spent up to now is      340.3 secs

     Computing kpt #:   175  of   261
     total cpu time spent up to now is      342.1 secs

     Computing kpt #:   176  of   261
     total cpu time spent up to now is      343.8 secs

     Computing kpt #:   177  of   261
     total cpu time spent up to now is      345.6 secs

     Computing kpt #:   178  of   261
     total cpu time spent up to now is      347.4 secs

     Computing kpt #:   179  of   261
     total cpu time spent up to now is      349.2 secs

     Computing kpt #:   180  of   261
     total cpu time spent up to now is      351.2 secs

     Computing kpt #:   181  of   261
     total cpu time spent up to now is      352.9 secs

     Computing kpt #:   182  of   261
     total cpu time spent up to now is      354.8 secs

     Computing kpt #:   183  of   261
     total cpu time spent up to now is      356.6 secs

     Computing kpt #:   184  of   261
     total cpu time spent up to now is      358.6 secs

     Computing kpt #:   185  of   261
     total cpu time spent up to now is      360.5 secs

     Computing kpt #:   186  of   261
     total cpu time spent up to now is      362.4 secs

     Computing kpt #:   187  of   261
     total cpu time spent up to now is      364.4 secs

     Computing kpt #:   188  of   261
     total cpu time spent up to now is      366.3 secs

     Computing kpt #:   189  of   261
     total cpu time spent up to now is      368.3 secs

     Computing kpt #:   190  of   261
     total cpu time spent up to now is      370.2 secs

     Computing kpt #:   191  of   261
     total cpu time spent up to now is      372.1 secs

     Computing kpt #:   192  of   261
     total cpu time spent up to now is      374.1 secs

     Computing kpt #:   193  of   261
     total cpu time spent up to now is      376.0 secs

     Computing kpt #:   194  of   261
     total cpu time spent up to now is      378.0 secs

     Computing kpt #:   195  of   261
     total cpu time spent up to now is      380.1 secs

     Computing kpt #:   196  of   261
     total cpu time spent up to now is      382.0 secs

     Computing kpt #:   197  of   261
     total cpu time spent up to now is      384.0 secs

     Computing kpt #:   198  of   261
     total cpu time spent up to now is      386.0 secs

     Computing kpt #:   199  of   261
     total cpu time spent up to now is      388.0 secs

     Computing kpt #:   200  of   261
     total cpu time spent up to now is      390.1 secs

     Computing kpt #:   201  of   261
     total cpu time spent up to now is      392.1 secs

     Computing kpt #:   202  of   261
     total cpu time spent up to now is      394.2 secs

     Computing kpt #:   203  of   261
     total cpu time spent up to now is      396.4 secs

     Computing kpt #:   204  of   261
     total cpu time spent up to now is      398.5 secs

     Computing kpt #:   205  of   261
     total cpu time spent up to now is      400.6 secs

     Computing kpt #:   206  of   261
     total cpu time spent up to now is      402.9 secs

     Computing kpt #:   207  of   261
     total cpu time spent up to now is      405.0 secs

     Computing kpt #:   208  of   261
     total cpu time spent up to now is      407.2 secs

     Computing kpt #:   209  of   261
     total cpu time spent up to now is      409.4 secs

     Computing kpt #:   210  of   261
     total cpu time spent up to now is      411.4 secs

     Computing kpt #:   211  of   261
     total cpu time spent up to now is      413.5 secs

     Computing kpt #:   212  of   261
     total cpu time spent up to now is      415.6 secs

     Computing kpt #:   213  of   261
     total cpu time spent up to now is      418.1 secs

     Computing kpt #:   214  of   261
     total cpu time spent up to now is      420.5 secs

     Computing kpt #:   215  of   261
     total cpu time spent up to now is      423.0 secs

     Computing kpt #:   216  of   261
     total cpu time spent up to now is      425.4 secs

     Computing kpt #:   217  of   261
     total cpu time spent up to now is      427.8 secs

     Computing kpt #:   218  of   261
     total cpu time spent up to now is      430.3 secs

     Computing kpt #:   219  of   261
     total cpu time spent up to now is      432.6 secs

     Computing kpt #:   220  of   261
     total cpu time spent up to now is      435.0 secs

     Computing kpt #:   221  of   261
     total cpu time spent up to now is      437.5 secs

     Computing kpt #:   222  of   261
     total cpu time spent up to now is      439.9 secs

     Computing kpt #:   223  of   261
     total cpu time spent up to now is      442.2 secs

     Computing kpt #:   224  of   261
     total cpu time spent up to now is      444.5 secs

     Computing kpt #:   225  of   261
     total cpu time spent up to now is      446.7 secs

     Computing kpt #:   226  of   261
     total cpu time spent up to now is      449.1 secs

     Computing kpt #:   227  of   261
     total cpu time spent up to now is      451.3 secs

     Computing kpt #:   228  of   261
     total cpu time spent up to now is      453.5 secs

     Computing kpt #:   229  of   261
     total cpu time spent up to now is      455.6 secs

     Computing kpt #:   230  of   261
     total cpu time spent up to now is      457.7 secs

     Computing kpt #:   231  of   261
     total cpu time spent up to now is      459.9 secs

     Computing kpt #:   232  of   261
     total cpu time spent up to now is      462.1 secs

     Computing kpt #:   233  of   261
     total cpu time spent up to now is      464.3 secs

     Computing kpt #:   234  of   261
     total cpu time spent up to now is      466.4 secs

     Computing kpt #:   235  of   261
     total cpu time spent up to now is      468.5 secs

     Computing kpt #:   236  of   261
     total cpu time spent up to now is      470.7 secs

     Computing kpt #:   237  of   261
     total cpu time spent up to now is      472.9 secs

     Computing kpt #:   238  of   261
     total cpu time spent up to now is      475.0 secs

     Computing kpt #:   239  of   261
     total cpu time spent up to now is      477.2 secs

     Computing kpt #:   240  of   261
     total cpu time spent up to now is      479.1 secs

     Computing kpt #:   241  of   261
     total cpu time spent up to now is      481.3 secs

     Computing kpt #:   242  of   261
     total cpu time spent up to now is      483.4 secs

     Computing kpt #:   243  of   261
     total cpu time spent up to now is      485.6 secs

     Computing kpt #:   244  of   261
     total cpu time spent up to now is      487.6 secs

     Computing kpt #:   245  of   261
     total cpu time spent up to now is      489.8 secs

     Computing kpt #:   246  of   261
     total cpu time spent up to now is      492.0 secs

     Computing kpt #:   247  of   261
     total cpu time spent up to now is      494.3 secs

     Computing kpt #:   248  of   261
     total cpu time spent up to now is      496.4 secs

     Computing kpt #:   249  of   261
     total cpu time spent up to now is      498.4 secs

     Computing kpt #:   250  of   261
     total cpu time spent up to now is      500.5 secs

     Computing kpt #:   251  of   261
     total cpu time spent up to now is      502.7 secs

     Computing kpt #:   252  of   261
     total cpu time spent up to now is      504.6 secs

     Computing kpt #:   253  of   261
     total cpu time spent up to now is      506.6 secs

     Computing kpt #:   254  of   261
     total cpu time spent up to now is      508.5 secs

     Computing kpt #:   255  of   261
     total cpu time spent up to now is      510.3 secs

     Computing kpt #:   256  of   261
     total cpu time spent up to now is      512.4 secs

     Computing kpt #:   257  of   261
     total cpu time spent up to now is      514.2 secs

     Computing kpt #:   258  of   261
     total cpu time spent up to now is      516.1 secs

     Computing kpt #:   259  of   261
     total cpu time spent up to now is      517.8 secs

     Computing kpt #:   260  of   261
     total cpu time spent up to now is      519.6 secs

     Computing kpt #:   261  of   261
     total cpu time spent up to now is      521.6 secs

     ethr =  2.38E-13,  avg # of iterations = 74.3

     total cpu time spent up to now is      521.6 secs

     End of band structure calculation

          k = 0.0000 0.0000 0.0000 ( 11265 PWs)   bands (ev):

   -77.9030 -49.1155 -49.0735 -49.0735 -25.1108 -25.0394 -22.2379 -20.8510
   -14.4805 -11.9082  -9.8877  -9.2003  -9.2001  -9.1254  -9.1251  -8.9089
    -8.9087  -7.9057  -7.6172  -7.6165  -5.6159  -3.2243  -3.2233  -3.0926
    -3.0924  -0.3491  -0.0101   2.2575   2.2832   2.4669   3.7837   3.8550
     3.8553   3.8918   3.8919

          k = 0.0033 0.0058 0.0000 ( 11245 PWs)   bands (ev):

   -77.9029 -49.1155 -49.0736 -49.0736 -25.1101 -25.0388 -22.2374 -20.8507
   -14.4799 -11.9080  -9.8877  -9.2021  -9.2007  -9.1283  -9.1260  -8.9101
    -8.9087  -7.9066  -7.6172  -7.6164  -5.6162  -3.2239  -3.2237  -3.0937
    -3.0928  -0.3472  -0.0085   2.2583   2.2840   2.4685   3.7667   3.8568
     3.8649   3.8933   3.8944

          k = 0.0067 0.0115 0.0000 ( 11237 PWs)   bands (ev):

   -77.9029 -49.1154 -49.0740 -49.0737 -25.1083 -25.0370 -22.2358 -20.8499
   -14.4783 -11.9072  -9.8878  -9.2080  -9.2020  -9.1379  -9.1280  -8.9143
    -8.9079  -7.9092  -7.6193  -7.6139  -5.6171  -3.2259  -3.2218  -3.0967
    -3.0941  -0.3417  -0.0038   2.2608   2.2864   2.4732   3.7327   3.8611
     3.8642   3.8979   3.9155

          k = 0.0100 0.0173 0.0000 ( 11233 PWs)   bands (ev):

   -77.9028 -49.1153 -49.0746 -49.0738 -25.1051 -25.0339 -22.2332 -20.8484
   -14.4755 -11.9059  -9.8879  -9.2176  -9.2044  -9.1536  -9.1314  -8.9211
    -8.9067  -7.9136  -7.6228  -7.6100  -5.6187  -3.2291  -3.2186  -3.1018
    -3.0961  -0.3325   0.0039   2.2647   2.2904   2.4811   3.6940   3.8468
     3.8696   3.9055   3.9485

          k = 0.0133 0.0231 0.0000 ( 11225 PWs)   bands (ev):

   -77.9027 -49.1151 -49.0755 -49.0740 -25.1007 -25.0296 -22.2296 -20.8464
   -14.4717 -11.9041  -9.8883  -9.2310  -9.2086  -9.1744  -9.1364  -8.9305
    -8.9050  -7.9195  -7.6278  -7.6049  -5.6210  -3.2335  -3.2141  -3.1088
    -3.0989  -0.3198   0.0147   2.2702   2.2959   2.4921   3.6530   3.8219
     3.8805   3.9161   3.9840

          k = 0.0167 0.0289 0.0000 ( 11233 PWs)   bands (ev):

   -77.9025 -49.1149 -49.0766 -49.0742 -25.0951 -25.0240 -22.2250 -20.8438
   -14.4667 -11.9018  -9.8890  -9.2480  -9.2186  -9.1962  -9.1430  -8.9423
    -8.9028  -7.9270  -7.6342  -7.5986  -5.6240  -3.2391  -3.2085  -3.1176
    -3.1026  -0.3037   0.0283   2.2769   2.3026   2.5064   3.6108   3.7908
     3.8946   3.9297   4.0202

          k = 0.0200 0.0346 0.0000 ( 11233 PWs)   bands (ev):

   -77.9023 -49.1147 -49.0779 -49.0745 -25.0882 -25.0172 -22.2194 -20.8406
   -14.4607 -11.8990  -9.8903  -9.2685  -9.2443  -9.2085  -9.1514  -8.9560
    -8.9002  -7.9357  -7.6422  -7.5915  -5.6278  -3.2457  -3.2016  -3.1280
    -3.1069  -0.2844   0.0446   2.2847   2.3106   2.5240   3.5676   3.7546
     3.9117   3.9463   4.0567

          k = 0.0233 0.0404 0.0000 ( 11237 PWs)   bands (ev):

   -77.9021 -49.1144 -49.0795 -49.0749 -25.0801 -25.0092 -22.2127 -20.8368
   -14.4536 -11.8957  -9.8923  -9.2938  -9.2796  -9.2159  -9.1617  -8.9717
    -8.8970  -7.9457  -7.6516  -7.5839  -5.6323  -3.2534  -3.1937  -3.1400
    -3.1120  -0.2620   0.0636   2.2934   2.3194   2.5448   3.5239   3.7144
     3.9318   3.9658   4.0936

          k = 0.0267 0.0462 0.0000 ( 11233 PWs)   bands (ev):

   -77.9019 -49.1140 -49.0813 -49.0753 -25.0707 -25.0000 -22.2050 -20.8325
   -14.4455 -11.8919  -9.8956  -9.3305  -9.3123  -9.2233  -9.1740  -8.9888
    -8.8932  -7.9568  -7.6627  -7.5759  -5.6377  -3.2618  -3.1849  -3.1532
    -3.1177  -0.2368   0.0849   2.3027   2.3290   2.5689   3.4797   3.6709
     3.9547   3.9882   4.1309

          k = 0.0300 0.0520 0.0000 ( 11237 PWs)   bands (ev):

   -77.9016 -49.1137 -49.0834 -49.0758 -25.0601 -24.9895 -22.1964 -20.8276
   -14.4363 -11.8876  -9.9006  -9.3781  -9.3414  -9.2315  -9.1884  -9.0071
    -8.8888  -7.9689  -7.6754  -7.5679  -5.6441  -3.2711  -3.1761  -3.1670
    -3.1235  -0.2091   0.1084   2.3124   2.3391   2.5960   3.4356   3.6251
     3.9801   4.0135   4.1689

          k = 0.0333 0.0577 0.0000 ( 11229 PWs)   bands (ev):

   -77.9013 -49.1132 -49.0856 -49.0763 -25.0482 -24.9779 -22.1867 -20.8221
   -14.4260 -11.8829  -9.9078  -9.4314  -9.3707  -9.2410  -9.2049  -9.0265
    -8.8836  -7.9819  -7.6897  -7.5599  -5.6513  -3.2810  -3.1840  -3.1656
    -3.1287  -0.1790   0.1338   2.3221   2.3494   2.6261   3.3918   3.5776
     4.0078   4.0418   4.2079

          k = 0.0367 0.0635 0.0000 ( 11225 PWs)   bands (ev):

   -77.9009 -49.1128 -49.0881 -49.0769 -25.0351 -24.9650 -22.1760 -20.8161
   -14.4148 -11.8777  -9.9182  -9.4892  -9.4003  -9.2520  -9.2234  -9.0466
    -8.8776  -7.9956  -7.7058  -7.5521  -5.6596  -3.2915  -3.2000  -3.1602
    -3.1299  -0.1469   0.1610   2.3316   2.3596   2.6591   3.3488   3.5294
     4.0373   4.0733   4.2482

          k = 0.0400 0.0693 0.0000 ( 11225 PWs)   bands (ev):

   -77.9006 -49.1123 -49.0908 -49.0775 -25.0208 -24.9509 -22.1644 -20.8095
   -14.4025 -11.8720  -9.9326  -9.5511  -9.4293  -9.2648  -9.2438  -9.0673
    -8.8708  -8.0100  -7.7237  -7.5448  -5.6690  -3.3024  -3.2168  -3.1623
    -3.1232  -0.1131   0.1897   2.3403   2.3692   2.6947   3.3071   3.4811
     4.0679   4.1080   4.2901

          k = 0.0433 0.0751 0.0000 ( 11223 PWs)   bands (ev):

   -77.9001 -49.1117 -49.0938 -49.0782 -25.0052 -24.9355 -22.1518 -20.8024
   -14.3893 -11.8659  -9.9521  -9.6168  -9.4566  -9.2805  -9.2651  -9.0884
    -8.8632  -8.0250  -7.7434  -7.5380  -5.6794  -3.3137  -3.2340  -3.1698
    -3.1109  -0.0777   0.2196   2.3479   2.3778   2.7326   3.2674   3.4336
     4.0991   4.1462   4.3341

          k = 0.0467 0.0808 0.0000 ( 11223 PWs)   bands (ev):

   -77.8997 -49.1111 -49.0969 -49.0789 -24.9884 -24.9190 -22.1383 -20.7948
   -14.3751 -11.8594  -9.9776  -9.6858  -9.4812  -9.3010  -9.2853  -9.1100
    -8.8547  -8.0405  -7.7650  -7.5318  -5.6911  -3.3252  -3.2513  -3.1798
    -3.0958  -0.0411   0.2505   2.3538   2.3849   2.7725   3.2303   3.3877
     4.1303   4.1877   4.3805

          k = 0.0500 0.0866 0.0000 ( 11229 PWs)   bands (ev):

   -77.8992 -49.1105 -49.1003 -49.0797 -24.9704 -24.9013 -22.1238 -20.7866
   -14.3599 -11.8525 -10.0100  -9.7580  -9.5022  -9.3265  -9.3040  -9.1319
    -8.8452  -8.0564  -7.7884  -7.5263  -5.7039  -3.3371  -3.2686  -3.1911
    -3.0790  -0.0036   0.2820   2.3577   2.3897   2.8142   3.1967   3.3443
     4.1610   4.2324   4.4297

          k = 0.0533 0.0924 0.0000 ( 11229 PWs)   bands (ev):

   -77.8987 -49.1098 -49.1038 -49.0806 -24.9512 -24.8824 -22.1083 -20.7779
   -14.3439 -11.8452 -10.0495  -9.8331  -9.5193  -9.3549  -9.3231  -9.1542
    -8.8349  -8.0726  -7.8138  -7.5216  -5.7179  -3.3492  -3.2854  -3.2036
    -3.0610   0.0345   0.3141   2.3588   2.3917   2.8573   3.1673   3.3043
     4.1910   4.2802   4.4821

          k = 0.0567 0.0981 0.0000 ( 11227 PWs)   bands (ev):

   -77.8982 -49.1091 -49.1075 -49.0815 -24.9308 -24.8623 -22.0920 -20.7688
   -14.3269 -11.8375 -10.0961  -9.9109  -9.5329  -9.3850  -9.3433  -9.1769
    -8.8238  -8.0890  -7.8410  -7.5177  -5.7331  -3.3616  -3.3015  -3.2169
    -3.0419   0.0730   0.3462   2.3568   2.3902   2.9012   3.1430   3.2688
     4.2200   4.3306   4.5379

          k = 0.0600 0.1039 0.0000 ( 11227 PWs)   bands (ev):

   -77.8977 -49.1115 -49.1083 -49.0825 -24.9092 -24.8410 -22.0748 -20.7591
   -14.3092 -11.8296 -10.1493  -9.9911  -9.5439  -9.4154  -9.3650  -9.2001
    -8.8117  -8.1056  -7.8702  -7.5147  -5.7496  -3.3744  -3.3167  -3.2310
    -3.0218   0.1115   0.3783   2.3512   2.3846   2.9453   3.1245   3.2390
     4.2476   4.3833   4.5972

          k = 0.0633 0.1097 0.0000 ( 11231 PWs)   bands (ev):

   -77.8971 -49.1156 -49.1075 -49.0835 -24.8864 -24.8186 -22.0566 -20.7489
   -14.2906 -11.8213 -10.2086 -10.0735  -9.5546  -9.4443  -9.3883  -9.2239
    -8.7989  -8.1222  -7.9014  -7.5125  -5.7672  -3.3877  -3.3307  -3.2459
    -3.0008   0.1498   0.4100   2.3415   2.3747   2.9885   3.1122   3.2161
     4.2738   4.4380   4.6600

          k = 0.0667 0.1155 0.0000 ( 11219 PWs)   bands (ev):

   -77.8965 -49.1199 -49.1067 -49.0846 -24.8624 -24.7950 -22.0376 -20.7382
   -14.2712 -11.8127 -10.2730 -10.1579  -9.5689  -9.4681  -9.4132  -9.2482
    -8.7853  -8.1389  -7.9344  -7.5112  -5.7861  -3.4015  -3.3432  -3.2615
    -2.9789   0.1875   0.4411   2.3278   2.3604   3.0288   3.1065   3.2023
     4.2984   4.4942   4.7264

          k = 0.0700 0.1212 0.0000 ( 11211 PWs)   bands (ev):

   -77.8958 -49.1243 -49.1059 -49.0857 -24.8372 -24.7702 -22.0178 -20.7271
   -14.2510 -11.8039 -10.3420 -10.2440  -9.5911  -9.4830  -9.4398  -9.2731
    -8.7710  -8.1554  -7.9694  -7.5109  -5.8062  -3.4157  -3.3542  -3.2778
    -2.9563   0.2245   0.4712   2.3101   2.3418   3.0625   3.1079   3.2007
     4.3214   4.5514   4.7961

          k = 0.0733 0.1270 0.0000 ( 11219 PWs)   bands (ev):

   -77.8952 -49.1289 -49.1050 -49.0869 -24.8109 -24.7443 -21.9971 -20.7155
   -14.2302 -11.7949 -10.4148 -10.3318  -9.6221  -9.4885  -9.4680  -9.2985
    -8.7560  -8.1718  -8.0062  -7.5114  -5.8274  -3.4304  -3.3636  -3.2946
    -2.9330   0.2603   0.5002   2.2889   2.3197   3.0849   3.1163   3.2151
     4.3427   4.6089   4.8689

          k = 0.0767 0.1328 0.0000 ( 11215 PWs)   bands (ev):

   -77.8945 -49.1337 -49.1041 -49.0882 -24.7834 -24.7172 -21.9757 -20.7034
   -14.2087 -11.7858 -10.4909 -10.4208  -9.6595  -9.4980  -9.4874  -9.3243
    -8.7404  -8.1879  -8.0448  -7.5128  -5.8497  -3.4453  -3.3717  -3.3120
    -2.9090   0.2947   0.5276   2.2649   2.2945   3.0984   3.1295   3.2447
     4.3623   4.6662   4.9447

          k = 0.0800 0.1386 0.0000 ( 11211 PWs)   bands (ev):

   -77.8938 -49.1386 -49.1031 -49.0895 -24.7547 -24.6890 -21.9534 -20.6910
   -14.1866 -11.7767 -10.5698 -10.5110  -9.7011  -9.5296  -9.4827  -9.3502
    -8.7243  -8.2037  -8.0851  -7.5151  -5.8730  -3.4602  -3.3784  -3.3298
    -2.8845   0.3273   0.5533   2.2387   2.2673   3.1088   3.1457   3.2836
     4.3803   4.7226   5.0230

          k = 0.0833 0.1443 0.0000 ( 11197 PWs)   bands (ev):

   -77.8931 -49.1436 -49.1021 -49.0908 -24.7249 -24.6597 -21.9304 -20.6781
   -14.1639 -11.7675 -10.6510 -10.6021  -9.7454  -9.5630  -9.4766  -9.3753
    -8.7076  -8.2191  -8.1271  -7.5182  -5.8973  -3.4752  -3.3840  -3.3478
    -2.8594   0.3579   0.5770   2.2114   2.2389   3.1191   3.1656   3.3269
     4.3967   4.7777   5.1036

          k = 0.0867 0.1501 0.0000 ( 11201 PWs)   bands (ev):

   -77.8923 -49.1488 -49.1011 -49.0922 -24.6940 -24.6292 -21.9066 -20.6648
   -14.1408 -11.7586 -10.7340 -10.6938  -9.7917  -9.5981  -9.4725  -9.3974
    -8.6906  -8.2342  -8.1705  -7.5223  -5.9225  -3.4901  -3.3889  -3.3656
    -2.8339   0.3861   0.5983   2.1837   2.2102   3.1306   3.1889   3.3721
     4.4114   4.8309   5.1860

          k = 0.0900 0.1559 0.0000 ( 11199 PWs)   bands (ev):

   -77.8916 -49.1540 -49.1001 -49.0937 -24.6620 -24.5977 -21.8821 -20.6512
   -14.1172 -11.7500 -10.8187 -10.7858  -9.8398  -9.6349  -9.4767  -9.4102
    -8.6734  -8.2492  -8.2148  -7.5272  -5.9486  -3.5048  -3.3953  -3.3809
    -2.8080   0.4116   0.6170   2.1564   2.1821   3.1433   3.2154   3.4182
     4.4246   4.8819   5.2699

          k = 0.0933 0.1617 0.0000 ( 11199 PWs)   bands (ev):

   -77.8908 -49.1594 -49.0990 -49.0953 -24.6289 -24.5651 -21.8569 -20.6371
   -14.0933 -11.7420 -10.9046 -10.8779  -9.8892  -9.6734  -9.4942  -9.4095
    -8.6560  -8.2692  -8.2549  -7.5330  -5.9754  -3.5195  -3.4090  -3.3880
    -2.7817   0.4341   0.6328   2.1303   2.1554   3.1572   3.2444   3.4645
     4.4363   4.9308   5.3547

          k = 0.0967 0.1674 0.0000 ( 11213 PWs)   bands (ev):

   -77.8900 -49.1649 -49.0979 -49.0968 -24.5946 -24.5314 -21.8311 -20.6228
   -14.0690 -11.7350 -10.9914 -10.9695  -9.9400  -9.7136  -9.5201  -9.4000
    -8.6387  -8.3117  -8.2729  -7.5396  -6.0028  -3.5341  -3.4268  -3.3899
    -2.7553   0.4532   0.6456   2.1061   2.1309   3.1720   3.2756   3.5107
     4.4468   4.9775   5.4398

          k = 0.1000 0.1732 0.0000 ( 11205 PWs)   bands (ev):

   -77.8891 -49.1705 -49.0985 -49.0968 -24.5593 -24.4966 -21.8046 -20.6080
   -14.0446 -11.7295 -11.0787 -11.0601  -9.9918  -9.7556  -9.5499  -9.3866
    -8.6218  -8.3592  -8.2858  -7.5470  -6.0308  -3.5488  -3.4454  -3.3898
    -2.7286   0.4687   0.6550   2.0843   2.1091   3.1873   3.3087   3.5568
     4.4559   5.0225   5.5246

          k = 0.1033 0.1790 0.0000 ( 11211 PWs)   bands (ev):

   -77.8883 -49.1761 -49.1002 -49.0957 -24.5229 -24.4608 -21.7775 -20.5930
   -14.0201 -11.7265 -11.1664 -11.1485 -10.0447  -9.7992  -9.5817  -9.3713
    -8.6062  -8.4072  -8.2974  -7.5553  -6.0593  -3.5637  -3.4640  -3.3884
    -2.7019   0.4804   0.6610   2.0655   2.0904   3.2025   3.3432   3.6027
     4.4641   5.0659   5.6085

          k = 0.1067 0.1848 0.0000 ( 11209 PWs)   bands (ev):

   -77.8874 -49.1819 -49.1019 -49.0945 -24.4855 -24.4239 -21.7498 -20.5777
   -13.9955 -11.7276 -11.2544 -11.2329 -10.0986  -9.8444  -9.6148  -9.3548
    -8.5938  -8.4532  -8.3080  -7.5643  -6.0881  -3.5788  -3.4822  -3.3860
    -2.6751   0.4880   0.6634   2.0502   2.0752   3.2174   3.3789   3.6485
     4.4713   5.1081   5.6907

          k = 0.1100 0.1905 0.0000 ( 11213 PWs)   bands (ev):

   -77.8866 -49.1877 -49.1038 -49.0934 -24.4470 -24.3861 -21.7215 -20.5620
   -13.9711 -11.7352 -11.3426 -11.3105 -10.1533  -9.8913  -9.6489  -9.3375
    -8.5907  -8.4911  -8.3176  -7.5742  -6.1172  -3.5943  -3.4998  -3.3825
    -2.6484   0.4916   0.6623   2.0386   2.0636   3.2314   3.4156   3.6943
     4.4779   5.1495   5.7703

          k = 0.1133 0.1963 0.0000 ( 11201 PWs)   bands (ev):

   -77.8857 -49.1935 -49.1056 -49.0922 -24.4076 -24.3472 -21.6927 -20.5462
   -13.9469 -11.7533 -11.4308 -11.3774 -10.2089  -9.9399  -9.6838  -9.3197
    -8.6101  -8.5078  -8.3259  -7.5849  -6.1464  -3.6104  -3.5168  -3.3781
    -2.6217   0.4912   0.6577   2.0310   2.0558   3.2444   3.4529   3.7402
     4.4841   5.1903   5.8464

          k = 0.1167 0.2021 0.0000 ( 11217 PWs)   bands (ev):

   -77.8848 -49.1994 -49.1076 -49.0910 -24.3671 -24.3073 -21.6635 -20.5301
   -13.9230 -11.7863 -11.5186 -11.4291 -10.2652  -9.9900  -9.7194  -9.3014
    -8.6513  -8.5042  -8.3330  -7.5964  -6.1757  -3.6271  -3.5329  -3.3727
    -2.5953   0.4867   0.6496   2.0274   2.0517   3.2560   3.4908   3.7864
     4.4901   5.2305   5.9180

          k = 0.1200 0.2078 0.0000 ( 11217 PWs)   bands (ev):

   -77.8839 -49.2053 -49.1095 -49.0898 -24.3256 -24.2665 -21.6338 -20.5138
   -13.8997 -11.8364 -11.6057 -11.4634 -10.3222 -10.0416  -9.7557  -9.2829
    -8.7014  -8.4930  -8.3386  -7.6087  -6.2048  -3.6443  -3.5481  -3.3665
    -2.5691   0.4783   0.6384   2.0279   2.0513   3.2660   3.5288   3.8331
     4.4963   5.2702   5.9841

          k = 0.1233 0.2136 0.0000 ( 11217 PWs)   bands (ev):

   -77.8830 -49.2112 -49.1116 -49.0885 -24.2832 -24.2247 -21.6036 -20.4972
   -13.8771 -11.9018 -11.6917 -11.4822 -10.3800 -10.0948  -9.7924  -9.2642
    -8.7549  -8.4801  -8.3425  -7.6217  -6.2339  -3.6621  -3.5625  -3.3595
    -2.5433   0.4664   0.6242   2.0323   2.0542   3.2743   3.5669   3.8805
     4.5031   5.3094   6.0434

          k = 0.1267 0.2194 0.0000 ( 11213 PWs)   bands (ev):

   -77.8821 -49.2172 -49.1137 -49.0873 -24.2398 -24.1820 -21.5731 -20.4806
   -13.8554 -11.9780 -11.7765 -11.4898 -10.4383 -10.1494  -9.8295  -9.2456
    -8.8100  -8.4676  -8.3442  -7.6355  -6.2626  -3.6804  -3.5760  -3.3517
    -2.5180   0.4513   0.6074   2.0404   2.0604   3.2809   3.6046   3.9286
     4.5108   5.3477   6.0949

          k = 0.1300 0.2252 0.0000 ( 11209 PWs)   bands (ev):

   -77.8811 -49.2231 -49.1158 -49.0860 -24.1955 -24.1383 -21.5423 -20.4637
   -13.8349 -12.0608 -11.8596 -11.4903 -10.4973 -10.2055  -9.8670  -9.2272
    -8.8658  -8.4564  -8.3436  -7.6501  -6.2909  -3.6989  -3.5890  -3.3431
    -2.4931   0.4332   0.5881   2.0518   2.0695   3.2858   3.6417   3.9775
     4.5198   5.3848   6.1377

          k = 0.1333 0.2309 0.0000 ( 11223 PWs)   bands (ev):

   -77.8802 -49.2291 -49.1180 -49.0848 -24.1502 -24.0938 -21.5111 -20.4468
   -13.8158 -12.1477 -11.9409 -11.4862 -10.5568 -10.2628  -9.9048  -9.2095
    -8.9217  -8.4473  -8.3402  -7.6654  -6.3187  -3.7176  -3.6013  -3.3339
    -2.4688   0.4126   0.5668   2.0661   2.0814   3.2891   3.6779   4.0275
     4.5307   5.4202   6.1712

          k = 0.1367 0.2367 0.0000 ( 11227 PWs)   bands (ev):

   -77.8792 -49.2350 -49.1203 -49.0835 -24.1041 -24.0484 -21.4797 -20.4297
   -13.7984 -12.2368 -12.0198 -11.4793 -10.6169 -10.3214  -9.9427  -9.1932
    -8.9767  -8.4404  -8.3341  -7.6815  -6.3458  -3.7361  -3.6133  -3.3240
    -2.4451   0.3899   0.5438   2.0831   2.0955   3.2909   3.7129   4.0784
     4.5439   5.4534   6.1955

          k = 0.1400 0.2425 0.0000 ( 11223 PWs)   bands (ev):

   -77.8783 -49.2410 -49.1226 -49.0822 -24.0572 -24.0021 -21.4480 -20.4126
   -13.7830 -12.3271 -12.0961 -11.4705 -10.6775 -10.3812  -9.9808  -9.1806
    -9.0285  -8.4357  -8.3255  -7.6983  -6.3722  -3.7545  -3.6250  -3.3135
    -2.4222   0.3655   0.5193   2.1021   2.1119   3.2915   3.7464   4.1303
     4.5599   5.4835   6.2116

          k = 0.1433 0.2483 0.0000 ( 11207 PWs)   bands (ev):

   -77.8774 -49.2468 -49.1250 -49.0809 -24.0094 -23.9551 -21.4161 -20.3955
   -13.7701 -12.4181 -12.1692 -11.4605 -10.7386 -10.4421 -10.0189  -9.1785
    -9.0700  -8.4328  -8.3151  -7.7158  -6.3978  -3.7725  -3.6366  -3.3024
    -2.4000   0.3397   0.4936   2.1228   2.1301   3.2910   3.7781   4.1832
     4.5791   5.5098   6.2211

          k = 0.1467 0.2540 0.0000 ( 11207 PWs)   bands (ev):

   -77.8764 -49.2527 -49.1274 -49.0796 -23.9608 -23.9072 -21.3841 -20.3783
   -13.7601 -12.5091 -12.2388 -11.4497 -10.8001 -10.5039 -10.0569  -9.2009
    -9.0874  -8.4312  -8.3035  -7.7340  -6.4224  -3.7900  -3.6481  -3.2909
    -2.3788   0.3128   0.4671   2.1445   2.1502   3.2900   3.8077   4.2370
     4.6019   5.5314   6.2259

          k = 0.1500 0.2598 0.0000 ( 11205 PWs)   bands (ev):

   -77.8754 -49.2585 -49.1299 -49.0783 -23.9114 -23.8586 -21.3520 -20.3611
   -13.7534 -12.5999 -12.3043 -11.4384 -10.8622 -10.5666 -10.0948  -9.2455
    -9.0829  -8.4305  -8.2911  -7.7528  -6.4458  -3.8069  -3.6595  -3.2788
    -2.3585   0.2853   0.4399   2.1666   2.1719   3.2885   3.8353   4.2916
     4.6286   5.5476   6.2279

          k = 0.1533 0.2656 0.0000 ( 11197 PWs)   bands (ev):

   -77.8745 -49.2642 -49.1324 -49.0771 -23.8613 -23.8092 -21.3199 -20.3440
   -13.7506 -12.6903 -12.3651 -11.4269 -10.9246 -10.6300 -10.1325  -9.2988
    -9.0698  -8.4305  -8.2785  -7.7723  -6.4681  -3.8231  -3.6711  -3.2663
    -2.3391   0.2573   0.4122   2.1891   2.1950   3.2871   3.8606   4.3469
     4.6594   5.5578   6.2287

          k = 0.1567 0.2714 0.0000 ( 11197 PWs)   bands (ev):

   -77.8735 -49.2699 -49.1350 -49.0758 -23.8104 -23.7592 -21.2877 -20.3269
   -13.7520 -12.7800 -12.4208 -11.4155 -10.9874 -10.6938 -10.1699  -9.3551
    -9.0540  -8.4311  -8.2659  -7.7925  -6.4891  -3.8384  -3.6828  -3.2534
    -2.3208   0.2292   0.3842   2.2119   2.2186   3.2861   3.8837   4.4026
     4.6944   5.5619   6.2293

          k = 0.1600 0.2771 0.0000 ( 11189 PWs)   bands (ev):

   -77.8726 -49.2754 -49.1377 -49.0745 -23.7589 -23.7084 -21.2556 -20.3100
   -13.7581 -12.8689 -12.4709 -11.4045 -11.0505 -10.7579 -10.2069  -9.4124
    -9.0371  -8.4323  -8.2534  -7.8132  -6.5086  -3.8528  -3.6947  -3.2402
    -2.3037   0.2010   0.3561   2.2350   2.2423   3.2858   3.9049   4.4586
     4.7336   5.5601   6.2299

          k = 0.1633 0.2829 0.0000 ( 11195 PWs)   bands (ev):

   -77.8717 -49.2809 -49.1404 -49.0732 -23.7067 -23.6570 -21.2235 -20.2932
   -13.7694 -12.9568 -12.5150 -11.3943 -11.1139 -10.8218 -10.2435  -9.4702
    -9.0199  -8.4342  -8.2411  -7.8344  -6.5267  -3.8663  -3.7069  -3.2267
    -2.2876   0.1731   0.3281   2.2580   2.2658   3.2868   3.9243   4.5145
     4.7769   5.5532   6.2298

          k = 0.1667 0.2887 0.0000 ( 11195 PWs)   bands (ev):

   -77.8707 -49.2863 -49.1431 -49.0720 -23.6539 -23.6051 -21.1916 -20.2765
   -13.7861 -13.0437 -12.5528 -11.3857 -11.1773 -10.8850 -10.2796  -9.5280
    -9.0026  -8.4368  -8.2291  -7.8562  -6.5431  -3.8787  -3.7193  -3.2128
    -2.2728   0.1455   0.3002   2.2805   2.2892   3.2893   3.9422   4.5697
     4.8240   5.5423   6.2278

          k = 0.1700 0.2944 0.0000 ( 11195 PWs)   bands (ev):

   -77.8698 -49.2916 -49.1459 -49.0707 -23.6005 -23.5525 -21.1598 -20.2600
   -13.8081 -13.1293 -12.5841 -11.3800 -11.2404 -10.9466 -10.3151  -9.5856
    -8.9855  -8.4405  -8.2173  -7.8783  -6.5578  -3.8900  -3.7319  -3.1988
    -2.2592   0.1184   0.2726   2.3015   2.3128   3.2938   3.9590   4.6239
     4.8747   5.5289   6.2202

          k = 0.1733 0.3002 0.0000 ( 11191 PWs)   bands (ev):

   -77.8688 -49.2968 -49.1488 -49.0694 -23.5466 -23.4994 -21.1283 -20.2437
   -13.8355 -13.2137 -12.6091 -11.3803 -11.3012 -11.0052 -10.3500  -9.6428
    -8.9686  -8.4455  -8.2058  -7.9008  -6.5707  -3.9003  -3.7448  -3.1846
    -2.2469   0.0919   0.2455   2.3204   2.3369   3.3006   3.9750   4.6762
     4.9285   5.5146   6.1930

          k = 0.1767 0.3060 0.0000 ( 11195 PWs)   bands (ev):

   -77.8679 -49.3019 -49.1517 -49.0682 -23.4921 -23.4458 -21.0971 -20.2277
   -13.8678 -13.2967 -12.6279 -11.3987 -11.3500 -11.0585 -10.3842  -9.6995
    -8.9520  -8.4518  -8.1945  -7.9236  -6.5818  -3.9095  -3.7579  -3.1703
    -2.2359   0.0660   0.2187   2.3370   2.3613   3.3099   3.9906   4.7257
     4.9852   5.5010   6.1359

          k = 0.1800 0.3118 0.0000 ( 11179 PWs)   bands (ev):

   -77.8670 -49.3068 -49.1546 -49.0670 -23.4372 -23.3918 -21.0662 -20.2120
   -13.9047 -13.3782 -12.6411 -11.4494 -11.3761 -11.1030 -10.4177  -9.7555
    -8.9358  -8.4598  -8.1834  -7.9465  -6.5910  -3.9177  -3.7711  -3.1558
    -2.2261   0.0408   0.1926   2.3512   2.3859   3.3221   4.0060   4.7712
     5.0441   5.4899   6.0703

          k = 0.1833 0.3175 0.0000 ( 11179 PWs)   bands (ev):

   -77.8661 -49.3116 -49.1576 -49.0657 -23.3819 -23.3373 -21.0356 -20.1966
   -13.9456 -13.4581 -12.6491 -11.5115 -11.4037 -11.1352 -10.4504  -9.8107
    -8.9201  -8.4697  -8.1724  -7.9694  -6.5982  -3.9250  -3.7844  -3.1413
    -2.2177   0.0164   0.1671   2.3629   2.4106   3.3372   4.0216   4.8113
     5.1047   5.4828   6.0047

          k = 0.1867 0.3233 0.0000 ( 11175 PWs)   bands (ev):

   -77.8652 -49.3163 -49.1606 -49.0645 -23.3262 -23.2826 -21.0055 -20.1815
   -13.9898 -13.5364 -12.6525 -11.5761 -11.4432 -11.1539 -10.4824  -9.8651
    -8.9049  -8.4817  -8.1618  -7.9918  -6.6035  -3.9316  -3.7975  -3.1268
    -2.2105  -0.0074   0.1424   2.3720   2.4351   3.3554   4.0376   4.8448
     5.1661   5.4809   5.9420

          k = 0.1900 0.3291 0.0000 ( 11167 PWs)   bands (ev):

   -77.8643 -49.3208 -49.1637 -49.0633 -23.2702 -23.2275 -20.9759 -20.1668
   -14.0368 -13.6130 -12.6520 -11.6415 -11.4936 -11.1614 -10.5135  -9.9183
    -8.8903  -8.4957  -8.1519  -8.0134  -6.6068  -3.9377  -3.8103  -3.1122
    -2.2046  -0.0304   0.1184   2.3787   2.4596   3.3766   4.0542   4.8704
     5.2273   5.4845   5.8846

          k = 0.1933 0.3349 0.0000 ( 11175 PWs)   bands (ev):

   -77.8635 -49.3252 -49.1669 -49.0622 -23.2140 -23.1721 -20.9468 -20.1524
   -14.0858 -13.6877 -12.6480 -11.7073 -11.5518 -11.1613 -10.5438  -9.9703
    -8.8764  -8.5121  -8.1437  -8.0330  -6.6082  -3.9437  -3.8222  -3.0978
    -2.1999  -0.0528   0.0954   2.3829   2.4839   3.4008   4.0716   4.8877
     5.2860   5.4927   5.8358

          k = 0.1967 0.3406 0.0000 ( 11175 PWs)   bands (ev):

   -77.8626 -49.3294 -49.1701 -49.0610 -23.1575 -23.1165 -20.9183 -20.1385
   -14.1363 -13.7606 -12.6412 -11.7733 -11.6149 -11.1568 -10.5731 -10.0209
    -8.8634  -8.5306  -8.1393  -8.0484  -6.6076  -3.9501  -3.8329  -3.0834
    -2.1965  -0.0745   0.0733   2.3850   2.5080   3.4277   4.0900   4.8968
     5.3377   5.5038   5.8007

          k = 0.2000 0.3464 0.0000 ( 11155 PWs)   bands (ev):

   -77.8618 -49.3334 -49.1733 -49.0599 -23.1008 -23.0608 -20.8904 -20.1251
   -14.1877 -13.8315 -12.6320 -11.8393 -11.6811 -11.1498 -10.6016 -10.0698
    -8.8514  -8.5512  -8.1419  -8.0564  -6.6051  -3.9576  -3.8417  -3.0691
    -2.1941  -0.0957   0.0522   2.3850   2.5318   3.4573   4.1094   4.8989
     5.3730   5.5188   5.7855

          k = 0.2033 0.3522 0.0000 ( 11159 PWs)   bands (ev):

   -77.8609 -49.3372 -49.1765 -49.0588 -23.0441 -23.0051 -20.8632 -20.1121
   -14.2396 -13.9003 -12.6210 -11.9052 -11.7493 -11.1415 -10.6293 -10.1169
    -8.8408  -8.5737  -8.1529  -8.0552  -6.6008  -3.9667  -3.8481  -3.0550
    -2.1929  -0.1163   0.0323   2.3832   2.5554   3.4893   4.1299   4.8952
     5.3800   5.5428   5.7932

          k = 0.2067 0.3580 0.0000 ( 11155 PWs)   bands (ev):

   -77.8601 -49.3409 -49.1798 -49.0577 -22.9873 -22.9492 -20.8367 -20.0997
   -14.2915 -13.9670 -12.6087 -11.9707 -11.8188 -11.1329 -10.6560 -10.1618
    -8.8321  -8.5977  -8.1699  -8.0474  -6.5948  -3.9780  -3.8515  -3.0411
    -2.1928  -0.1365   0.0135   2.3798   2.5786   3.5234   4.1517   4.8871
     5.3600   5.5729   5.8217

          k = 0.2100 0.3637 0.0000 ( 11159 PWs)   bands (ev):

   -77.8593 -49.3444 -49.1832 -49.0566 -22.9305 -22.8935 -20.8110 -20.0877
   -14.3431 -14.0315 -12.5956 -12.0355 -11.8891 -11.1245 -10.6817 -10.2044
    -8.8259  -8.6225  -8.1899  -8.0357  -6.5870  -3.9916  -3.8520  -3.0274
    -2.1936  -0.1564  -0.0042   2.3751   2.6015   3.5594   4.1747   4.8757
     5.3245   5.5982   5.8662

          k = 0.2133 0.3695 0.0000 ( 11157 PWs)   bands (ev):

   -77.8586 -49.3477 -49.1866 -49.0555 -22.8739 -22.8378 -20.7861 -20.0763
   -14.3940 -14.0937 -12.5823 -12.0992 -11.9600 -11.1170 -10.7066 -10.2442
    -8.8234  -8.6471  -8.2111  -8.0219  -6.5777  -4.0072  -3.8496  -3.0140
    -2.1953  -0.1759  -0.0206   2.3693   2.6241   3.5970   4.1989   4.8620
     5.2822   5.6125   5.9223

          k = 0.2167 0.3753 0.0000 ( 11145 PWs)   bands (ev):

   -77.8578 -49.3509 -49.1900 -49.0545 -22.8173 -22.7823 -20.7620 -20.0655
   -14.4439 -14.1536 -12.5697 -12.1610 -12.0312 -11.1109 -10.7304 -10.2809
    -8.8264  -8.6698  -8.2325  -8.0068  -6.5669  -4.0247  -3.8448  -3.0009
    -2.1978  -0.1951  -0.0357   2.3628   2.6461   3.6359   4.2244   4.8462
     5.2379   5.6143   5.9865

          k = 0.2200 0.3811 0.0000 ( 11143 PWs)   bands (ev):

   -77.8571 -49.3538 -49.1935 -49.0535 -22.7611 -22.7271 -20.7388 -20.0552
   -14.4927 -14.2110 -12.5595 -12.2193 -12.1026 -11.1065 -10.7533 -10.3142
    -8.8367  -8.6888  -8.2534  -7.9909  -6.5547  -4.0436  -3.8378  -2.9882
    -2.2010  -0.2141  -0.0496   2.3556   2.6677   3.6760   4.2512   4.8287
     5.1942   5.6056   6.0555

          k = 0.2233 0.3868 0.0000 ( 11149 PWs)   bands (ev):

   -77.8563 -49.3565 -49.1970 -49.0525 -22.7051 -22.6722 -20.7165 -20.0455
   -14.5400 -14.2660 -12.5544 -12.2716 -12.1741 -11.1044 -10.7751 -10.3436
    -8.8558  -8.7031  -8.2732  -7.9743  -6.5412  -4.0639  -3.8290  -2.9758
    -2.2049  -0.2328  -0.0623   2.3479   2.6888   3.7169   4.2792   4.8094
     5.1532   5.5890   6.1255

          k = 0.2267 0.3926 0.0000 ( 11141 PWs)   bands (ev):

   -77.8556 -49.3591 -49.2005 -49.0516 -22.6496 -22.6177 -20.6952 -20.0365
   -14.5856 -14.3183 -12.5589 -12.3132 -12.2455 -11.1051 -10.7959 -10.3688
    -8.8830  -8.7135  -8.2915  -7.9573  -6.5265  -4.0852  -3.8185  -2.9638
    -2.2092  -0.2513  -0.0739   2.3401   2.7092   3.7585   4.3083   4.7879
     5.1161   5.5671   6.1891

          k = 0.2300 0.3984 0.0000 ( 11153 PWs)   bands (ev):

   -77.8549 -49.3614 -49.2040 -49.0507 -22.5945 -22.5637 -20.6748 -20.0280
   -14.6295 -14.3681 -12.5786 -12.3395 -12.3161 -11.1087 -10.8157 -10.3895
    -8.9166  -8.7219  -8.3079  -7.9400  -6.5108  -4.1073  -3.8067  -2.9523
    -2.2140  -0.2695  -0.0843   2.3322   2.7289   3.8005   4.3386   4.7641
     5.0840   5.5419   6.2288

          k = 0.2333 0.4041 0.0000 ( 11157 PWs)   bands (ev):

   -77.8543 -49.3635 -49.2076 -49.0498 -22.5400 -22.5103 -20.6555 -20.0202
   -14.6713 -14.4151 -12.6148 -12.3892 -12.3457 -11.1156 -10.8344 -10.4054
    -8.9550  -8.7303  -8.3217  -7.9226  -6.4941  -4.1303  -3.7936  -2.9414
    -2.2192  -0.2875  -0.0936   2.3245   2.7479   3.8428   4.3700   4.7377
     5.0574   5.5147   6.2395

          k = 0.2367 0.4099 0.0000 ( 11153 PWs)   bands (ev):

   -77.8536 -49.3654 -49.2112 -49.0489 -22.4861 -22.4575 -20.6371 -20.0129
   -14.7109 -14.4593 -12.6634 -12.4599 -12.3406 -11.1257 -10.8522 -10.4164
    -8.9968  -8.7401  -8.3328  -7.9050  -6.4765  -4.1538  -3.7794  -2.9309
    -2.2245  -0.3051  -0.1019   2.3170   2.7659   3.8852   4.4025   4.7089
     5.0364   5.4868   6.2376

          k = 0.2400 0.4157 0.0000 ( 11157 PWs)   bands (ev):

   -77.8530 -49.3671 -49.2149 -49.0481 -22.4330 -22.4055 -20.6198 -20.0063
   -14.7483 -14.5006 -12.7194 -12.5307 -12.3269 -11.1390 -10.8692 -10.4226
    -9.0412  -8.7524  -8.3409  -7.8874  -6.4583  -4.1779  -3.7642  -2.9211
    -2.2300  -0.3225  -0.1092   2.3099   2.7830   3.9274   4.4358   4.6783
     5.0207   5.4590   6.2314

          k = 0.2433 0.4215 0.0000 ( 11153 PWs)   bands (ev):

   -77.8524 -49.3686 -49.2186 -49.0473 -22.3807 -22.3544 -20.6035 -20.0003
   -14.7833 -14.5390 -12.7795 -12.6012 -12.3080 -11.1551 -10.8854 -10.4241
    -9.0877  -8.7674  -8.3458  -7.8699  -6.4393  -4.2025  -3.7481  -2.9119
    -2.2355  -0.3395  -0.1156   2.3033   2.7988   3.9694   4.4701   4.6464
     5.0095   5.4324   6.2234

          k = 0.2467 0.4272 0.0000 ( 11145 PWs)   bands (ev):

   -77.8518 -49.3699 -49.2222 -49.0465 -22.3293 -22.3042 -20.5883 -19.9948
   -14.8157 -14.5745 -12.8419 -12.6714 -12.2857 -11.1736 -10.9009 -10.4213
    -9.1360  -8.7855  -8.3479  -7.8526  -6.4199  -4.2274  -3.7313  -2.9034
    -2.2410  -0.3561  -0.1212   2.2972   2.8135   4.0109   4.5052   4.6140
     5.0018   5.4077   6.2146

          k = 0.2500 0.4330 0.0000 ( 11139 PWs)   bands (ev):

   -77.8513 -49.3710 -49.2259 -49.0457 -22.2790 -22.2550 -20.5741 -19.9900
   -14.8455 -14.6069 -12.9055 -12.7413 -12.2611 -11.1941 -10.9158 -10.4146
    -9.1856  -8.8063  -8.3472  -7.8354  -6.4000  -4.2526  -3.7138  -2.8957
    -2.2462  -0.3723  -0.1259   2.2919   2.8267   4.0519   4.5411   4.5818
     4.9965   5.3858   6.2053

          k = 0.2533 0.4388 0.0000 ( 11143 PWs)   bands (ev):

   -77.8508 -49.3718 -49.2297 -49.0450 -22.2298 -22.2070 -20.5609 -19.9857
   -14.8726 -14.6362 -12.9698 -12.8108 -12.2347 -11.2161 -10.9302 -10.4044
    -9.2365  -8.8297  -8.3443  -7.8185  -6.3798  -4.2780  -3.6956  -2.8888
    -2.2513  -0.3880  -0.1299   2.2873   2.8383   4.0921   4.5505   4.5776
     4.9927   5.3676   6.1956

          k = 0.2567 0.4446 0.0000 ( 11147 PWs)   bands (ev):

   -77.8502 -49.3725 -49.2334 -49.0443 -22.1818 -22.1602 -20.5487 -19.9819
   -14.8969 -14.6623 -13.0345 -12.8798 -12.2069 -11.2391 -10.9439 -10.3912
    -9.2883  -8.8554  -8.3394  -7.8019  -6.3593  -4.3036  -3.6770  -2.8827
    -2.2559  -0.4033  -0.1332   2.2834   2.8484   4.1313   4.5204   4.6148
     4.9893   5.3540   6.1856

          k = 0.2600 0.4503 0.0000 ( 11143 PWs)   bands (ev):

   -77.8498 -49.3729 -49.2371 -49.0437 -22.1352 -22.1147 -20.5375 -19.9786
   -14.9182 -14.6853 -13.0992 -12.9484 -12.1778 -11.2628 -10.9569 -10.3754
    -9.3409  -8.8830  -8.3330  -7.7858  -6.3387  -4.3292  -3.6578  -2.8776
    -2.2602  -0.4181  -0.1357   2.2804   2.8566   4.1694   4.4920   4.6525
     4.9856   5.3455   6.1753

          k = 0.2633 0.4561 0.0000 ( 11147 PWs)   bands (ev):

   -77.8493 -49.3731 -49.2409 -49.0431 -22.0901 -22.0707 -20.5272 -19.9757
   -14.9366 -14.7049 -13.1638 -13.0166 -12.1477 -11.2867 -10.9692 -10.3575
    -9.3940  -8.9122  -8.3254  -7.7700  -6.3180  -4.3548  -3.6383  -2.8734
    -2.2640  -0.4323  -0.1376   2.2782   2.8630   4.2061   4.4654   4.6907
     4.9813   5.3427   6.1647

          k = 0.2667 0.4619 0.0000 ( 11143 PWs)   bands (ev):

   -77.8489 -49.3732 -49.2447 -49.0425 -22.0464 -22.0282 -20.5179 -19.9733
   -14.9520 -14.7213 -13.2282 -13.0842 -12.1166 -11.3107 -10.9806 -10.3379
    -9.4476  -8.9427  -8.3171  -7.7547  -6.2973  -4.3802  -3.6185  -2.8702
    -2.2672  -0.4459  -0.1389   2.2768   2.8674   4.2411   4.4410   4.7292
     4.9765   5.3454   6.1537

          k = 0.2700 0.4677 0.0000 ( 11139 PWs)   bands (ev):

   -77.8484 -49.3730 -49.2484 -49.0419 -22.0045 -21.9874 -20.5094 -19.9713
   -14.9642 -14.7343 -13.2923 -13.1513 -12.0847 -11.3344 -10.9911 -10.3171
    -9.5013  -8.9743  -8.3081  -7.7400  -6.2768  -4.4054  -3.5984  -2.8681
    -2.2699  -0.4589  -0.1396   2.2763   2.8699   4.2741   4.4188   4.7681
     4.9717   5.3533   6.1422

          k = 0.2733 0.4734 0.0000 ( 11139 PWs)   bands (ev):

   -77.8481 -49.3726 -49.2522 -49.0414 -21.9643 -21.9482 -20.5018 -19.9696
   -14.9734 -14.7439 -13.3559 -13.2179 -12.0522 -11.3575 -11.0004 -10.2954
    -9.5549  -9.0067  -8.2989  -7.7258  -6.2565  -4.4303  -3.5781  -2.8670
    -2.2719  -0.4713  -0.1397   2.2765   2.8705   4.3044   4.3993   4.8069
     4.9679   5.3657   6.1302

          k = 0.2767 0.4792 0.0000 ( 11135 PWs)   bands (ev):

   -77.8477 -49.3720 -49.2559 -49.0409 -21.9260 -21.9109 -20.4950 -19.9683
   -14.9794 -14.7501 -13.4191 -13.2838 -12.0192 -11.3800 -11.0085 -10.2734
    -9.6079  -9.0397  -8.2896  -7.7122  -6.2366  -4.4548  -3.5577  -2.8670
    -2.2732  -0.4830  -0.1393   2.2775   2.8691   4.3299   4.3840   4.8454
     4.9665   5.3819   6.1176

          k = 0.2800 0.4850 0.0000 ( 11127 PWs)   bands (ev):

   -77.8473 -49.3713 -49.2597 -49.0404 -21.8896 -21.8754 -20.4890 -19.9672
   -14.9822 -14.7529 -13.4817 -13.3492 -11.9860 -11.4017 -11.0151 -10.2516
    -9.6600  -9.0732  -8.2803  -7.6993  -6.2170  -4.4787  -3.5373  -2.8681
    -2.2740  -0.4939  -0.1384   2.2791   2.8659   4.3423   4.3811   4.8824
     4.9694   5.4009   6.1043

          k = 0.2833 0.4907 0.0000 ( 11123 PWs)   bands (ev):

   -77.8470 -49.3704 -49.2634 -49.0400 -21.8554 -21.8419 -20.4836 -19.9663
   -14.9819 -14.7523 -13.5436 -13.4140 -11.9526 -11.4225 -11.0200 -10.2310
    -9.7103  -9.1069  -8.2712  -7.6871  -6.1979  -4.5020  -3.5169  -2.8702
    -2.2741  -0.5042  -0.1369   2.2813   2.8610   4.3356   4.3959   4.9152
     4.9801   5.4218   6.0901

          k = 0.2867 0.4965 0.0000 ( 11111 PWs)   bands (ev):

   -77.8467 -49.3692 -49.2671 -49.0396 -21.8232 -21.8104 -20.4789 -19.9657
   -14.9784 -14.7481 -13.6048 -13.4781 -11.9194 -11.4422 -11.0230 -10.2127
    -9.7578  -9.1408  -8.2625  -7.6755  -6.1795  -4.5246  -3.4966  -2.8733
    -2.2736  -0.5136  -0.1351   2.2839   2.8546   4.3233   4.4148   4.9404
     5.0026   5.4439   6.0748

          k = 0.2900 0.5023 0.0000 ( 11112 PWs)   bands (ev):

   -77.8464 -49.3680 -49.2708 -49.0392 -21.7933 -21.7810 -20.4747 -19.9651
   -14.9718 -14.7405 -13.6651 -13.5415 -11.8867 -11.4608 -11.0237 -10.1984
    -9.8008  -9.1748  -8.2542  -7.6647  -6.1617  -4.5462  -3.4766  -2.8774
    -2.2726  -0.5223  -0.1328   2.2870   2.8469   4.3104   4.4326   4.9594
     5.0359   5.4665   6.0584

          k = 0.2933 0.5081 0.0000 ( 11120 PWs)   bands (ev):

   -77.8462 -49.3665 -49.2744 -49.0389 -21.7656 -21.7537 -20.4710 -19.9647
   -14.9622 -14.7295 -13.7244 -13.6042 -11.8547 -11.4782 -11.0218 -10.1906
    -9.8370  -9.2086  -8.2465  -7.6547  -6.1448  -4.5669  -3.4570  -2.8824
    -2.2711  -0.5301  -0.1302   2.2902   2.8382   4.2978   4.4486   4.9776
     5.0745   5.4887   6.0406

          k = 0.2967 0.5138 0.0000 ( 11130 PWs)   bands (ev):

   -77.8460 -49.3649 -49.2780 -49.0386 -21.7403 -21.7286 -20.4679 -19.9643
   -14.9496 -14.7150 -13.7827 -13.6662 -11.8240 -11.4945 -11.0170 -10.1923
    -9.8634  -9.2421  -8.2393  -7.6455  -6.1287  -4.5865  -3.4378  -2.8881
    -2.2692  -0.5371  -0.1273   2.2936   2.8285   4.2857   4.4627   4.9975
     5.1155   5.5101   6.0212

          k = 0.3000 0.5196 0.0000 ( 11140 PWs)   bands (ev):

   -77.8457 -49.3632 -49.2815 -49.0383 -21.7174 -21.7058 -20.4651 -19.9640
   -14.9342 -14.6971 -13.8397 -13.7274 -11.7947 -11.5095 -11.0088 -10.2058
    -9.8777  -9.2752  -8.2327  -7.6370  -6.1137  -4.6048  -3.4192  -2.8944
    -2.2669  -0.5432  -0.1242   2.2970   2.8184   4.2741   4.4752   5.0199
     5.1579   5.5300   6.0000

          k = 0.3033 0.5254 0.0000 ( 11132 PWs)   bands (ev):

   -77.8456 -49.3614 -49.2849 -49.0380 -21.6968 -21.6852 -20.4627 -19.9637
   -14.9162 -14.6758 -13.8952 -13.7877 -11.7674 -11.5233 -10.9969 -10.2312
    -9.8801  -9.3077  -8.2269  -7.6294  -6.0998  -4.6217  -3.4013  -2.9012
    -2.2645  -0.5484  -0.1209   2.3003   2.8079   4.2631   4.4865   5.0444
     5.2011   5.5481   5.9768

          k = 0.3067 0.5312 0.0000 ( 11130 PWs)   bands (ev):

   -77.8454 -49.3596 -49.2882 -49.0378 -21.6786 -21.6669 -20.4606 -19.9635
   -14.8959 -14.6513 -13.9490 -13.8472 -11.7424 -11.5360 -10.9810 -10.2664
    -9.8727  -9.3395  -8.2216  -7.6226  -6.0870  -4.6372  -3.3845  -2.9083
    -2.2620  -0.5527  -0.1175   2.3034   2.7975   4.2528   4.4967   5.0707
     5.2448   5.5638   5.9512

          k = 0.3100 0.5369 0.0000 ( 11118 PWs)   bands (ev):

   -77.8453 -49.3576 -49.2914 -49.0376 -21.6627 -21.6509 -20.4588 -19.9632
   -14.8736 -14.6236 -14.0006 -13.9056 -11.7199 -11.5474 -10.9607 -10.3082
    -9.8589  -9.3701  -8.2171  -7.6166  -6.0756  -4.6511  -3.3687  -2.9154
    -2.2594  -0.5562  -0.1141   2.3061   2.7874   4.2434   4.5061   5.0979
     5.2890   5.5771   5.9230

          k = 0.3133 0.5427 0.0000 ( 11112 PWs)   bands (ev):

   -77.8451 -49.3557 -49.2944 -49.0374 -21.6492 -21.6372 -20.4573 -19.9629
   -14.8498 -14.5929 -14.0496 -13.9628 -11.7002 -11.5578 -10.9362 -10.3542
    -9.8412  -9.3994  -8.2133  -7.6114  -6.0655  -4.6633  -3.3544  -2.9224
    -2.2569  -0.5589  -0.1108   2.3083   2.7778   4.2349   4.5147   5.1252
     5.3335   5.5879   5.8918

          k = 0.3167 0.5485 0.0000 ( 11096 PWs)   bands (ev):

   -77.8450 -49.3538 -49.2971 -49.0373 -21.6379 -21.6257 -20.4560 -19.9626
   -14.8253 -14.5594 -14.0952 -14.0187 -11.6832 -11.5670 -10.9073 -10.4026
    -9.8219  -9.4269  -8.2101  -7.6071  -6.0569  -4.6737  -3.3416  -2.9289
    -2.2546  -0.5608  -0.1076   2.3102   2.7691   4.2277   4.5225   5.1518
     5.3781   5.5964   5.8574

          k = 0.3200 0.5543 0.0000 ( 11084 PWs)   bands (ev):

   -77.8449 -49.3521 -49.2996 -49.0372 -21.6289 -21.6165 -20.4550 -19.9624
   -14.8012 -14.5237 -14.1364 -14.0727 -11.6692 -11.5752 -10.8745 -10.4519
    -9.8025  -9.4518  -8.2076  -7.6036  -6.0498  -4.6823  -3.3308  -2.9348
    -2.2526  -0.5621  -0.1048   2.3115   2.7614   4.2217   4.5294   5.1763
     5.4227   5.6031   5.8195

          k = 0.3233 0.5600 0.0000 ( 11076 PWs)   bands (ev):

   -77.8449 -49.3505 -49.3017 -49.0371 -21.6220 -21.6095 -20.4542 -19.9621
   -14.7789 -14.4867 -14.1719 -14.1239 -11.6579 -11.5821 -10.8387 -10.5008
    -9.7847  -9.4733  -8.2057  -7.6009  -6.0443  -4.6890  -3.3220  -2.9397
    -2.2509  -0.5628  -0.1024   2.3124   2.7551   4.2170   4.5353   5.1977
     5.4672   5.6087   5.7783

          k = 0.3267 0.5658 0.0000 ( 11072 PWs)   bands (ev):

   -77.8448 -49.3493 -49.3033 -49.0370 -21.6172 -21.6046 -20.4536 -19.9619
   -14.7602 -14.4504 -14.1999 -14.1702 -11.6496 -11.5876 -10.8017 -10.5471
    -9.7702  -9.4902  -8.2044  -7.5990  -6.0403  -4.6938  -3.3155  -2.9434
    -2.2496  -0.5631  -0.1005   2.3129   2.7503   4.2138   4.5399   5.2143
     5.5111   5.6136   5.7345

          k = 0.3300 0.5716 0.0000 ( 11064 PWs)   bands (ev):

   -77.8448 -49.3485 -49.3044 -49.0370 -21.6144 -21.6017 -20.4532 -19.9618
   -14.7475 -14.4200 -14.2187 -14.2061 -11.6445 -11.5913 -10.7685 -10.5857
    -9.7606  -9.5011  -8.2037  -7.5979  -6.0379  -4.6966  -3.3116  -2.9457
    -2.2488  -0.5632  -0.0992   2.3130   2.7473   4.2119   4.5429   5.2250
     5.5539   5.6148   5.6928

          k = 0.3333 0.5774 0.0000 ( 11058 PWs)   bands (ev):

   -77.8448 -49.3482 -49.3047 -49.0370 -21.6135 -21.6007 -20.4531 -19.9617
   -14.7430 -14.4068 -14.2271 -14.2193 -11.6428 -11.5926 -10.7530 -10.6030
    -9.7572  -9.5049  -8.2035  -7.5976  -6.0372  -4.6976  -3.3103  -2.9465
    -2.2485  -0.5631  -0.0988   2.3131   2.7463   4.2113   4.5440   5.2287
     5.5918   5.5967   5.6735

          k = 0.3361 0.5725 0.0000 ( 11064 PWs)   bands (ev):

   -77.8448 -49.3484 -49.3045 -49.0370 -21.6141 -21.6014 -20.4532 -19.9618
   -14.7463 -14.4166 -14.2203 -14.2104 -11.6439 -11.5917 -10.7647 -10.5901
    -9.7595  -9.5023  -8.2036  -7.5978  -6.0377  -4.6969  -3.3112  -2.9460
    -2.2487  -0.5632  -0.0991   2.3131   2.7471   4.2117   4.5432   5.2262
     5.5539   5.6244   5.6835

          k = 0.3389 0.5677 0.0000 ( 11070 PWs)   bands (ev):

   -77.8448 -49.3490 -49.3037 -49.0370 -21.6159 -21.6032 -20.4535 -19.9619
   -14.7562 -14.4416 -14.2049 -14.1830 -11.6469 -11.5894 -10.7930 -10.5583
    -9.7660  -9.4952  -8.2041  -7.5985  -6.0393  -4.6950  -3.3139  -2.9444
    -2.2493  -0.5635  -0.1002   2.3133   2.7494   4.2127   4.5405   5.2187
     5.5039   5.6503   5.7065

          k = 0.3417 0.5629 0.0000 ( 11070 PWs)   bands (ev):

   -77.8449 -49.3500 -49.3025 -49.0371 -21.6188 -21.6062 -20.4539 -19.9622
   -14.7722 -14.4745 -14.1820 -14.1443 -11.6514 -11.5860 -10.8285 -10.5170
    -9.7758  -9.4842  -8.2048  -7.5997  -6.0419  -4.6919  -3.3183  -2.9417
    -2.2504  -0.5642  -0.1021   2.3138   2.7533   4.2141   4.5357   5.2068
     5.4490   5.6738   5.7364

          k = 0.3444 0.5581 0.0000 ( 11088 PWs)   bands (ev):

   -77.8449 -49.3513 -49.3008 -49.0371 -21.6228 -21.6103 -20.4546 -19.9625
   -14.7930 -14.5110 -14.1518 -14.0992 -11.6569 -11.5819 -10.8668 -10.4708
    -9.7880  -9.4704  -8.2057  -7.6014  -6.0454  -4.6875  -3.3242  -2.9382
    -2.2518  -0.5654  -0.1049   2.3147   2.7590   4.2156   4.5285   5.1913
     5.3905   5.6969   5.7695

          k = 0.3472 0.5533 0.0000 ( 11082 PWs)   bands (ev):

   -77.8449 -49.3529 -49.2988 -49.0372 -21.6279 -21.6155 -20.4555 -19.9630
   -14.8178 -14.5491 -14.1154 -14.0501 -11.6633 -11.5771 -10.9062 -10.4216
    -9.8017  -9.4545  -8.2068  -7.6035  -6.0499  -4.6821  -3.3317  -2.9338
    -2.2537  -0.5674  -0.1088   2.3163   2.7664   4.2169   4.5187   5.1725
     5.3297   5.7204   5.8038

          k = 0.3500 0.5485 0.0000 ( 11096 PWs)   bands (ev):

   -77.8450 -49.3547 -49.2965 -49.0373 -21.6338 -21.6215 -20.4566 -19.9637
   -14.8455 -14.5878 -14.0738 -13.9978 -11.6702 -11.5719 -10.9459 -10.3704
    -9.8162  -9.4374  -8.2081  -7.6060  -6.0553  -4.6756  -3.3404  -2.9288
    -2.2560  -0.5701  -0.1137   2.3188   2.7756   4.2176   4.5064   5.1502
     5.2683   5.7445   5.8385

          k = 0.3528 0.5437 0.0000 ( 11104 PWs)   bands (ev):

   -77.8451 -49.3567 -49.2939 -49.0374 -21.6406 -21.6285 -20.4579 -19.9645
   -14.8753 -14.6267 -14.0279 -13.9431 -11.6777 -11.5663 -10.9853 -10.3177
    -9.8310  -9.4193  -8.2096  -7.6088  -6.0614  -4.6681  -3.3503  -2.9231
    -2.2588  -0.5739  -0.1199   2.3222   2.7867   4.2168   4.4916   5.1213
     5.2106   5.7690   5.8731

          k = 0.3556 0.5389 0.0000 ( 11104 PWs)   bands (ev):

   -77.8451 -49.3588 -49.2911 -49.0375 -21.6483 -21.6363 -20.4594 -19.9654
   -14.9066 -14.6654 -13.9783 -13.8862 -11.6856 -11.5604 -11.0243 -10.2641
    -9.8455  -9.4007  -8.2112  -7.6120  -6.0683  -4.6597  -3.3612  -2.9170
    -2.2620  -0.5789  -0.1274   2.3268   2.7996   4.2137   4.4748   5.0781
     5.1657   5.7936   5.9076

          k = 0.3583 0.5340 0.0000 ( 11102 PWs)   bands (ev):

   -77.8452 -49.3610 -49.2881 -49.0376 -21.6567 -21.6448 -20.4612 -19.9666
   -14.9388 -14.7039 -13.9256 -13.8274 -11.6938 -11.5542 -11.0625 -10.2102
    -9.8592  -9.3818  -8.2128  -7.6156  -6.0759  -4.6505  -3.3729  -2.9105
    -2.2657  -0.5851  -0.1363   2.3328   2.8143   4.2070   4.4570   5.0178
     5.1371   5.8181   5.9415

          k = 0.3611 0.5292 0.0000 ( 11114 PWs)   bands (ev):

   -77.8453 -49.3633 -49.2850 -49.0377 -21.6658 -21.6540 -20.4632 -19.9679
   -14.9717 -14.7419 -13.8703 -13.7668 -11.7024 -11.5479 -11.0999 -10.1567
    -9.8715  -9.3627  -8.2146  -7.6195  -6.0841  -4.6405  -3.3855  -2.9036
    -2.2697  -0.5928  -0.1469   2.3403   2.8308   4.1952   4.4395   4.9479
     5.1182   5.8421   5.9750

          k = 0.3639 0.5244 0.0000 ( 11112 PWs)   bands (ev):

   -77.8454 -49.3656 -49.2817 -49.0379 -21.6755 -21.6639 -20.4654 -19.9694
   -15.0050 -14.7795 -13.8127 -13.7047 -11.7113 -11.5414 -11.1362 -10.1048
    -9.8809  -9.3436  -8.2164  -7.6237  -6.0929  -4.6299  -3.3987  -2.8965
    -2.2743  -0.6021  -0.1590   2.3495   2.8491   4.1766   4.4238   4.8735
     5.1047   5.8654   6.0078

          k = 0.3667 0.5196 0.0000 ( 11108 PWs)   bands (ev):

   -77.8455 -49.3680 -49.2784 -49.0380 -21.6858 -21.6743 -20.4679 -19.9711
   -15.0384 -14.8165 -13.7531 -13.6411 -11.7205 -11.5348 -11.1714 -10.0574
    -9.8850  -9.3244  -8.2182  -7.6282  -6.1021  -4.6186  -3.4124  -2.8891
    -2.2792  -0.6130  -0.1730   2.3604   2.8692   4.1503   4.4113   4.7967
     5.0949   5.8877   6.0399

          k = 0.3694 0.5148 0.0000 ( 11106 PWs)   bands (ev):

   -77.8457 -49.3704 -49.2749 -49.0382 -21.6966 -21.6852 -20.4706 -19.9730
   -15.0718 -14.8530 -13.6919 -13.5761 -11.7300 -11.5284 -11.2051 -10.0199
    -9.8784  -9.3051  -8.2201  -7.6330  -6.1118  -4.6068  -3.4266  -2.8816
    -2.2846  -0.6256  -0.1888   2.3733   2.8910   4.1161   4.4019   4.7189
     5.0882   5.9089   6.0713

          k = 0.3722 0.5100 0.0000 ( 11106 PWs)   bands (ev):

   -77.8458 -49.3729 -49.2714 -49.0383 -21.7079 -21.6966 -20.4736 -19.9751
   -15.1051 -14.8888 -13.6291 -13.5099 -11.7397 -11.5222 -11.2373  -9.9988
    -9.8547  -9.2857  -8.2219  -7.6380  -6.1218  -4.5946  -3.4413  -2.8738
    -2.2905  -0.6401  -0.2066   2.3880   2.9143   4.0747   4.3947   4.6416
     5.0840   5.9286   6.1018

          k = 0.3750 0.5052 0.0000 ( 11106 PWs)   bands (ev):

   -77.8459 -49.3753 -49.2679 -49.0385 -21.7196 -21.7084 -20.4767 -19.9773
   -15.1381 -14.9241 -13.5652 -13.4426 -11.7496 -11.5165 -11.2676  -9.9928
    -9.8155  -9.2658  -8.2238  -7.6433  -6.1322  -4.5820  -3.4562  -2.8659
    -2.2968  -0.6564  -0.2265   2.4046   2.9391   4.0274   4.3867   4.5672
     5.0821   5.9468   6.1314

          k = 0.3778 0.5004 0.0000 ( 11092 PWs)   bands (ev):

   -77.8460 -49.3777 -49.2643 -49.0387 -21.7316 -21.7205 -20.4801 -19.9798
   -15.1709 -14.9587 -13.5002 -13.3743 -11.7596 -11.5115 -11.2956  -9.9950
    -9.7681  -9.2455  -8.2257  -7.6488  -6.1428  -4.5690  -3.4715  -2.8578
    -2.3036  -0.6746  -0.2485   2.4230   2.9652   3.9756   4.3705   4.5030
     5.0820   5.9632   6.1601

          k = 0.3806 0.4956 0.0000 ( 11092 PWs)   bands (ev):

   -77.8462 -49.3801 -49.2606 -49.0389 -21.7440 -21.7329 -20.4837 -19.9824
   -15.2032 -14.9927 -13.4344 -13.3052 -11.7698 -11.5076 -11.3210 -10.0003
    -9.7178  -9.2242  -8.2276  -7.6545  -6.1536  -4.5558  -3.4870  -2.8495
    -2.3108  -0.6948  -0.2727   2.4432   2.9925   3.9206   4.3317   4.4632
     5.0836   5.9777   6.1878

          k = 0.3833 0.4907 0.0000 ( 11082 PWs)   bands (ev):

   -77.8463 -49.3825 -49.2569 -49.0391 -21.7566 -21.7455 -20.4875 -19.9852
   -15.2351 -15.0260 -13.3679 -13.2353 -11.7801 -11.5055 -11.3430 -10.0067
    -9.6671  -9.2017  -8.2295  -7.6604  -6.1647  -4.5425  -3.5027  -2.8409
    -2.3186  -0.7168  -0.2991   2.4647   3.0208   3.8636   4.2686   4.4492
     5.0865   5.9901   6.2145

          k = 0.3861 0.4859 0.0000 ( 11102 PWs)   bands (ev):

   -77.8465 -49.3849 -49.2532 -49.0393 -21.7694 -21.7583 -20.4914 -19.9882
   -15.2665 -15.0586 -13.3012 -13.1648 -11.7904 -11.5057 -11.3610 -10.0133
    -9.6176  -9.1774  -8.2314  -7.6665  -6.1758  -4.5290  -3.5186  -2.8321
    -2.3269  -0.7408  -0.3277   2.4873   3.0498   3.8057   4.1949   4.4477
     5.0904   6.0004   6.2401

          k = 0.3889 0.4811 0.0000 ( 11104 PWs)   bands (ev):

   -77.8466 -49.3872 -49.2495 -49.0395 -21.7824 -21.7713 -20.4956 -19.9913
   -15.2974 -15.0905 -13.2343 -13.0940 -11.8006 -11.5089 -11.3742 -10.0194
    -9.5703  -9.1507  -8.2333  -7.6728  -6.1871  -4.5154  -3.5346  -2.8231
    -2.3357  -0.7666  -0.3584   2.5105   3.0794   3.7479   4.1180   4.4514
     5.0952   6.0084   6.2646

          k = 0.3917 0.4763 0.0000 ( 11102 PWs)   bands (ev):

   -77.8468 -49.3895 -49.2458 -49.0397 -21.7955 -21.7844 -20.4998 -19.9946
   -15.3278 -15.1218 -13.1675 -13.0229 -11.8104 -11.5152 -11.3825 -10.0249
    -9.5263  -9.1211  -8.2352  -7.6793  -6.1984  -4.5019  -3.5507  -2.8137
    -2.3451  -0.7943  -0.3913   2.5337   3.1089   3.6914   4.0409   4.4578
     5.1007   6.0142   6.2879

          k = 0.3944 0.4715 0.0000 ( 11106 PWs)   bands (ev):

   -77.8470 -49.3918 -49.2422 -49.0399 -21.8087 -21.7976 -20.5043 -19.9981
   -15.3575 -15.1523 -13.1012 -12.9517 -11.8199 -11.5241 -11.3864 -10.0296
    -9.4862  -9.0880  -8.2371  -7.6859  -6.2098  -4.4883  -3.5668  -2.8040
    -2.3551  -0.8238  -0.4263   2.5561   3.1381   3.6373   3.9649   4.4660
     5.1067   6.0177   6.3100

          k = 0.3972 0.4667 0.0000 ( 11110 PWs)   bands (ev):

   -77.8471 -49.3940 -49.2385 -49.0401 -21.8219 -21.8108 -20.5089 -20.0016
   -15.3867 -15.1821 -13.0356 -12.8808 -11.8286 -11.5344 -11.3867 -10.0334
    -9.4505  -9.0511  -8.2390  -7.6927  -6.2212  -4.4749  -3.5830  -2.7940
    -2.3656  -0.8551  -0.4632   2.5765   3.1661   3.5869   3.8912   4.4757
     5.1130   6.0189   6.3309

          k = 0.4000 0.4619 0.0000 ( 11106 PWs)   bands (ev):

   -77.8473 -49.3963 -49.2348 -49.0403 -21.8351 -21.8240 -20.5135 -20.0053
   -15.4152 -15.2112 -12.9712 -12.8103 -11.8362 -11.5452 -11.3846 -10.0362
    -9.4193  -9.0103  -8.2410  -7.6997  -6.2326  -4.4615  -3.5993  -2.7836
    -2.3768  -0.8881  -0.5019   2.5938   3.1920   3.5417   3.8211   4.4867
     5.1196   6.0179   6.3506

          k = 0.4028 0.4571 0.0000 ( 11098 PWs)   bands (ev):

   -77.8474 -49.3984 -49.2312 -49.0405 -21.8484 -21.8371 -20.5183 -20.0090
   -15.4431 -15.2396 -12.9084 -12.7405 -11.8423 -11.5554 -11.3808 -10.0380
    -9.3926  -8.9660  -8.2429  -7.7069  -6.2440  -4.4484  -3.6155  -2.7729
    -2.3886  -0.9228  -0.5423   2.6064   3.2143   3.5030   3.7565   4.4991
     5.1263   6.0147   6.3690

          k = 0.4056 0.4523 0.0000 ( 11094 PWs)   bands (ev):

   -77.8476 -49.4005 -49.2276 -49.0408 -21.8615 -21.8502 -20.5232 -20.0129
   -15.4704 -15.2672 -12.8478 -12.6718 -11.8464 -11.5646 -11.3758 -10.0389
    -9.3699  -8.9184  -8.2449  -7.7142  -6.2553  -4.4354  -3.6317  -2.7618
    -2.4010  -0.9591  -0.5841   2.6129   3.2307   3.4723   3.6997   4.5128
     5.1331   6.0095   6.3861

          k = 0.4083 0.4474 0.0000 ( 11112 PWs)   bands (ev):

   -77.8478 -49.4026 -49.2240 -49.0410 -21.8746 -21.8632 -20.5282 -20.0168
   -15.4969 -15.2941 -12.7898 -12.6047 -11.8478 -11.5721 -11.3700 -10.0387
    -9.3508  -8.8684  -8.2469  -7.7216  -6.2666  -4.4227  -3.6479  -2.7504
    -2.4140  -0.9969  -0.6273   2.6119   3.2382   3.4503   3.6546   4.5280
     5.1398   6.0025   6.4019

          k = 0.4111 0.4426 0.0000 ( 11104 PWs)   bands (ev):

   -77.8479 -49.4047 -49.2205 -49.0412 -21.8875 -21.8761 -20.5332 -20.0208
   -15.5228 -15.3203 -12.7352 -12.5395 -11.8458 -11.5777 -11.3636 -10.0376
    -9.3345  -8.8165  -8.2488  -7.7291  -6.2779  -4.4102  -3.6639  -2.7388
    -2.4277  -1.0362  -0.6716   2.6025   3.2332   3.4373   3.6253   4.5447
     5.1465   5.9936   6.4164

          k = 0.4139 0.4378 0.0000 ( 11108 PWs)   bands (ev):

   -77.8481 -49.4067 -49.2170 -49.0414 -21.9003 -21.8888 -20.5382 -20.0248
   -15.5480 -15.3457 -12.6847 -12.4768 -11.8396 -11.5810 -11.3567 -10.0355
    -9.3208  -8.7633  -8.2506  -7.7367  -6.2891  -4.3980  -3.6799  -2.7269
    -2.4418  -1.0769  -0.7167   2.5847   3.2134   3.4333   3.6139   4.5630
     5.1532   5.9832   6.4296

          k = 0.4167 0.4330 0.0000 ( 11100 PWs)   bands (ev):

   -77.8483 -49.4086 -49.2136 -49.0417 -21.9129 -21.9013 -20.5432 -20.0289
   -15.5724 -15.3703 -12.6391 -12.4172 -11.8284 -11.5816 -11.3492 -10.0326
    -9.3090  -8.7095  -8.2523  -7.7444  -6.3003  -4.3862  -3.6958  -2.7150
    -2.4565  -1.1189  -0.7624   2.5589   3.1799   3.4382   3.6191   4.5831
     5.1598   5.9714   6.4414

          k = 0.4194 0.4282 0.0000 ( 11088 PWs)   bands (ev):

   -77.8484 -49.4105 -49.2102 -49.0419 -21.9254 -21.9137 -20.5483 -20.0330
   -15.5961 -15.3942 -12.5990 -12.3613 -11.8115 -11.5795 -11.3410 -10.0287
    -9.2988  -8.6555  -8.2537  -7.7521  -6.3114  -4.3747  -3.7115  -2.7032
    -2.4715  -1.1622  -0.8084   2.5264   3.1363   3.4506   3.6373   4.6051
     5.1663   5.9583   6.4520

          k = 0.4222 0.4234 0.0000 ( 11090 PWs)   bands (ev):

   -77.8486 -49.4123 -49.2069 -49.0421 -21.9376 -21.9258 -20.5534 -20.0371
   -15.6191 -15.4173 -12.5650 -12.3096 -11.7885 -11.5742 -11.3321 -10.0240
    -9.2899  -8.6021  -8.2546  -7.7598  -6.3224  -4.3635  -3.7270  -2.6917
    -2.4866  -1.2066  -0.8546   2.4884   3.0867   3.4686   3.6647   4.6289
     5.1728   5.9442   6.4612

          k = 0.4250 0.4186 0.0000 ( 11094 PWs)   bands (ev):

   -77.8488 -49.4141 -49.2037 -49.0423 -21.9495 -21.9376 -20.5584 -20.0412
   -15.6414 -15.4396 -12.5373 -12.2626 -11.7594 -11.5655 -11.3221 -10.0186
    -9.2820  -8.5498  -8.2548  -7.7674  -6.3335  -4.3528  -3.7424  -2.6811
    -2.5014  -1.2520  -0.9006   2.4464   3.0340   3.4900   3.6991   4.6547
     5.1793   5.9292   6.4692

          k = 0.4278 0.4138 0.0000 ( 11096 PWs)   bands (ev):

   -77.8489 -49.4158 -49.2005 -49.0425 -21.9612 -21.9492 -20.5634 -20.0453
   -15.6629 -15.4612 -12.5159 -12.2205 -11.7249 -11.5531 -11.3108 -10.0125
    -9.2750  -8.4996  -8.2536  -7.7748  -6.3445  -4.3424  -3.7575  -2.6719
    -2.5152  -1.2983  -0.9462   2.4017   2.9802   3.5130   3.7389   4.6824
     5.1859   5.9136   6.4759

          k = 0.4306 0.4090 0.0000 ( 11092 PWs)   bands (ev):

   -77.8491 -49.4175 -49.1975 -49.0427 -21.9726 -21.9605 -20.5683 -20.0493
   -15.6837 -15.4820 -12.5003 -12.1834 -11.6863 -11.5366 -11.2977 -10.0057
    -9.2686  -8.4527  -8.2501  -7.7818  -6.3554  -4.3325  -3.7724  -2.6654
    -2.5269  -1.3454  -0.9913   2.3551   2.9264   3.5362   3.7831   4.7120
     5.1928   5.8974   6.4814

          k = 0.4333 0.4041 0.0000 ( 11104 PWs)   bands (ev):

   -77.8492 -49.4191 -49.1945 -49.0430 -21.9836 -21.9715 -20.5732 -20.0533
   -15.7037 -15.5020 -12.4900 -12.1514 -11.6456 -11.5155 -11.2823  -9.9985
    -9.2627  -8.4114  -8.2424  -7.7884  -6.3664  -4.3230  -3.7871  -2.6630
    -2.5352  -1.3929  -1.0355   2.3077   2.8735   3.5588   3.8308   4.7435
     5.1999   5.8809   6.4857

          k = 0.4361 0.3993 0.0000 ( 11116 PWs)   bands (ev):

   -77.8494 -49.4207 -49.1916 -49.0432 -21.9944 -21.9821 -20.5779 -20.0573
   -15.7229 -15.5212 -12.4840 -12.1241 -11.6058 -11.4886 -11.2642  -9.9908
    -9.2572  -8.3784  -8.2280  -7.7944  -6.3773  -4.3139  -3.8015  -2.6661
    -2.5386  -1.4408  -1.0787   2.2600   2.8218   3.5800   3.8813   4.7768
     5.2074   5.8643   6.4888

          k = 0.4389 0.3945 0.0000 ( 11114 PWs)   bands (ev):

   -77.8495 -49.4222 -49.1888 -49.0434 -22.0048 -21.9924 -20.5826 -20.0611
   -15.7413 -15.5396 -12.4817 -12.1013 -11.5702 -11.4544 -11.2429  -9.9827
    -9.2520  -8.3560  -8.2052  -7.7993  -6.3882  -4.3053  -3.8155  -2.6751
    -2.5369  -1.4887  -1.1207   2.2125   2.7717   3.5996   3.9339   4.8117
     5.2155   5.8477   6.4908

          k = 0.4417 0.3897 0.0000 ( 11110 PWs)   bands (ev):

   -77.8497 -49.4236 -49.1860 -49.0435 -22.0148 -22.0024 -20.5872 -20.0649
   -15.7590 -15.5572 -12.4823 -12.0826 -11.5408 -11.4125 -11.2179  -9.9743
    -9.2469  -8.3433  -8.1753  -7.8028  -6.3991  -4.2971  -3.8292  -2.6890
    -2.5309  -1.5364  -1.1615   2.1658   2.7234   3.6175   3.9878   4.8480
     5.2243   5.8313   6.4916

          k = 0.4444 0.3849 0.0000 ( 11110 PWs)   bands (ev):

   -77.8498 -49.4250 -49.1834 -49.0437 -22.0245 -22.0120 -20.5916 -20.0686
   -15.7759 -15.5740 -12.4852 -12.0673 -11.5176 -11.3647 -11.1893  -9.9658
    -9.2420  -8.3373  -8.1420  -7.8044  -6.4100  -4.2894  -3.8426  -2.7065
    -2.5222  -1.5836  -1.2008   2.1201   2.6771   3.6337   4.0423   4.8856
     5.2340   5.8153   6.4914

          k = 0.4472 0.3801 0.0000 ( 11118 PWs)   bands (ev):

   -77.8499 -49.4263 -49.1809 -49.0439 -22.0338 -22.0212 -20.5959 -20.0722
   -15.7919 -15.5900 -12.4897 -12.0551 -11.4994 -11.3132 -11.1573  -9.9572
    -9.2372  -8.3353  -8.1088  -7.8033  -6.4209  -4.2821  -3.8556  -2.7263
    -2.5119  -1.6299  -1.2387   2.0757   2.6329   3.6481   4.0967   4.9242
     5.2447   5.7998   6.4901

          k = 0.4500 0.3753 0.0000 ( 11110 PWs)   bands (ev):

   -77.8501 -49.4276 -49.1785 -49.0441 -22.0426 -22.0300 -20.6001 -20.0756
   -15.8072 -15.6052 -12.4954 -12.0454 -11.4851 -11.2600 -11.1223  -9.9485
    -9.2324  -8.3356  -8.0783  -7.7986  -6.4317  -4.2753  -3.8682  -2.7477
    -2.5008  -1.6750  -1.2750   2.0328   2.5908   3.6610   4.1504   4.9636
     5.2568   5.7851   6.4877

          k = 0.4528 0.3705 0.0000 ( 11118 PWs)   bands (ev):

   -77.8502 -49.4288 -49.1762 -49.0442 -22.0511 -22.0383 -20.6041 -20.0790
   -15.8217 -15.6196 -12.5021 -12.0378 -11.4737 -11.2063 -11.0851  -9.9400
    -9.2276  -8.3374  -8.0524  -7.7893  -6.4426  -4.2689  -3.8803  -2.7701
    -2.4898  -1.7185  -1.3097   1.9916   2.5509   3.6723   4.2028   5.0035
     5.2703   5.7713   6.4844

          k = 0.4556 0.3657 0.0000 ( 11122 PWs)   bands (ev):

   -77.8503 -49.4299 -49.1740 -49.0444 -22.0591 -22.0463 -20.6079 -20.0822
   -15.8354 -15.6332 -12.5092 -12.0319 -11.4646 -11.1531 -11.0463  -9.9315
    -9.2228  -8.3401  -8.0322  -7.7749  -6.4533  -4.2630  -3.8920  -2.7930
    -2.4791  -1.7600  -1.3428   1.9523   2.5133   3.6823   4.2533   5.0434
     5.2854   5.7586   6.4802

          k = 0.4583 0.3608 0.0000 ( 11126 PWs)   bands (ev):

   -77.8504 -49.4309 -49.1719 -49.0446 -22.0667 -22.0538 -20.6116 -20.0852
   -15.8482 -15.6460 -12.5167 -12.0273 -11.4574 -11.1010 -11.0067  -9.9234
    -9.2179  -8.3434  -8.0181  -7.7556  -6.4641  -4.2575  -3.9033  -2.8162
    -2.4692  -1.7990  -1.3743   1.9149   2.4779   3.6911   4.3013   5.0832
     5.3022   5.7472   6.4750

          k = 0.4611 0.3560 0.0000 ( 11130 PWs)   bands (ev):

   -77.8505 -49.4319 -49.1700 -49.0447 -22.0739 -22.0609 -20.6150 -20.0881
   -15.8603 -15.6580 -12.5243 -12.0239 -11.4516 -11.0505 -10.9670  -9.9155
    -9.2130  -8.3470  -8.0092  -7.7323  -6.4747  -4.2524  -3.9140  -2.8392
    -2.4604  -1.8353  -1.4040   1.8795   2.4448   3.6987   4.3464   5.1224
     5.3209   5.7373   6.4691

          k = 0.4639 0.3512 0.0000 ( 11114 PWs)   bands (ev):

   -77.8506 -49.4329 -49.1682 -49.0448 -22.0806 -22.0676 -20.6183 -20.0909
   -15.8715 -15.6691 -12.5319 -12.0214 -11.4470 -11.0021 -10.9276  -9.9080
    -9.2082  -8.3509  -8.0046  -7.7061  -6.4851  -4.2477  -3.9242  -2.8619
    -2.4531  -1.8685  -1.4321   1.8464   2.4140   3.7054   4.3882   5.1607
     5.3412   5.7292   6.4624

          k = 0.4667 0.3464 0.0000 ( 11110 PWs)   bands (ev):

   -77.8507 -49.4337 -49.1665 -49.0450 -22.0868 -22.0737 -20.6213 -20.0934
   -15.8819 -15.6795 -12.5392 -12.0195 -11.4433 -10.9561 -10.8892  -9.9008
    -9.2033  -8.3549  -8.0030  -7.6785  -6.4954  -4.2434  -3.9338  -2.8840
    -2.4474  -1.8981  -1.4585   1.8154   2.3855   3.7111   4.4265   5.1974
     5.3632   5.7232   6.4550

          k = 0.4694 0.3416 0.0000 ( 11110 PWs)   bands (ev):

   -77.8508 -49.4345 -49.1649 -49.0451 -22.0926 -22.0794 -20.6242 -20.0958
   -15.8915 -15.6890 -12.5463 -12.0182 -11.4404 -10.9128 -10.8522  -9.8942
    -9.1985  -8.3589  -8.0034  -7.6505  -6.5054  -4.2395  -3.9429  -2.9053
    -2.4436  -1.9239  -1.4831   1.7867   2.3593   3.7160   4.4610   5.2322
     5.3865   5.7195   6.4470

          k = 0.4722 0.3368 0.0000 ( 11106 PWs)   bands (ev):

   -77.8509 -49.4352 -49.1634 -49.0452 -22.0978 -22.0847 -20.6268 -20.0980
   -15.9003 -15.6977 -12.5530 -12.0173 -11.4380 -10.8725 -10.8170  -9.8881
    -9.1939  -8.3629  -8.0053  -7.6230  -6.5150  -4.2359  -3.9514  -2.9255
    -2.4418  -1.9458  -1.5060   1.7604   2.3354   3.7202   4.4916   5.2645
     5.4108   5.7183   6.4386

          k = 0.4750 0.3320 0.0000 ( 11128 PWs)   bands (ev):

   -77.8510 -49.4359 -49.1621 -49.0453 -22.1026 -22.0894 -20.6292 -20.1000
   -15.9082 -15.7055 -12.5592 -12.0168 -11.4362 -10.8355 -10.7839  -9.8825
    -9.1894  -8.3668  -8.0079  -7.5967  -6.5242  -4.2328  -3.9592  -2.9445
    -2.4418  -1.9639  -1.5271   1.7364   2.3138   3.7238   4.5184   5.2939
     5.4354   5.7199   6.4299

          k = 0.4778 0.3272 0.0000 ( 11132 PWs)   bands (ev):

   -77.8510 -49.4365 -49.1610 -49.0454 -22.1069 -22.0937 -20.6313 -20.1018
   -15.9153 -15.7126 -12.5650 -12.0164 -11.4347 -10.8019 -10.7534  -9.8774
    -9.1851  -8.3705  -8.0109  -7.5719  -6.5329  -4.2299  -3.9663  -2.9621
    -2.4434  -1.9782  -1.5463   1.7149   2.2944   3.7268   4.5415   5.3199
     5.4598   5.7243   6.4211

          k = 0.4806 0.3224 0.0000 ( 11138 PWs)   bands (ev):

   -77.8511 -49.4370 -49.1599 -49.0454 -22.1108 -22.0975 -20.6332 -20.1034
   -15.9216 -15.7188 -12.5701 -12.0163 -11.4336 -10.7720 -10.7256  -9.8730
    -9.1812  -8.3740  -8.0140  -7.5493  -6.5410  -4.2274  -3.9727  -2.9781
    -2.4464  -1.9891  -1.5636   1.6958   2.2774   3.7293   4.5611   5.3421
     5.4833   5.7312   6.4124

          k = 0.4833 0.3175 0.0000 ( 11138 PWs)   bands (ev):

   -77.8511 -49.4375 -49.1590 -49.0455 -22.1141 -22.1008 -20.6349 -20.1048
   -15.9271 -15.7242 -12.5746 -12.0162 -11.4327 -10.7458 -10.7009  -9.8691
    -9.1776  -8.3771  -8.0171  -7.5290  -6.5483  -4.2253  -3.9783  -2.9923
    -2.4503  -1.9971  -1.5789   1.6792   2.2626   3.7314   4.5774   5.3606
     5.5052   5.7402   6.4040

          k = 0.4861 0.3127 0.0000 ( 11136 PWs)   bands (ev):

   -77.8512 -49.4379 -49.1582 -49.0456 -22.1169 -22.1035 -20.6363 -20.1060
   -15.9317 -15.7287 -12.5785 -12.0162 -11.4320 -10.7235 -10.6795  -9.8658
    -9.1744  -8.3798  -8.0199  -7.5114  -6.5548  -4.2235  -3.9832  -3.0046
    -2.4547  -2.0026  -1.5921   1.6651   2.2502   3.7330   4.5908   5.3754
     5.5250   5.7506   6.3962

          k = 0.4889 0.3079 0.0000 ( 11130 PWs)   bands (ev):

   -77.8512 -49.4382 -49.1576 -49.0456 -22.1192 -22.1058 -20.6374 -20.1070
   -15.9354 -15.7325 -12.5817 -12.0163 -11.4315 -10.7051 -10.6617  -9.8632
    -9.1717  -8.3822  -8.0223  -7.4966  -6.5602  -4.2220  -3.9872  -3.0148
    -2.4590  -2.0063  -1.6031   1.6535   2.2400   3.7344   4.6013   5.3868
     5.5421   5.7612   6.3893

          k = 0.4917 0.3031 0.0000 ( 11128 PWs)   bands (ev):

   -77.8512 -49.4384 -49.1571 -49.0457 -22.1210 -22.1076 -20.6384 -20.1078
   -15.9384 -15.7354 -12.5843 -12.0164 -11.4311 -10.6908 -10.6476  -9.8611
    -9.1696  -8.3840  -8.0243  -7.4850  -6.5646  -4.2208  -3.9904  -3.0229
    -2.4628  -2.0085  -1.6118   1.6445   2.2320   3.7353   4.6092   5.3951
     5.5560   5.7709   6.3836

          k = 0.4944 0.2983 0.0000 ( 11136 PWs)   bands (ev):

   -77.8513 -49.4386 -49.1567 -49.0457 -22.1223 -22.1089 -20.6390 -20.1083
   -15.9405 -15.7374 -12.5861 -12.0164 -11.4308 -10.6805 -10.6375  -9.8596
    -9.1680  -8.3854  -8.0257  -7.4765  -6.5678  -4.2200  -3.9926  -3.0287
    -2.4658  -2.0098  -1.6181   1.6381   2.2264   3.7360   4.6148   5.4007
     5.5663   5.7787   6.3793

          k = 0.4972 0.2935 0.0000 ( 11136 PWs)   bands (ev):

   -77.8513 -49.4387 -49.1565 -49.0457 -22.1230 -22.1096 -20.6394 -20.1086
   -15.9417 -15.7387 -12.5872 -12.0165 -11.4307 -10.6743 -10.6313  -9.8587
    -9.1670  -8.3862  -8.0266  -7.4714  -6.5698  -4.2195  -3.9940  -3.0322
    -2.4677  -2.0104  -1.6219   1.6342   2.2230   3.7364   4.6180   5.4039
     5.5726   5.7838   6.3766

          k = 0.5000 0.2887 0.0000 ( 11140 PWs)   bands (ev):

   -77.8513 -49.4387 -49.1565 -49.0457 -22.1233 -22.1099 -20.6395 -20.1088
   -15.9421 -15.7391 -12.5875 -12.0165 -11.4307 -10.6723 -10.6293  -9.8584
    -9.1667  -8.3865  -8.0269  -7.4697  -6.5704  -4.2193  -3.9945  -3.0334
    -2.4683  -2.0106  -1.6232   1.6329   2.2218   3.7366   4.6191   5.4050
     5.5747   5.7855   6.3757

          k = 0.4950 0.2858 0.0000 ( 11136 PWs)   bands (ev):

   -77.8513 -49.4386 -49.1564 -49.0457 -22.1248 -22.1113 -20.6396 -20.1086
   -15.9405 -15.7375 -12.5879 -12.0156 -11.4303 -10.6720 -10.6290  -9.8582
    -9.1664  -8.3872  -8.0269  -7.4701  -6.5706  -4.2191  -3.9943  -3.0329
    -2.4671  -2.0108  -1.6230   1.6335   2.2225   3.7364   4.6181   5.4039
     5.5749   5.7859   6.3757

          k = 0.4900 0.2829 0.0000 ( 11146 PWs)   bands (ev):

   -77.8513 -49.4384 -49.1564 -49.0458 -22.1293 -22.1157 -20.6399 -20.1081
   -15.9358 -15.7328 -12.5890 -12.0130 -11.4292 -10.6710 -10.6281  -9.8577
    -9.1655  -8.3894  -8.0268  -7.4713  -6.5710  -4.2184  -3.9938  -3.0313
    -2.4636  -2.0113  -1.6222   1.6352   2.2243   3.7358   4.6148   5.4007
     5.5756   5.7868   6.3759

          k = 0.4850 0.2800 0.0000 ( 11144 PWs)   bands (ev):

   -77.8514 -49.4379 -49.1563 -49.0459 -22.1368 -22.1229 -20.6404 -20.1072
   -15.9278 -15.7248 -12.5908 -12.0086 -11.4274 -10.6695 -10.6266  -9.8567
    -9.1640  -8.3931  -8.0266  -7.4733  -6.5717  -4.2173  -3.9930  -3.0287
    -2.4576  -2.0122  -1.6210   1.6379   2.2274   3.7347   4.6095   5.3954
     5.5766   5.7884   6.3763

          k = 0.4800 0.2771 0.0000 ( 11144 PWs)   bands (ev):

   -77.8515 -49.4373 -49.1561 -49.0460 -22.1472 -22.1328 -20.6412 -20.1061
   -15.9167 -15.7137 -12.5933 -12.0025 -11.4248 -10.6673 -10.6245  -9.8554
    -9.1619  -8.3981  -8.0264  -7.4761  -6.5726  -4.2156  -3.9919  -3.0252
    -2.4493  -2.0134  -1.6192   1.6418   2.2317   3.7333   4.6020   5.3881
     5.5781   5.7907   6.3767

          k = 0.4750 0.2742 0.0000 ( 11140 PWs)   bands (ev):

   -77.8516 -49.4365 -49.1560 -49.0461 -22.1605 -22.1456 -20.6422 -20.1047
   -15.9024 -15.6995 -12.5965 -11.9948 -11.4216 -10.6646 -10.6218  -9.8536
    -9.1593  -8.4045  -8.0261  -7.4797  -6.5738  -4.2136  -3.9904  -3.0206
    -2.4387  -2.0150  -1.6168   1.6468   2.2372   3.7313   4.5924   5.3790
     5.5800   5.7935   6.3773

          k = 0.4700 0.2714 0.0000 ( 11142 PWs)   bands (ev):

   -77.8517 -49.4356 -49.1557 -49.0463 -22.1766 -22.1610 -20.6436 -20.1031
   -15.8850 -15.6821 -12.6003 -11.9855 -11.4176 -10.6612 -10.6186  -9.8514
    -9.1560  -8.4122  -8.0258  -7.4840  -6.5753  -4.2110  -3.9886  -3.0152
    -2.4257  -2.0170  -1.6139   1.6529   2.2439   3.7289   4.5806   5.3681
     5.5821   5.7970   6.3780

          k = 0.4650 0.2685 0.0000 ( 11142 PWs)   bands (ev):

   -77.8519 -49.4344 -49.1555 -49.0465 -22.1953 -22.1790 -20.6454 -20.1014
   -15.8646 -15.6617 -12.6048 -11.9746 -11.4130 -10.6572 -10.6147  -9.8488
    -9.1521  -8.4211  -8.0255  -7.4892  -6.5770  -4.2081  -3.9865  -3.0090
    -2.4105  -2.0193  -1.6103   1.6601   2.2518   3.7260   4.5667   5.3555
     5.5846   5.8011   6.3788

          k = 0.4600 0.2656 0.0000 ( 11142 PWs)   bands (ev):

   -77.8521 -49.4331 -49.1552 -49.0468 -22.2166 -22.1995 -20.6477 -20.0996
   -15.8411 -15.6382 -12.6098 -11.9622 -11.4077 -10.6526 -10.6103  -9.8457
    -9.1477  -8.4311  -8.0252  -7.4951  -6.5790  -4.2046  -3.9841  -3.0021
    -2.3929  -2.0220  -1.6060   1.6683   2.2609   3.7226   4.5506   5.3416
     5.5873   5.8058   6.3797

          k = 0.4550 0.2627 0.0000 ( 11146 PWs)   bands (ev):

   -77.8523 -49.4316 -49.1548 -49.0471 -22.2403 -22.2223 -20.6504 -20.0978
   -15.8147 -15.6117 -12.6153 -11.9485 -11.4018 -10.6474 -10.6052  -9.8421
    -9.1427  -8.4422  -8.0250  -7.5018  -6.5812  -4.2007  -3.9813  -2.9945
    -2.3731  -2.0250  -1.6009   1.6777   2.2711   3.7186   4.5324   5.3263
     5.5902   5.8110   6.3806

          k = 0.4500 0.2598 0.0000 ( 11142 PWs)   bands (ev):

   -77.8525 -49.4300 -49.1545 -49.0474 -22.2664 -22.2474 -20.6538 -20.0961
   -15.7852 -15.5822 -12.6214 -11.9334 -11.3954 -10.6416 -10.5996  -9.8380
    -9.1370  -8.4543  -8.0248  -7.5093  -6.5836  -4.1964  -3.9783  -2.9864
    -2.3511  -2.0284  -1.5950   1.6881   2.2825   3.7139   4.5121   5.3100
     5.5934   5.8167   6.3816

          k = 0.4450 0.2569 0.0000 ( 11134 PWs)   bands (ev):

   -77.8528 -49.4282 -49.1540 -49.0478 -22.2946 -22.2747 -20.6578 -20.0944
   -15.7530 -15.5497 -12.6279 -11.9171 -11.3883 -10.6351 -10.5934  -9.8333
    -9.1308  -8.4672  -8.0246  -7.5175  -6.5863  -4.1915  -3.9749  -2.9779
    -2.3270  -2.0321  -1.5883   1.6996   2.2949   3.7086   4.4896   5.2929
     5.5967   5.8230   6.3827

          k = 0.4400 0.2540 0.0000 ( 11138 PWs)   bands (ev):

   -77.8531 -49.4262 -49.1536 -49.0482 -22.3248 -22.3039 -20.6626 -20.0930
   -15.7179 -15.5144 -12.6349 -11.8997 -11.3807 -10.6281 -10.5866  -9.8280
    -9.1240  -8.4809  -8.0245  -7.5264  -6.5891  -4.1863  -3.9712  -2.9690
    -2.3007  -2.0362  -1.5805   1.7122   2.3084   3.7025   4.4651   5.2751
     5.6002   5.8297   6.3837

          k = 0.4350 0.2511 0.0000 ( 11124 PWs)   bands (ev):

   -77.8534 -49.4240 -49.1531 -49.0486 -22.3570 -22.3351 -20.6681 -20.0918
   -15.6800 -15.4762 -12.6424 -11.8812 -11.3725 -10.6205 -10.5793  -9.8221
    -9.1167  -8.4954  -8.0245  -7.5361  -6.5920  -4.1806  -3.9673  -2.9600
    -2.2723  -2.0407  -1.5717   1.7258   2.3229   3.6957   4.4386   5.2569
     5.6039   5.8369   6.3848

          k = 0.4300 0.2483 0.0000 ( 11132 PWs)   bands (ev):

   -77.8537 -49.4217 -49.1525 -49.0490 -22.3909 -22.3679 -20.6744 -20.0910
   -15.6395 -15.4352 -12.6502 -11.8617 -11.3639 -10.6123 -10.5714  -9.8155
    -9.1087  -8.5105  -8.0245  -7.5465  -6.5951  -4.1744  -3.9630  -2.9510
    -2.2419  -2.0455  -1.5617   1.7404   2.3384   3.6881   4.4100   5.2384
     5.6077   5.8446   6.3858

          k = 0.4250 0.2454 0.0000 ( 11143 PWs)   bands (ev):

   -77.8541 -49.4192 -49.1520 -49.0495 -22.4265 -22.4025 -20.6816 -20.0905
   -15.5964 -15.3915 -12.6584 -11.8413 -11.3547 -10.6035 -10.5629  -9.8082
    -9.1003  -8.5261  -8.0245  -7.5576  -6.5983  -4.1678  -3.9584  -2.9420
    -2.2095  -2.0507  -1.5505   1.7561   2.3548   3.6796   4.3794   5.2200
     5.6118   5.8525   6.3868

          k = 0.4200 0.2425 0.0000 ( 11147 PWs)   bands (ev):

   -77.8545 -49.4166 -49.1514 -49.0500 -22.4636 -22.4385 -20.6896 -20.0905
   -15.5508 -15.3451 -12.6670 -11.8201 -11.3451 -10.5942 -10.5538  -9.8001
    -9.0912  -8.5422  -8.0246  -7.5693  -6.6015  -4.1607  -3.9536  -2.9332
    -2.1752  -2.0563  -1.5380   1.7727   2.3721   3.6702   4.3470   5.2017
     5.6160   5.8609   6.3876

          k = 0.4150 0.2396 0.0000 ( 11145 PWs)   bands (ev):

   -77.8549 -49.4138 -49.1507 -49.0506 -22.5021 -22.4759 -20.6986 -20.0909
   -15.5028 -15.2962 -12.6760 -11.7983 -11.3351 -10.5842 -10.5442  -9.7912
    -9.0816  -8.5587  -8.0246  -7.5818  -6.6047  -4.1532  -3.9485  -2.9248
    -2.1391  -2.0622  -1.5240   1.7902   2.3902   3.6599   4.3128   5.1839
     5.6204   5.8695   6.3884

          k = 0.4100 0.2367 0.0000 ( 11141 PWs)   bands (ev):

   -77.8553 -49.4109 -49.1501 -49.0512 -22.5419 -22.5146 -20.7086 -20.0918
   -15.4525 -15.2447 -12.6853 -11.7759 -11.3245 -10.5737 -10.5341  -9.7814
    -9.0714  -8.5755  -8.0247  -7.5949  -6.6080  -4.1453  -3.9432  -2.9169
    -2.1012  -2.0685  -1.5085   1.8087   2.4091   3.6486   4.2768   5.1666
     5.6250   5.8783   6.3890

          k = 0.4050 0.2338 0.0000 ( 11141 PWs)   bands (ev):

   -77.8558 -49.4078 -49.1493 -49.0518 -22.5828 -22.5545 -20.7194 -20.0933
   -15.3999 -15.1907 -12.6949 -11.7531 -11.3135 -10.5626 -10.5234  -9.7707
    -9.0607  -8.5926  -8.0247  -7.6087  -6.6112  -4.1369  -3.9376  -2.9095
    -2.0752  -2.0615  -1.4914   1.8281   2.4287   3.6364   4.2393   5.1500
     5.6298   5.8873   6.3893

          k = 0.4000 0.2309 0.0000 ( 11139 PWs)   bands (ev):

   -77.8562 -49.4045 -49.1486 -49.0524 -22.6247 -22.5954 -20.7313 -20.0954
   -15.3453 -15.1344 -12.7048 -11.7299 -11.3020 -10.5510 -10.5122  -9.7591
    -9.0494  -8.6099  -8.0247  -7.6231  -6.6142  -4.1282  -3.9318  -2.9029
    -2.0823  -2.0202  -1.4727   1.8483   2.4488   3.6231   4.2002   5.1344
     5.6350   5.8965   6.3895

          k = 0.3950 0.2281 0.0000 ( 11133 PWs)   bands (ev):

   -77.8567 -49.4011 -49.1478 -49.0531 -22.6676 -22.6372 -20.7441 -20.0980
   -15.2886 -15.0757 -12.7149 -11.7067 -11.2899 -10.5388 -10.5004  -9.7465
    -9.0376  -8.6274  -8.0246  -7.6381  -6.6171  -4.1189  -3.9258  -2.8971
    -2.0897  -1.9773  -1.4521   1.8693   2.4695   3.6089   4.1598   5.1197
     5.6404   5.9057   6.3893

          k = 0.3900 0.2252 0.0000 ( 11137 PWs)   bands (ev):

   -77.8572 -49.3976 -49.1470 -49.0537 -22.7113 -22.6799 -20.7579 -20.1013
   -15.2300 -15.0147 -12.7253 -11.6834 -11.2772 -10.5260 -10.4881  -9.7329
    -9.0252  -8.6449  -8.0245  -7.6537  -6.6198  -4.1093  -3.9195  -2.8921
    -2.0975  -1.9329  -1.4298   1.8910   2.4906   3.5938   4.1182   5.1062
     5.6461   5.9149   6.3888

          k = 0.3850 0.2223 0.0000 ( 11135 PWs)   bands (ev):

   -77.8578 -49.3939 -49.1462 -49.0545 -22.7558 -22.7234 -20.7726 -20.1052
   -15.1697 -14.9516 -12.7359 -11.6603 -11.2638 -10.5127 -10.4753  -9.7182
    -9.0124  -8.6626  -8.0241  -7.6698  -6.6223  -4.0992  -3.9131  -2.8882
    -2.1057  -1.8870  -1.4056   1.9134   2.5119   3.5778   4.0754   5.0938
     5.6522   5.9240   6.3878

          k = 0.3800 0.2194 0.0000 ( 11139 PWs)   bands (ev):

   -77.8583 -49.3901 -49.1453 -49.0552 -22.8009 -22.7675 -20.7882 -20.1097
   -15.1077 -14.8864 -12.7467 -11.6377 -11.2495 -10.4989 -10.4620  -9.7025
    -8.9990  -8.6803  -8.0237  -7.6866  -6.6244  -4.0888  -3.9065  -2.8854
    -2.1143  -1.8398  -1.3795   1.9365   2.5333   3.5611   4.0317   5.0828
     5.6587   5.9330   6.3864

          k = 0.3750 0.2165 0.0000 ( 11141 PWs)   bands (ev):

   -77.8589 -49.3862 -49.1444 -49.0560 -22.8465 -22.8122 -20.8048 -20.1148
   -15.0442 -14.8192 -12.7576 -11.6156 -11.2343 -10.4846 -10.4481  -9.6857
    -8.9851  -8.6979  -8.0230  -7.7038  -6.6261  -4.0779  -3.8998  -2.8836
    -2.1232  -1.7912  -1.3514   1.9600   2.5548   3.5437   3.9872   5.0730
     5.6655   5.9417   6.3845

          k = 0.3700 0.2136 0.0000 ( 11135 PWs)   bands (ev):

   -77.8595 -49.3822 -49.1435 -49.0567 -22.8927 -22.8574 -20.8222 -20.1205
   -14.9794 -14.7500 -12.7685 -11.5944 -11.2181 -10.4697 -10.4338  -9.6677
    -8.9707  -8.7155  -8.0222  -7.7216  -6.6274  -4.0666  -3.8928  -2.8830
    -2.1325  -1.7414  -1.3215   1.9840   2.5760   3.5258   3.9420   5.0645
     5.6728   5.9502   6.3819

          k = 0.3650 0.2107 0.0000 ( 11147 PWs)   bands (ev):

   -77.8601 -49.3780 -49.1425 -49.0576 -22.9392 -22.9030 -20.8405 -20.1269
   -14.9133 -14.6790 -12.7795 -11.5743 -11.2005 -10.4544 -10.4190  -9.6487
    -8.9558  -8.7331  -8.0211  -7.7398  -6.6281  -4.0549  -3.8858  -2.8836
    -2.1423  -1.6904  -1.2896   2.0083   2.5968   3.5076   3.8963   5.0574
     5.6805   5.9582   6.3787

          k = 0.3600 0.2078 0.0000 ( 11153 PWs)   bands (ev):

   -77.8607 -49.3737 -49.1415 -49.0584 -22.9861 -22.9490 -20.8596 -20.1338
   -14.8463 -14.6061 -12.7902 -11.5554 -11.1816 -10.4385 -10.4037  -9.6285
    -8.9404  -8.7506  -8.0198  -7.7585  -6.6283  -4.0429  -3.8786  -2.8854
    -2.1524  -1.6383  -1.2558   2.0328   2.6169   3.4893   3.8503   5.0515
     5.6886   5.9657   6.3747

          k = 0.3550 0.2050 0.0000 ( 11157 PWs)   bands (ev):

   -77.8613 -49.3693 -49.1405 -49.0593 -23.0333 -22.9952 -20.8795 -20.1414
   -14.7783 -14.5316 -12.8008 -11.5381 -11.1612 -10.4221 -10.3879  -9.6072
    -8.9245  -8.7680  -8.0182  -7.7777  -6.6279  -4.0305  -3.8713  -2.8884
    -2.1628  -1.5851  -1.2201   2.0575   2.6360   3.4711   3.8041   5.0469
     5.6971   5.9726   6.3699

          k = 0.3500 0.2021 0.0000 ( 11169 PWs)   bands (ev):

   -77.8620 -49.3647 -49.1395 -49.0601 -23.0806 -23.0417 -20.9001 -20.1495
   -14.7098 -14.4554 -12.8110 -11.5223 -11.1392 -10.4053 -10.3717  -9.5848
    -8.9082  -8.7853  -8.0164  -7.7973  -6.6268  -4.0177  -3.8639  -2.8925
    -2.1737  -1.5310  -1.1826   2.0820   2.6539   3.4535   3.7580   5.0434
     5.7060   5.9787   6.3642

          k = 0.3450 0.1992 0.0000 ( 11169 PWs)   bands (ev):

   -77.8626 -49.3601 -49.1384 -49.0610 -23.1281 -23.0883 -20.9215 -20.1581
   -14.6409 -14.3776 -12.8207 -11.5083 -11.1155 -10.3880 -10.3551  -9.5613
    -8.8914  -8.8024  -8.0142  -7.8173  -6.6250  -4.0045  -3.8564  -2.8978
    -2.1849  -1.4759  -1.1433   2.1064   2.6702   3.4366   3.7121   5.0410
     5.7153   5.9841   6.3575

          k = 0.3400 0.1963 0.0000 ( 11171 PWs)   bands (ev):

   -77.8633 -49.3554 -49.1373 -49.0620 -23.1757 -23.1350 -20.9435 -20.1673
   -14.5718 -14.2983 -12.8296 -11.4961 -11.0900 -10.3702 -10.3380  -9.5368
    -8.8742  -8.8194  -8.0116  -7.8376  -6.6224  -3.9910  -3.8489  -2.9042
    -2.1966  -1.4200  -1.1023   2.1305   2.6845   3.4208   3.6666   5.0396
     5.7249   5.9885   6.3496

          k = 0.3350 0.1934 0.0000 ( 11183 PWs)   bands (ev):

   -77.8640 -49.3505 -49.1362 -49.0629 -23.2233 -23.1818 -20.9662 -20.1770
   -14.5029 -14.2176 -12.8376 -11.4857 -11.0629 -10.3520 -10.3204  -9.5113
    -8.8565  -8.8362  -8.0087  -7.8583  -6.6189  -3.9772  -3.8413  -2.9117
    -2.2086  -1.3633  -1.0597   2.1539   2.6964   3.4065   3.6219   5.0389
     5.7348   5.9918   6.3406

          k = 0.3300 0.1905 0.0000 ( 11183 PWs)   bands (ev):

   -77.8647 -49.3456 -49.1351 -49.0638 -23.2709 -23.2285 -20.9894 -20.1872
   -14.4344 -14.1356 -12.8444 -11.4771 -11.0342 -10.3334 -10.3025  -9.4849
    -8.8529  -8.8384  -8.0054  -7.8794  -6.6146  -3.9630  -3.8336  -2.9203
    -2.2210  -1.3058  -1.0155   2.1766   2.7056   3.3938   3.5781   5.0389
     5.7449   5.9940   6.3302

          k = 0.3250 0.1876 0.0000 ( 11171 PWs)   bands (ev):

   -77.8654 -49.3406 -49.1339 -49.0648 -23.3184 -23.2752 -21.0133 -20.1978
   -14.3669 -14.0523 -12.8496 -11.4702 -11.0040 -10.3143 -10.2841  -9.4576
    -8.8694  -8.8199  -8.0017  -7.9007  -6.6093  -3.9485  -3.8259  -2.9297
    -2.2337  -1.2476  -0.9698   2.1982   2.7117   3.3830   3.5359   5.0392
     5.7551   5.9948   6.3185

          k = 0.3200 0.1848 0.0000 ( 11173 PWs)   bands (ev):

   -77.8662 -49.3355 -49.1328 -49.0658 -23.3658 -23.3218 -21.0376 -20.2089
   -14.3007 -13.9677 -12.8528 -11.4649 -10.9723 -10.2948 -10.2654  -9.4296
    -8.8856  -8.8009  -7.9976  -7.9223  -6.6031  -3.9337  -3.8181  -2.9401
    -2.2469  -1.1888  -0.9227   2.2185   2.7145   3.3737   3.4959   5.0398
     5.7652   5.9942   6.3053

          k = 0.3150 0.1819 0.0000 ( 11169 PWs)   bands (ev):

   -77.8669 -49.3303 -49.1316 -49.0668 -23.4130 -23.3682 -21.0624 -20.2204
   -14.2363 -13.8821 -12.8537 -11.4611 -10.9394 -10.2749 -10.2463  -9.4008
    -8.9016  -8.7816  -7.9931  -7.9442  -6.5959  -3.9186  -3.8103  -2.9514
    -2.2604  -1.1295  -0.8743   2.2373   2.7137   3.3649   3.4596   5.0404
     5.7751   5.9920   6.2904

          k = 0.3100 0.1790 0.0000 ( 11171 PWs)   bands (ev):

   -77.8677 -49.3250 -49.1304 -49.0678 -23.4600 -23.4144 -21.0876 -20.2322
   -14.1744 -13.7954 -12.8516 -11.4587 -10.9052 -10.2546 -10.2268  -9.3716
    -8.9172  -8.7619  -7.9881  -7.9663  -6.5877  -3.9032  -3.8024  -2.9634
    -2.2743  -1.0696  -0.8248   2.2541   2.7094   3.3538   3.4300   5.0406
     5.7845   5.9880   6.2739

          k = 0.3050 0.1761 0.0000 ( 11171 PWs)   bands (ev):

   -77.8684 -49.3197 -49.1292 -49.0688 -23.5068 -23.4605 -21.1133 -20.2444
   -14.1155 -13.7077 -12.8459 -11.4576 -10.8700 -10.2340 -10.2070  -9.3420
    -8.9323  -8.7418  -7.9886  -7.9826  -6.5784  -3.8876  -3.7946  -2.9761
    -2.2885  -1.0093  -0.7741   2.2688   2.7016   3.3360   3.4119   5.0402
     5.7932   5.9823   6.2555

          k = 0.3000 0.1732 0.0000 ( 11161 PWs)   bands (ev):

   -77.8692 -49.3143 -49.1279 -49.0699 -23.5533 -23.5062 -21.1392 -20.2569
   -14.0603 -13.6191 -12.8361 -11.4577 -10.8339 -10.2130 -10.1868  -9.3124
    -8.9468  -8.7214  -8.0110  -7.9767  -6.5681  -3.8716  -3.7867  -2.9895
    -2.3032  -0.9486  -0.7225   2.2809   2.6905   3.3111   3.4055   5.0388
     5.8007   5.9745   6.2353

          k = 0.2950 0.1703 0.0000 ( 11165 PWs)   bands (ev):

   -77.8700 -49.3089 -49.1267 -49.0709 -23.5995 -23.5516 -21.1655 -20.2698
   -14.0095 -13.5297 -12.8215 -11.4588 -10.7969 -10.1917 -10.1663  -9.2830
    -8.9605  -8.7007  -8.0336  -7.9703  -6.5566  -3.8555  -3.7787  -3.0035
    -2.3181  -0.8876  -0.6700   2.2902   2.6764   3.2832   3.4067   5.0360
     5.8067   5.9647   6.2132

          k = 0.2900 0.1674 0.0000 ( 11169 PWs)   bands (ev):

   -77.8707 -49.3034 -49.1254 -49.0720 -23.6453 -23.5967 -21.1920 -20.2829
   -13.9638 -13.4395 -12.8015 -11.4608 -10.7591 -10.1700 -10.1455  -9.2543
    -8.9728  -8.6796  -8.0563  -7.9634  -6.5442  -3.8391  -3.7708  -3.0179
    -2.3335  -0.8264  -0.6167   2.2963   2.6597   3.2557   3.4121   5.0314
     5.8105   5.9527   6.1890

          k = 0.2850 0.1645 0.0000 ( 11173 PWs)   bands (ev):

   -77.8715 -49.2978 -49.1242 -49.0731 -23.6908 -23.6415 -21.2188 -20.2962
   -13.9237 -13.3486 -12.7755 -11.4637 -10.7206 -10.1481 -10.1244  -9.2272
    -8.9830  -8.6583  -8.0791  -7.9559  -6.5307  -3.8225  -3.7628  -3.0328
    -2.3492  -0.7650  -0.5628   2.2992   2.6406   3.2301   3.4199   5.0247
     5.8115   5.9384   6.1627

          k = 0.2800 0.1617 0.0000 ( 11169 PWs)   bands (ev):

   -77.8723 -49.2922 -49.1229 -49.0741 -23.7358 -23.6858 -21.2458 -20.3098
   -13.8896 -13.2572 -12.7432 -11.4674 -10.6815 -10.1258 -10.1030  -9.2029
    -8.9902  -8.6367  -8.1020  -7.9480  -6.5161  -3.8056  -3.7548  -3.0481
    -2.3652  -0.7035  -0.5084   2.2986   2.6194   3.2070   3.4291   5.0153
     5.8090   5.9217   6.1342

          k = 0.2750 0.1588 0.0000 ( 11171 PWs)   bands (ev):

   -77.8731 -49.2866 -49.1216 -49.0752 -23.7804 -23.7297 -21.2729 -20.3235
   -13.8617 -13.1651 -12.7044 -11.4718 -10.6419 -10.1033 -10.0814  -9.1830
    -8.9925  -8.6148  -8.1248  -7.9395  -6.5004  -3.7886  -3.7467  -3.0636
    -2.3815  -0.6421  -0.4536   2.2946   2.5965   3.1869   3.4391   5.0030
     5.8023   5.9025   6.1036

          k = 0.2700 0.1559 0.0000 ( 11171 PWs)   bands (ev):

   -77.8739 -49.2809 -49.1203 -49.0763 -23.8246 -23.7732 -21.3001 -20.3374
   -13.8400 -13.0727 -12.6592 -11.4767 -10.6018 -10.0805 -10.0595  -9.1695
    -8.9883  -8.5927  -8.1477  -7.9305  -6.4838  -3.7714  -3.7387  -3.0794
    -2.3982  -0.5807  -0.3986   2.2872   2.5720   3.1698   3.4493   4.9873
     5.7906   5.8808   6.0708

          k = 0.2650 0.1530 0.0000 ( 11173 PWs)   bands (ev):

   -77.8747 -49.2753 -49.1190 -49.0774 -23.8682 -23.8162 -21.3274 -20.3515
   -13.8242 -12.9799 -12.6079 -11.4821 -10.5613 -10.0575 -10.0374  -9.1635
    -8.9764  -8.5705  -8.1704  -7.9210  -6.4662  -3.7541  -3.7305  -3.0953
    -2.4152  -0.5195  -0.3434   2.2767   2.5461   3.1558   3.4593   4.9679
     5.7734   5.8566   6.0358

          k = 0.2600 0.1501 0.0000 ( 11185 PWs)   bands (ev):

   -77.8755 -49.2695 -49.1177 -49.0785 -23.9114 -23.8587 -21.3548 -20.3657
   -13.8139 -12.8869 -12.5508 -11.4879 -10.5205 -10.0343 -10.0151  -9.1645
    -8.9574  -8.5481  -8.1931  -7.9109  -6.4477  -3.7366  -3.7223  -3.1113
    -2.4325  -0.4587  -0.2883   2.2636   2.5191   3.1445   3.4686   4.9446
     5.7505   5.8298   5.9986

          k = 0.2550 0.1472 0.0000 ( 11189 PWs)   bands (ev):

   -77.8764 -49.2638 -49.1164 -49.0796 -23.9540 -23.9006 -21.3821 -20.3799
   -13.8086 -12.7937 -12.4886 -11.4940 -10.4793 -10.0109  -9.9926  -9.1707
    -8.9332  -8.5257  -8.2155  -7.9003  -6.4282  -3.7190  -3.7140  -3.1273
    -2.4501  -0.3984  -0.2333   2.2481   2.4912   3.1358   3.4770   4.9171
     5.7221   5.8004   5.9593

          k = 0.2500 0.1443 0.0000 ( 11181 PWs)   bands (ev):

   -77.8772 -49.2581 -49.1151 -49.0807 -23.9961 -23.9420 -21.4095 -20.3943
   -13.8077 -12.7005 -12.4219 -11.5002 -10.4378  -9.9873  -9.9700  -9.1805
    -8.9055  -8.5033  -8.2376  -7.8892  -6.4079  -3.7057  -3.7013  -3.1432
    -2.4680  -0.3387  -0.1787   2.2308   2.4626   3.1292   3.4842   4.8855
     5.6885   5.7685   5.9179

          k = 0.2450 0.1415 0.0000 ( 11183 PWs)   bands (ev):

   -77.8780 -49.2524 -49.1138 -49.0818 -24.0376 -23.9829 -21.4368 -20.4087
   -13.8106 -12.6074 -12.3512 -11.5065 -10.3962  -9.9636  -9.9471  -9.1925
    -8.8757  -8.4811  -8.2593  -7.8776  -6.3868  -3.6972  -3.6835  -3.1590
    -2.4861  -0.2797  -0.1247   2.2122   2.4336   3.1242   3.4899   4.8497
     5.6505   5.7342   5.8744

          k = 0.2400 0.1386 0.0000 ( 11187 PWs)   bands (ev):

   -77.8788 -49.2466 -49.1125 -49.0829 -24.0785 -24.0231 -21.4640 -20.4231
   -13.8169 -12.5147 -12.2771 -11.5126 -10.3543  -9.9397  -9.9241  -9.2061
    -8.8445  -8.4595  -8.2801  -7.8655  -6.3649  -3.6886  -3.6657  -3.1746
    -2.5045  -0.2218  -0.0714   2.1927   2.4045   3.1205   3.4939   4.8098
     5.6090   5.6974   5.8290

          k = 0.2350 0.1357 0.0000 ( 11197 PWs)   bands (ev):

   -77.8796 -49.2409 -49.1112 -49.0840 -24.1187 -24.0628 -21.4910 -20.4375
   -13.8259 -12.4225 -12.2002 -11.5184 -10.3124  -9.9158  -9.9011  -9.2206
    -8.8127  -8.4391  -8.2994  -7.8529  -6.3424  -3.6800  -3.6478  -3.1899
    -2.5232  -0.1650  -0.0190   2.1730   2.3755   3.1176   3.4960   4.7661
     5.5647   5.6583   5.7818

          k = 0.2300 0.1328 0.0000 ( 11201 PWs)   bands (ev):

   -77.8804 -49.2352 -49.1099 -49.0850 -24.1584 -24.1018 -21.5179 -20.4519
   -13.8374 -12.3312 -12.1209 -11.5236 -10.2703  -9.8918  -9.8779  -9.2357
    -8.7804  -8.4215  -8.3157  -7.8399  -6.3192  -3.6711  -3.6298  -3.2049
    -2.5421  -0.1097   0.0322   2.1533   2.3470   3.1151   3.4961   4.7187
     5.5186   5.6171   5.7329

          k = 0.2250 0.1299 0.0000 ( 11201 PWs)   bands (ev):

   -77.8812 -49.2295 -49.1087 -49.0861 -24.1974 -24.1402 -21.5447 -20.4663
   -13.8508 -12.2412 -12.0395 -11.5277 -10.2282  -9.8677  -9.8546  -9.2512
    -8.7481  -8.4103  -8.3252  -7.8265  -6.2955  -3.6621  -3.6119  -3.2195
    -2.5612  -0.0561   0.0820   2.1343   2.3192   3.1128   3.4941   4.6681
     5.4712   5.5738   5.6824

          k = 0.2200 0.1270 0.0000 ( 11191 PWs)   bands (ev):

   -77.8820 -49.2238 -49.1074 -49.0872 -24.2357 -24.1779 -21.5712 -20.4806
   -13.8658 -12.1532 -11.9566 -11.5302 -10.1861  -9.8437  -9.8312  -9.2670
    -8.7159  -8.4105  -8.3231  -7.8127  -6.2713  -3.6529  -3.5939  -3.2336
    -2.5805  -0.0045   0.1302   2.1164   2.2925   3.1103   3.4899   4.6144
     5.4231   5.5285   5.6305

          k = 0.2150 0.1241 0.0000 ( 11181 PWs)   bands (ev):

   -77.8828 -49.2182 -49.1061 -49.0883 -24.2733 -24.2150 -21.5975 -20.4948
   -13.8822 -12.0682 -11.8723 -11.5300 -10.1440  -9.8197  -9.8077  -9.2829
    -8.6839  -8.4212  -8.3102  -7.7986  -6.2467  -3.6436  -3.5760  -3.2473
    -2.6000   0.0447   0.1765   2.1000   2.2671   3.1074   3.4834   4.5581
     5.3749   5.4815   5.5773

          k = 0.2100 0.1212 0.0000 ( 11189 PWs)   bands (ev):

   -77.8836 -49.2126 -49.1048 -49.0893 -24.3103 -24.2514 -21.6236 -20.5090
   -13.8998 -11.9878 -11.7870 -11.5256 -10.1020  -9.7957  -9.7843  -9.2989
    -8.6523  -8.4374  -8.2915  -7.7842  -6.2217  -3.6340  -3.5581  -3.2603
    -2.6197   0.0912   0.2207   2.0855   2.2435   3.1039   3.4747   4.4995
     5.3268   5.4329   5.5229

          k = 0.2050 0.1184 0.0000 ( 11189 PWs)   bands (ev):

   -77.8844 -49.2070 -49.1036 -49.0904 -24.3465 -24.2871 -21.6493 -20.5230
   -13.9182 -11.9145 -11.7009 -11.5145 -10.0601  -9.7719  -9.7607  -9.3149
    -8.6211  -8.4558  -8.2703  -7.7695  -6.1965  -3.6241  -3.5403  -3.2727
    -2.6395   0.1345   0.2626   2.0733   2.2218   3.0997   3.4637   4.4390
     5.2791   5.3829   5.4675

          k = 0.2000 0.1155 0.0000 ( 11189 PWs)   bands (ev):

   -77.8852 -49.2015 -49.1023 -49.0914 -24.3820 -24.3220 -21.6748 -20.5369
   -13.9374 -11.8520 -11.6143 -11.4932 -10.0183  -9.7482  -9.7372  -9.3307
    -8.5904  -8.4752  -8.2479  -7.7548  -6.1712  -3.6141  -3.5226  -3.2844
    -2.6594   0.1743   0.3018   2.0639   2.2026   3.0947   3.4505   4.3768
     5.2321   5.3316   5.4114

          k = 0.1950 0.1126 0.0000 ( 11191 PWs)   bands (ev):

   -77.8859 -49.1960 -49.1011 -49.0925 -24.4168 -24.3563 -21.6999 -20.5506
   -13.9571 -11.8039 -11.5273 -11.4579  -9.9768  -9.7247  -9.7136  -9.3464
    -8.5603  -8.4949  -8.2249  -7.7399  -6.1457  -3.6037  -3.5050  -3.2953
    -2.6794   0.2102   0.3382   2.0574   2.1860   3.0888   3.4353   4.3134
     5.1860   5.2793   5.3545

          k = 0.1900 0.1097 0.0000 ( 11191 PWs)   bands (ev):

   -77.8867 -49.1906 -49.0999 -49.0935 -24.4508 -24.3898 -21.7246 -20.5642
   -13.9773 -11.7715 -11.4403 -11.4073  -9.9356  -9.7014  -9.6901  -9.3618
    -8.5307  -8.5147  -8.2016  -7.7250  -6.1202  -3.5931  -3.4875  -3.3055
    -2.6995   0.2416   0.3715   2.0542   2.1723   3.0821   3.4182   4.2491
     5.1408   5.2261   5.2972

          k = 0.1850 0.1068 0.0000 ( 11197 PWs)   bands (ev):

   -77.8874 -49.1853 -49.0987 -49.0945 -24.4840 -24.4225 -21.7490 -20.5776
   -13.9977 -11.7525 -11.3548 -11.3424  -9.8946  -9.6784  -9.6665  -9.3769
    -8.5343  -8.5018  -8.1781  -7.7101  -6.0948  -3.5821  -3.4701  -3.3148
    -2.7197   0.2683   0.4014   2.0545   2.1620   3.0745   3.3992   4.1841
     5.0966   5.1722   5.2395

          k = 0.1800 0.1039 0.0000 ( 11209 PWs)   bands (ev):

   -77.8882 -49.1800 -49.0975 -49.0955 -24.5165 -24.4545 -21.7730 -20.5908
   -14.0184 -11.7432 -11.2761 -11.2620  -9.8541  -9.6556  -9.6431  -9.3917
    -8.5538  -8.4735  -8.1546  -7.6954  -6.0696  -3.5709  -3.4530  -3.3232
    -2.7398   0.2901   0.4277   2.0585   2.1551   3.0662   3.3787   4.1187
     5.0535   5.1178   5.1817

          k = 0.1750 0.1010 0.0000 ( 11209 PWs)   bands (ev):

   -77.8889 -49.1748 -49.0965 -49.0963 -24.5482 -24.4857 -21.7965 -20.6038
   -14.0392 -11.7401 -11.1983 -11.1755  -9.8140  -9.6331  -9.6198  -9.4059
    -8.5729  -8.4459  -8.1311  -7.6810  -6.0445  -3.5593  -3.4360  -3.3306
    -2.7600   0.3067   0.4503   2.0660   2.1520   3.0572   3.3568   4.0534
     5.0114   5.0631   5.1238

          k = 0.1700 0.0981 0.0000 ( 11217 PWs)   bands (ev):

   -77.8896 -49.1697 -49.0975 -49.0951 -24.5791 -24.5161 -21.8196 -20.6166
   -14.0600 -11.7408 -11.1184 -11.0886  -9.7744  -9.6108  -9.5966  -9.4196
    -8.5918  -8.4189  -8.1076  -7.6668  -6.0198  -3.5474  -3.4192  -3.3371
    -2.7802   0.3182   0.4689   2.0769   2.1527   3.0476   3.3339   3.9883
     4.9704   5.0081   5.0660

          k = 0.1650 0.0953 0.0000 ( 11217 PWs)   bands (ev):

   -77.8903 -49.1647 -49.0984 -49.0940 -24.6093 -24.5458 -21.8422 -20.6292
   -14.0807 -11.7441 -11.0374 -11.0017  -9.7356  -9.5890  -9.5736  -9.4325
    -8.6103  -8.3926  -8.0843  -7.6530  -5.9954  -3.5351  -3.4026  -3.3426
    -2.8003   0.3245   0.4833   2.0911   2.1574   3.0377   3.3101   3.9237
     4.9303   4.9532   5.0085

          k = 0.1600 0.0924 0.0000 ( 11225 PWs)   bands (ev):

   -77.8910 -49.1597 -49.0993 -49.0929 -24.6385 -24.5746 -21.8644 -20.6415
   -14.1014 -11.7489 -10.9562 -10.9153  -9.6976  -9.5674  -9.5509  -9.4445
    -8.6284  -8.3670  -8.0612  -7.6398  -5.9714  -3.5225  -3.3863  -3.3470
    -2.8203   0.3259   0.4935   2.1080   2.1661   3.0276   3.2860   3.8600
     4.8912   4.8984   4.9514

          k = 0.1550 0.0895 0.0000 ( 11231 PWs)   bands (ev):

   -77.8917 -49.1549 -49.1003 -49.0918 -24.6670 -24.6027 -21.8861 -20.6535
   -14.1218 -11.7549 -10.8754 -10.8293  -9.6608  -9.5462  -9.5284  -9.4551
    -8.6461  -8.3420  -8.0383  -7.6271  -5.9480  -3.5095  -3.3703  -3.3504
    -2.8402   0.3226   0.4994   2.1272   2.1785   3.0173   3.2618   3.7974
     4.8439   4.8529   4.8949

          k = 0.1500 0.0866 0.0000 ( 11235 PWs)   bands (ev):

   -77.8923 -49.1501 -49.1012 -49.0907 -24.6947 -24.6299 -21.9072 -20.6653
   -14.1420 -11.7615 -10.7955 -10.7439  -9.6259  -9.5254  -9.5062  -9.4637
    -8.6633  -8.3177  -8.0156  -7.6150  -5.9251  -3.4963  -3.3546  -3.3526
    -2.8600   0.3149   0.5012   2.1482   2.1944   3.0073   3.2379   3.7364
     4.7899   4.8155   4.8389

          k = 0.1450 0.0837 0.0000 ( 11223 PWs)   bands (ev):

   -77.8930 -49.1455 -49.1020 -49.0897 -24.7215 -24.6563 -21.9278 -20.6767
   -14.1619 -11.7686 -10.7170 -10.6592  -9.5941  -9.5050  -9.4843  -9.4690
    -8.6801  -8.2941  -7.9933  -7.6037  -5.9029  -3.4828  -3.3537  -3.3391
    -2.8796   0.3032   0.4990   2.1702   2.2133   2.9975   3.2148   3.6773
     4.7364   4.7787   4.7838

          k = 0.1400 0.0808 0.0000 ( 11205 PWs)   bands (ev):

   -77.8936 -49.1409 -49.1029 -49.0887 -24.7474 -24.6818 -21.9478 -20.6879
   -14.1815 -11.7760 -10.6401 -10.5754  -9.5681  -9.4851  -9.4682  -9.4628
    -8.6964  -8.2711  -7.9712  -7.5932  -5.8814  -3.4690  -3.3536  -3.3240
    -2.8989   0.2878   0.4930   2.1929   2.2344   2.9880   3.1931   3.6207
     4.6837   4.7296   4.7427

          k = 0.1350 0.0779 0.0000 ( 11213 PWs)   bands (ev):

   -77.8942 -49.1365 -49.1037 -49.0877 -24.7726 -24.7066 -21.9673 -20.6988
   -14.2007 -11.7836 -10.5651 -10.4926  -9.5516  -9.4657  -9.4575  -9.4417
    -8.7122  -8.2487  -7.9495  -7.5836  -5.8605  -3.4550  -3.3524  -3.3092
    -2.9181   0.2691   0.4835   2.2159   2.2569   2.9788   3.1734   3.5670
     4.6318   4.6764   4.7072

          k = 0.1300 0.0751 0.0000 ( 11209 PWs)   bands (ev):

   -77.8948 -49.1322 -49.1045 -49.0867 -24.7968 -24.7304 -21.9862 -20.7094
   -14.2195 -11.7912 -10.4925 -10.4108  -9.5450  -9.4467  -9.4364  -9.4210
    -8.7274  -8.2270  -7.9282  -7.5749  -5.8405  -3.4410  -3.3499  -3.2948
    -2.9369   0.2476   0.4708   2.2385   2.2797   2.9697   3.1565   3.5171
     4.5809   4.6242   4.6722

          k = 0.1250 0.0722 0.0000 ( 11209 PWs)   bands (ev):

   -77.8954 -49.1280 -49.1053 -49.0858 -24.8202 -24.7535 -22.0045 -20.7196
   -14.2378 -11.7988 -10.4224 -10.3303  -9.5440  -9.4283  -9.4090  -9.4008
    -8.7421  -8.2059  -7.9073  -7.5671  -5.8213  -3.4270  -3.3461  -3.2808
    -2.9555   0.2236   0.4553   2.2604   2.3017   2.9601   3.1431   3.4719
     4.5310   4.5733   4.6377

          k = 0.1200 0.0693 0.0000 ( 11213 PWs)   bands (ev):

   -77.8960 -49.1240 -49.1061 -49.0848 -24.8427 -24.7756 -22.0222 -20.7295
   -14.2556 -11.8064 -10.3553 -10.2512  -9.5449  -9.4104  -9.3811  -9.3789
    -8.7562  -8.1854  -7.8869  -7.5605  -5.8030  -3.4132  -3.3409  -3.2673
    -2.9736   0.1975   0.4372   2.2809   2.3221   2.9493   3.1341   3.4323
     4.4823   4.5237   4.6035

          k = 0.1150 0.0664 0.0000 ( 11217 PWs)   bands (ev):

   -77.8965 -49.1200 -49.1068 -49.0840 -24.8644 -24.7969 -22.0392 -20.7391
   -14.2729 -11.8138 -10.2915 -10.1736  -9.5456  -9.3931  -9.3619  -9.3479
    -8.7697  -8.1655  -7.8670  -7.5548  -5.7856  -3.3997  -3.3342  -3.2541
    -2.9914   0.1696   0.4170   2.2995   2.3402   2.9363   3.1304   3.3997
     4.4349   4.4755   4.5698

          k = 0.1100 0.0635 0.0000 ( 11209 PWs)   bands (ev):

   -77.8970 -49.1163 -49.1075 -49.0831 -24.8851 -24.8174 -22.0557 -20.7483
   -14.2897 -11.8211 -10.2315 -10.0976  -9.5449  -9.3765  -9.3433  -9.3168
    -8.7827  -8.1462  -7.8476  -7.5503  -5.7690  -3.3867  -3.3259  -3.2414
    -3.0088   0.1403   0.3950   2.3156   2.3553   2.9202   3.1323   3.3753
     4.3888   4.4288   4.5363

          k = 0.1050 0.0606 0.0000 ( 11213 PWs)   bands (ev):

   -77.8976 -49.1126 -49.1082 -49.0823 -24.9050 -24.8369 -22.0715 -20.7572
   -14.3058 -11.8283 -10.1758 -10.0234  -9.5422  -9.3605  -9.3252  -9.2860
    -8.7950  -8.1276  -7.8287  -7.5469  -5.7534  -3.3744  -3.3161  -3.2292
    -3.0256   0.1099   0.3716   2.3288   2.3672   2.9005   3.1398   3.3600
     4.3443   4.3836   4.5031

          k = 0.1000 0.0577 0.0000 ( 11207 PWs)   bands (ev):

   -77.8980 -49.1092 -49.1087 -49.0815 -24.9240 -24.8556 -22.0866 -20.7657
   -14.3214 -11.8352 -10.1249  -9.9510  -9.5369  -9.3451  -9.3078  -9.2559
    -8.8067  -8.1096  -7.8105  -7.5445  -5.7388  -3.3628  -3.3048  -3.2175
    -3.0420   0.0788   0.3470   2.3388   2.3757   2.8771   3.1524   3.3545
     4.3012   4.3401   4.4702

          k = 0.0950 0.0548 0.0000 ( 11205 PWs)   bands (ev):

   -77.8985 -49.1095 -49.1057 -49.0808 -24.9421 -24.8734 -22.1010 -20.7738
   -14.3363 -11.8419 -10.0793  -9.8806  -9.5284  -9.3305  -9.2910  -9.2265
    -8.8177  -8.0922  -7.7929  -7.5433  -5.7251  -3.3518  -3.2921  -3.2063
    -3.0578   0.0471   0.3217   2.3455   2.3809   2.8505   3.1697   3.3587
     4.2598   4.2982   4.4376

          k = 0.0900 0.0520 0.0000 ( 11199 PWs)   bands (ev):

   -77.8989 -49.1101 -49.1025 -49.0800 -24.9593 -24.8903 -22.1148 -20.7816
   -14.3506 -11.8483 -10.0393  -9.8124  -9.5165  -9.3166  -9.2748  -9.1979
    -8.8281  -8.0754  -7.7759  -7.5431  -5.7123  -3.3413  -3.2785  -3.1957
    -3.0729   0.0152   0.2957   2.3490   2.3831   2.8214   3.1909   3.3718
     4.2201   4.2582   4.4051

          k = 0.0850 0.0491 0.0000 ( 11203 PWs)   bands (ev):

   -77.8994 -49.1107 -49.0995 -49.0794 -24.9755 -24.9064 -22.1279 -20.7890
   -14.3643 -11.8545 -10.0052  -9.7466  -9.5010  -9.3035  -9.2594  -9.1702
    -8.8378  -8.0593  -7.7597  -7.5440  -5.7004  -3.3313  -3.2641  -3.1858
    -3.0872  -0.0166   0.2696   2.3498   2.3824   2.7907   3.2156   3.3926
     4.1822   4.2199   4.3729

          k = 0.0800 0.0462 0.0000 ( 11213 PWs)   bands (ev):

   -77.8998 -49.1112 -49.0966 -49.0787 -24.9909 -24.9215 -22.1403 -20.7959
   -14.3772 -11.8604  -9.9769  -9.6831  -9.4820  -9.2911  -9.2447  -9.1436
    -8.8468  -8.0438  -7.7442  -7.5458  -5.6895  -3.3215  -3.2493  -3.1767
    -3.1007  -0.0482   0.2435   2.3481   2.3794   2.7591   3.2434   3.4197
     4.1461   4.1835   4.3408

          k = 0.0750 0.0433 0.0000 ( 11209 PWs)   bands (ev):

   -77.9001 -49.1117 -49.0938 -49.0781 -25.0054 -24.9357 -22.1519 -20.8025
   -14.3894 -11.8660  -9.9541  -9.6223  -9.4599  -9.2796  -9.2308  -9.1179
    -8.8552  -8.0289  -7.7294  -7.5486  -5.6795  -3.3119  -3.2343  -3.1686
    -3.1129  -0.0792   0.2176   2.3443   2.3745   2.7275   3.2739   3.4515
     4.1119   4.1491   4.3089

          k = 0.0700 0.0404 0.0000 ( 11213 PWs)   bands (ev):

   -77.9005 -49.1122 -49.0913 -49.0775 -25.0189 -24.9490 -22.1629 -20.8087
   -14.4009 -11.8713  -9.9361  -9.5643  -9.4354  -9.2688  -9.2176  -9.0934
    -8.8629  -8.0148  -7.7154  -7.5522  -5.6703  -3.3025  -3.2193  -3.1625
    -3.1231  -0.1095   0.1922   2.3390   2.3681   2.6964   3.3066   3.4868
     4.0796   4.1167   4.2772

          k = 0.0650 0.0375 0.0000 ( 11213 PWs)   bands (ev):

   -77.9008 -49.1126 -49.0889 -49.0770 -25.0315 -24.9614 -22.1731 -20.8145
   -14.4117 -11.8762  -9.9223  -9.5094  -9.4093  -9.2589  -9.2052  -9.0701
    -8.8699  -8.0013  -7.7023  -7.5565  -5.6620  -3.2933  -3.2045  -3.1602
    -3.1294  -0.1388   0.1676   2.3324   2.3607   2.6664   3.3411   3.5245
     4.0494   4.0863   4.2456

          k = 0.0600 0.0346 0.0000 ( 11217 PWs)   bands (ev):

   -77.9011 -49.1131 -49.0866 -49.0765 -25.0432 -24.9729 -22.1826 -20.8198
   -14.4218 -11.8809  -9.9119  -9.4577  -9.3823  -9.2498  -9.1937  -9.0480
    -8.8763  -7.9885  -7.6900  -7.5615  -5.6545  -3.2844  -3.1901  -3.1635
    -3.1297  -0.1670   0.1439   2.3250   2.3525   2.6378   3.3770   3.5635
     4.0212   4.0580   4.2142

          k = 0.0550 0.0318 0.0000 ( 11233 PWs)   bands (ev):

   -77.9014 -49.1134 -49.0846 -49.0760 -25.0540 -24.9835 -22.1914 -20.8248
   -14.4310 -11.8852  -9.9043  -9.4096  -9.3549  -9.2415  -9.1830  -9.0273
    -8.8820  -7.9765  -7.6786  -7.5671  -5.6478  -3.2759  -3.1763  -3.1706
    -3.1262  -0.1937   0.1213   2.3170   2.3440   2.6110   3.4140   3.6031
     3.9951   4.0318   4.1828

          k = 0.0500 0.0289 0.0000 ( 11237 PWs)   bands (ev):

   -77.9017 -49.1138 -49.0827 -49.0756 -25.0638 -24.9932 -22.1994 -20.8293
   -14.4395 -11.8891  -9.8988  -9.3660  -9.3273  -9.2340  -9.1731  -9.0079
    -8.8871  -7.9652  -7.6680  -7.5730  -5.6418  -3.2677  -3.1787  -3.1631
    -3.1213  -0.2189   0.1000   2.3088   2.3353   2.5862   3.4515   3.6425
     3.9711   4.0078   4.1515

          k = 0.0450 0.0260 0.0000 ( 11237 PWs)   bands (ev):

   -77.9019 -49.1141 -49.0809 -49.0752 -25.0727 -25.0020 -22.2067 -20.8334
   -14.4473 -11.8927  -9.8949  -9.3281  -9.2988  -9.2273  -9.1642  -8.9900
    -8.8916  -7.9548  -7.6584  -7.5792  -5.6366  -3.2600  -3.1867  -3.1507
    -3.1163  -0.2423   0.0802   2.3006   2.3268   2.5635   3.4894   3.6809
     3.9493   3.9860   4.1202

          k = 0.0400 0.0231 0.0000 ( 11243 PWs)   bands (ev):

   -77.9021 -49.1144 -49.0794 -49.0749 -25.0807 -25.0098 -22.2132 -20.8371
   -14.4542 -11.8959  -9.8922  -9.2975  -9.2686  -9.2214  -9.1561  -8.9736
    -8.8954  -7.9451  -7.6498  -7.5855  -5.6320  -3.2529  -3.1942  -3.1392
    -3.1116  -0.2637   0.0621   2.2926   2.3187   2.5432   3.5274   3.7177
     3.9297   3.9663   4.0890

          k = 0.0350 0.0202 0.0000 ( 11243 PWs)   bands (ev):

   -77.9023 -49.1147 -49.0780 -49.0745 -25.0877 -25.0168 -22.2190 -20.8403
   -14.4603 -11.8988  -9.8904  -9.2733  -9.2380  -9.2163  -9.1489  -8.9589
    -8.8988  -7.9364  -7.6421  -7.5916  -5.6280  -3.2463  -3.2010  -3.1288
    -3.1072  -0.2831   0.0457   2.2852   2.3110   2.5252   3.5651   3.7523
     3.9123   3.9490   4.0578

          k = 0.0300 0.0173 0.0000 ( 11237 PWs)   bands (ev):

   -77.9025 -49.1149 -49.0768 -49.0743 -25.0938 -25.0228 -22.2240 -20.8432
   -14.4656 -11.9013  -9.8892  -9.2535  -9.2120  -9.2095  -9.1427  -8.9459
    -8.9016  -7.9286  -7.6354  -7.5975  -5.6247  -3.2405  -3.2070  -3.1195
    -3.1034  -0.3002   0.0313   2.2783   2.3041   2.5096   3.6025   3.7841
     3.8972   3.9339   4.0266

          k = 0.0250 0.0144 0.0000 ( 11237 PWs)   bands (ev):

   -77.9026 -49.1151 -49.0758 -49.0741 -25.0990 -25.0279 -22.2282 -20.8456
   -14.4702 -11.9034  -9.8885  -9.2371  -9.2083  -9.1844  -9.1374  -8.9347
    -8.9039  -7.9218  -7.6297  -7.6029  -5.6219  -3.2355  -3.2121  -3.1115
    -3.1001  -0.3148   0.0188   2.2722   2.2980   2.4965   3.6393   3.8122
     3.8844   3.9211   3.9955

          k = 0.0200 0.0115 0.0000 ( 11233 PWs)   bands (ev):

   -77.9027 -49.1152 -49.0750 -49.0739 -25.1032 -25.0320 -22.2317 -20.8475
   -14.4739 -11.9051  -9.8881  -9.2238  -9.2054  -9.1634  -9.1330  -8.9255
    -8.9057  -7.9161  -7.6250  -7.6077  -5.6197  -3.2312  -3.2164  -3.1048
    -3.0974  -0.3270   0.0085   2.2671   2.2928   2.4858   3.6752   3.8361
     3.8739   3.9105   3.9646

          k = 0.0150 0.0087 0.0000 ( 11241 PWs)   bands (ev):

   -77.9028 -49.1153 -49.0744 -49.0737 -25.1065 -25.0353 -22.2344 -20.8491
   -14.4768 -11.9065  -9.8878  -9.2135  -9.2031  -9.1468  -9.1297  -8.9182
    -8.9071  -7.9116  -7.6214  -7.6116  -5.6180  -3.2279  -3.2197  -3.0995
    -3.0952  -0.3366   0.0004   2.2630   2.2886   2.4775   3.7099   3.8549
     3.8657   3.9024   3.9346

          k = 0.0100 0.0058 0.0000 ( 11237 PWs)   bands (ev):

   -77.9029 -49.1154 -49.0739 -49.0736 -25.1089 -25.0376 -22.2363 -20.8502
   -14.4788 -11.9075  -9.8877  -9.2061  -9.2015  -9.1348  -9.1272  -8.9130
    -8.9081  -7.9083  -7.6188  -7.6146  -5.6168  -3.2255  -3.2221  -3.0957
    -3.0937  -0.3435  -0.0054   2.2599   2.2856   2.4716   3.7425   3.8599
     3.8663   3.8965   3.9078

          k = 0.0050 0.0029 0.0000 ( 11251 PWs)   bands (ev):

   -77.9029 -49.1155 -49.0736 -49.0736 -25.1103 -25.0390 -22.2375 -20.8508
   -14.4801 -11.9080  -9.8877  -9.2016  -9.2006  -9.1276  -9.1258  -8.9098
    -8.9087  -7.9063  -7.6173  -7.6163  -5.6161  -3.2243  -3.2233  -3.0934
    -3.0928  -0.3477  -0.0089   2.2581   2.2838   2.4681   3.7704   3.8564
     3.8634   3.8930   3.8933

          k = 0.0000 0.0000 0.0000 ( 11265 PWs)   bands (ev):

   -77.9030 -49.1155 -49.0735 -49.0735 -25.1108 -25.0394 -22.2379 -20.8510
   -14.4805 -11.9082  -9.8877  -9.2003  -9.2001  -9.1254  -9.1251  -8.9089
    -8.9087  -7.9057  -7.6172  -7.6165  -5.6159  -3.2243  -3.2233  -3.0926
    -3.0924  -0.3491  -0.0101   2.2575   2.2832   2.4669   3.7837   3.8550
     3.8553   3.8918   3.8919

     Writing all to output data dir ./tmp/crsi2n4.save/ :
     XML data file, pseudopotentials, collected wavefunctions
 
     init_run     :      1.28s CPU      1.36s WALL (       1 calls)
     electrons    :    517.11s CPU    519.90s WALL (       1 calls)

     Called by init_run:
     wfcinit      :      0.00s CPU      0.00s WALL (       1 calls)
     wfcinit:atom :      0.21s CPU      0.22s WALL (     261 calls)
     wfcinit:wfcr :      9.41s CPU      9.49s WALL (     261 calls)
     potinit      :      0.59s CPU      0.63s WALL (       1 calls)
     hinit0       :      0.29s CPU      0.30s WALL (       1 calls)

     Called by electrons:
     c_bands      :    517.11s CPU    519.89s WALL (       1 calls)
     v_of_rho     :      0.03s CPU      0.06s WALL (       1 calls)
     v_h          :      0.01s CPU      0.01s WALL (       1 calls)
     v_xc         :      0.02s CPU      0.05s WALL (       1 calls)

     Called by c_bands:
     init_us_2    :      0.15s CPU      0.19s WALL (     261 calls)
     cegterg      :    506.51s CPU    508.67s WALL (    1089 calls)

     Called by sum_band:

     Called by *egterg:
     cdiaghg      :     84.49s CPU     84.92s WALL (   19643 calls)
                                       84.79s GPU  (   19643 calls)
     cegterg:over :    104.92s CPU    105.12s WALL (   19382 calls)
     cegterg:upda :     32.52s CPU     32.62s WALL (   19382 calls)
     cegterg:last :     38.84s CPU     38.91s WALL (    8883 calls)
     h_psi        :    236.66s CPU    238.52s WALL (   20732 calls)
                                      238.38s GPU  (   20732 calls)
     g_psi        :      0.17s CPU      2.55s WALL (   19382 calls)
                                        2.46s GPU  (   19382 calls)

     Called by h_psi:
     h_psi:calbec :      1.63s CPU     35.11s WALL (   20732 calls)
                                       34.96s GPU  (   20732 calls)
     vloc_psi     :    170.11s CPU    171.77s WALL (   20732 calls)
                                      171.65s GPU  (   20732 calls)
     add_vuspsi   :      6.02s CPU     29.74s WALL (   20732 calls)
                                       29.60s GPU  (   20732 calls)

     General routines
     calbec       :      1.53s CPU      1.60s WALL (   20732 calls)
     fft          :      0.32s CPU      0.33s WALL (      11 calls)
                                        0.01s GPU  (      10 calls)
     ffts         :      0.24s CPU      0.24s WALL (       1 calls)
     fftw         :      2.06s CPU    146.09s WALL (   66806 calls)
                                      145.73s GPU  (   66806 calls)
     interpolate  :      0.56s CPU      0.56s WALL (       1 calls)
     davcio       :      0.07s CPU      0.78s WALL (     522 calls)
 
     Parallel routines
 
     PWSCF        :   8m39.16s CPU   8m43.87s WALL

 
   This run was terminated on:   2:31:58  13Mar2026            

=------------------------------------------------------------------------------=
   JOB DONE.
=------------------------------------------------------------------------------=
