
     Program PWSCF v.7.4.1 starts on 28Apr2026 at 12:43: 9 

     This program is part of the open-source Quantum ESPRESSO suite
     for quantum simulation of materials; please cite
         "P. Giannozzi et al., J. Phys.:Condens. Matter 21 395502 (2009);
         "P. Giannozzi et al., J. Phys.:Condens. Matter 29 465901 (2017);
         "P. Giannozzi et al., J. Chem. Phys. 152 154105 (2020);
          URL http://www.quantum-espresso.org", 
     in publications or presentations arising from this work. More details at
     http://www.quantum-espresso.org/quote

     Parallel version (MPI), running on     1 processors

     MPI processes distributed on     1 nodes
     15173 MiB available memory on the printing compute node when the environment starts
 
     Reading input from crsi2n4_uni_-0.020.in
Warning: card &CELL ignored
Warning: card / ignored
Warning: card &FCP ignored
Warning: card / ignored
Warning: card &RISM ignored
Warning: card / ignored

     Current dimensions of program PWSCF are:
     Max number of different atomic species (ntypx) = 10
     Max number of k-points (npk) =  40000
     Max angular momentum in pseudopotentials (lmaxx) =  4
     Message from routine setup:
     no reason to have ecutrho>4*ecutwfc
 
     Subspace diagonalization in iterative solution of the eigenvalue problem:
     a serial algorithm will be used

 
     G-vector sticks info
     --------------------
     sticks:   dense  smooth     PW     G-vecs:    dense   smooth      PW
     Sum         777     621    199               161073   115205   20369
 
     Using Slab Decomposition
 


     bravais-lattice index     =            0
     lattice parameter (alat)  =       5.2669  a.u.
     unit-cell volume          =    1193.6064 (a.u.)^3
     number of atoms/cell      =            7
     number of atomic types    =            3
     number of electrons       =        42.00
     number of Kohn-Sham states=           21
     kinetic-energy cutoff     =      80.0000  Ry
     charge density cutoff     =     400.0000  Ry
     scf convergence threshold =      1.0E-10
     mixing beta               =       0.4000
     number of iterations used =            8  plain     mixing
     Exchange-correlation= PBE
                           (   1   4   3   4   0   0   0)

     GPU acceleration is ACTIVE.  1 visible GPUs per MPI rank
     GPU-aware MPI enabled


     GPU used by master process:

        Device Number: 0
        Device name: NVIDIA RTX A2000 12GB
        Compute capability : 86
        Ratio of single to double precision performance  : 64
        Memory Clock Rate (KHz): 6001000
        Memory Bus Width (bits): 192
        Peak Memory Bandwidth (GB/s): 288.05

     celldm(1)=   5.266893  celldm(2)=   0.000000  celldm(3)=   0.000000
     celldm(4)=   0.000000  celldm(5)=   0.000000  celldm(6)=   0.000000

     crystal axes: (cart. coord. in units of alat)
               a(1) = (   1.000000   0.000000   0.000000 )  
               a(2) = (  -0.500000   0.883699   0.000000 )  
               a(3) = (   0.000000   0.000000   9.244704 )  

     reciprocal axes: (cart. coord. in units 2 pi/alat)
               b(1) = (  1.000000  0.565803 -0.000000 )  
               b(2) = (  0.000000  1.131607  0.000000 )  
               b(3) = (  0.000000 -0.000000  0.108170 )  


     PseudoPot. # 1 for Cr read from file:
     /home/rao/Desktop/pseudo/ONCVPSP/sg15/Cr_ONCV_PBE_sr.upf
     MD5 check sum: 8c25700f94aee329d8014e8d8708abb4
     Pseudo is Norm-conserving, Zval = 14.0
     Generated using ONCVPSP code by D. R. Hamann
     Using radial grid of 1490 points,  6 beta functions with: 
                l(1) =   0
                l(2) =   0
                l(3) =   1
                l(4) =   1
                l(5) =   2
                l(6) =   2

     PseudoPot. # 2 for N  read from file:
     /home/rao/Desktop/pseudo/ONCVPSP/sg15/N_ONCV_PBE_sr.upf
     MD5 check sum: 584dff68b02d160f04ff099e3496afa1
     Pseudo is Norm-conserving, Zval =  5.0
     Generated using ONCVPSP code by D. R. Hamann
     Using radial grid of 1058 points,  4 beta functions with: 
                l(1) =   0
                l(2) =   0
                l(3) =   1
                l(4) =   1

     PseudoPot. # 3 for Si read from file:
     /home/rao/Desktop/pseudo/ONCVPSP/sg15/Si_ONCV_PBE_sr.upf
     MD5 check sum: 8553c464762ac42b85b1eed164b4d029
     Pseudo is Norm-conserving, Zval =  4.0
     Generated using ONCVPSP code by D. R. Hamann
     Using radial grid of 1510 points,  4 beta functions with: 
                l(1) =   0
                l(2) =   0
                l(3) =   1
                l(4) =   1

     atomic species   valence    mass     pseudopotential
     Cr               14.00    51.99610     Cr( 1.00)
     N                 5.00    14.00700     N ( 1.00)
     Si                4.00    28.08500     Si( 1.00)

     No symmetry found


                                    s                        frac. trans.

      isym =  1     identity                                     

 cryst.   s( 1) = (     1          0          0      )
                  (     0          1          0      )
                  (     0          0          1      )

 cart.    s( 1) = (  1.0000000  0.0000000  0.0000000 )
                  (  0.0000000  1.0000000  0.0000000 )
                  (  0.0000000  0.0000000  1.0000000 )


   Cartesian axes

     site n.     atom                  positions (alat units)
         1        Cr     tau(   1) = (   0.7857157   0.1260038   3.9558906  )
         2        N      tau(   2) = (   0.2856929   0.4202914   3.5429843  )
         3        N      tau(   3) = (   0.2856603   0.4223519   4.3738085  )
         4        N      tau(   4) = (   0.7855550   0.1216561   5.2051982  )
         5        N      tau(   5) = (  -0.2141493   0.7195428   2.7196582  )
         6        Si     tau(   6) = (   0.2858732   0.4208117   2.9162838  )
         7        Si     tau(   7) = (   0.2856192   0.4203819   5.0051647  )

   Crystallographic axes

     site n.     atom                  positions (cryst. coord.)
         1        Cr     tau(   1) = (  0.8570091  0.1425867  0.4279088  )
         2        N      tau(   2) = (  0.5234952  0.4756046  0.3832447  )
         3        N      tau(   3) = (  0.5246284  0.4779362  0.4731150  )
         4        N      tau(   4) = (  0.8543885  0.1376669  0.5630465  )
         5        N      tau(   5) = (  0.1929704  0.8142394  0.2941855  )
         6        Si     tau(   6) = (  0.5239698  0.4761933  0.3154545  )
         7        Si     tau(   7) = (  0.5234727  0.4757069  0.5414089  )

     number of k points=   121
                       cart. coord. in units 2pi/alat
        k(    1) = (   0.0000000   0.0000000   0.0000000), wk =   0.0165289
        k(    2) = (   0.0000000   0.1028733   0.0000000), wk =   0.0165289
        k(    3) = (   0.0000000   0.2057467   0.0000000), wk =   0.0165289
        k(    4) = (   0.0000000   0.3086200   0.0000000), wk =   0.0165289
        k(    5) = (   0.0000000   0.4114933   0.0000000), wk =   0.0165289
        k(    6) = (   0.0000000   0.5143667   0.0000000), wk =   0.0165289
        k(    7) = (   0.0000000  -0.5143667   0.0000000), wk =   0.0165289
        k(    8) = (   0.0000000  -0.4114933   0.0000000), wk =   0.0165289
        k(    9) = (   0.0000000  -0.3086200   0.0000000), wk =   0.0165289
        k(   10) = (   0.0000000  -0.2057467   0.0000000), wk =   0.0165289
        k(   11) = (   0.0000000  -0.1028733   0.0000000), wk =   0.0165289
        k(   12) = (   0.0909091   0.0514367   0.0000000), wk =   0.0165289
        k(   13) = (   0.0909091   0.1543100   0.0000000), wk =   0.0165289
        k(   14) = (   0.0909091   0.2571833   0.0000000), wk =   0.0165289
        k(   15) = (   0.0909091   0.3600567   0.0000000), wk =   0.0165289
        k(   16) = (   0.0909091   0.4629300   0.0000000), wk =   0.0165289
        k(   17) = (   0.0909091   0.5658033   0.0000000), wk =   0.0165289
        k(   18) = (   0.0909091  -0.4629300   0.0000000), wk =   0.0165289
        k(   19) = (   0.0909091  -0.3600567   0.0000000), wk =   0.0165289
        k(   20) = (   0.0909091  -0.2571833   0.0000000), wk =   0.0165289
        k(   21) = (   0.0909091  -0.1543100   0.0000000), wk =   0.0165289
        k(   22) = (   0.0909091  -0.0514367   0.0000000), wk =   0.0165289
        k(   23) = (   0.1818182   0.1028733   0.0000000), wk =   0.0165289
        k(   24) = (   0.1818182   0.2057467   0.0000000), wk =   0.0165289
        k(   25) = (   0.1818182   0.3086200   0.0000000), wk =   0.0165289
        k(   26) = (   0.1818182   0.4114933   0.0000000), wk =   0.0165289
        k(   27) = (   0.1818182   0.5143667   0.0000000), wk =   0.0165289
        k(   28) = (   0.1818182   0.6172400   0.0000000), wk =   0.0165289
        k(   29) = (   0.1818182  -0.4114933   0.0000000), wk =   0.0165289
        k(   30) = (   0.1818182  -0.3086200   0.0000000), wk =   0.0165289
        k(   31) = (   0.1818182  -0.2057467   0.0000000), wk =   0.0165289
        k(   32) = (   0.1818182  -0.1028733   0.0000000), wk =   0.0165289
        k(   33) = (   0.1818182  -0.0000000   0.0000000), wk =   0.0165289
        k(   34) = (   0.2727273   0.1543100   0.0000000), wk =   0.0165289
        k(   35) = (   0.2727273   0.2571833   0.0000000), wk =   0.0165289
        k(   36) = (   0.2727273   0.3600567   0.0000000), wk =   0.0165289
        k(   37) = (   0.2727273   0.4629300   0.0000000), wk =   0.0165289
        k(   38) = (   0.2727273   0.5658033   0.0000000), wk =   0.0165289
        k(   39) = (   0.2727273   0.6686767   0.0000000), wk =   0.0165289
        k(   40) = (   0.2727273  -0.3600567   0.0000000), wk =   0.0165289
        k(   41) = (   0.2727273  -0.2571833   0.0000000), wk =   0.0165289
        k(   42) = (   0.2727273  -0.1543100   0.0000000), wk =   0.0165289
        k(   43) = (   0.2727273  -0.0514367   0.0000000), wk =   0.0165289
        k(   44) = (   0.2727273   0.0514367   0.0000000), wk =   0.0165289
        k(   45) = (   0.3636364   0.2057467   0.0000000), wk =   0.0165289
        k(   46) = (   0.3636364   0.3086200   0.0000000), wk =   0.0165289
        k(   47) = (   0.3636364   0.4114933   0.0000000), wk =   0.0165289
        k(   48) = (   0.3636364   0.5143667   0.0000000), wk =   0.0165289
        k(   49) = (   0.3636364   0.6172400   0.0000000), wk =   0.0165289
        k(   50) = (   0.3636364   0.7201133   0.0000000), wk =   0.0165289
        k(   51) = (   0.3636364  -0.3086200   0.0000000), wk =   0.0165289
        k(   52) = (   0.3636364  -0.2057467   0.0000000), wk =   0.0165289
        k(   53) = (   0.3636364  -0.1028733   0.0000000), wk =   0.0165289
        k(   54) = (   0.3636364   0.0000000   0.0000000), wk =   0.0165289
        k(   55) = (   0.3636364   0.1028733   0.0000000), wk =   0.0165289
        k(   56) = (   0.4545455   0.2571833   0.0000000), wk =   0.0165289
        k(   57) = (   0.4545455   0.3600567   0.0000000), wk =   0.0165289
        k(   58) = (   0.4545455   0.4629300   0.0000000), wk =   0.0165289
        k(   59) = (   0.4545455   0.5658033   0.0000000), wk =   0.0165289
        k(   60) = (   0.4545455   0.6686767   0.0000000), wk =   0.0165289
        k(   61) = (   0.4545455   0.7715500   0.0000000), wk =   0.0165289
        k(   62) = (   0.4545455  -0.2571833   0.0000000), wk =   0.0165289
        k(   63) = (   0.4545455  -0.1543100   0.0000000), wk =   0.0165289
        k(   64) = (   0.4545455  -0.0514367   0.0000000), wk =   0.0165289
        k(   65) = (   0.4545455   0.0514367   0.0000000), wk =   0.0165289
        k(   66) = (   0.4545455   0.1543100   0.0000000), wk =   0.0165289
        k(   67) = (  -0.4545455  -0.2571833   0.0000000), wk =   0.0165289
        k(   68) = (  -0.4545455  -0.1543100   0.0000000), wk =   0.0165289
        k(   69) = (  -0.4545455  -0.0514367   0.0000000), wk =   0.0165289
        k(   70) = (  -0.4545455   0.0514367   0.0000000), wk =   0.0165289
        k(   71) = (  -0.4545455   0.1543100   0.0000000), wk =   0.0165289
        k(   72) = (  -0.4545455   0.2571833   0.0000000), wk =   0.0165289
        k(   73) = (  -0.4545455  -0.7715500   0.0000000), wk =   0.0165289
        k(   74) = (  -0.4545455  -0.6686767   0.0000000), wk =   0.0165289
        k(   75) = (  -0.4545455  -0.5658033   0.0000000), wk =   0.0165289
        k(   76) = (  -0.4545455  -0.4629300   0.0000000), wk =   0.0165289
        k(   77) = (  -0.4545455  -0.3600567   0.0000000), wk =   0.0165289
        k(   78) = (  -0.3636364  -0.2057467   0.0000000), wk =   0.0165289
        k(   79) = (  -0.3636364  -0.1028733   0.0000000), wk =   0.0165289
        k(   80) = (  -0.3636364   0.0000000   0.0000000), wk =   0.0165289
        k(   81) = (  -0.3636364   0.1028733   0.0000000), wk =   0.0165289
        k(   82) = (  -0.3636364   0.2057467   0.0000000), wk =   0.0165289
        k(   83) = (  -0.3636364   0.3086200   0.0000000), wk =   0.0165289
        k(   84) = (  -0.3636364  -0.7201133   0.0000000), wk =   0.0165289
        k(   85) = (  -0.3636364  -0.6172400   0.0000000), wk =   0.0165289
        k(   86) = (  -0.3636364  -0.5143667   0.0000000), wk =   0.0165289
        k(   87) = (  -0.3636364  -0.4114933   0.0000000), wk =   0.0165289
        k(   88) = (  -0.3636364  -0.3086200   0.0000000), wk =   0.0165289
        k(   89) = (  -0.2727273  -0.1543100   0.0000000), wk =   0.0165289
        k(   90) = (  -0.2727273  -0.0514367   0.0000000), wk =   0.0165289
        k(   91) = (  -0.2727273   0.0514367   0.0000000), wk =   0.0165289
        k(   92) = (  -0.2727273   0.1543100   0.0000000), wk =   0.0165289
        k(   93) = (  -0.2727273   0.2571833   0.0000000), wk =   0.0165289
        k(   94) = (  -0.2727273   0.3600567   0.0000000), wk =   0.0165289
        k(   95) = (  -0.2727273  -0.6686767   0.0000000), wk =   0.0165289
        k(   96) = (  -0.2727273  -0.5658033   0.0000000), wk =   0.0165289
        k(   97) = (  -0.2727273  -0.4629300   0.0000000), wk =   0.0165289
        k(   98) = (  -0.2727273  -0.3600567   0.0000000), wk =   0.0165289
        k(   99) = (  -0.2727273  -0.2571833   0.0000000), wk =   0.0165289
        k(  100) = (  -0.1818182  -0.1028733   0.0000000), wk =   0.0165289
        k(  101) = (  -0.1818182   0.0000000   0.0000000), wk =   0.0165289
        k(  102) = (  -0.1818182   0.1028733   0.0000000), wk =   0.0165289
        k(  103) = (  -0.1818182   0.2057467   0.0000000), wk =   0.0165289
        k(  104) = (  -0.1818182   0.3086200   0.0000000), wk =   0.0165289
        k(  105) = (  -0.1818182   0.4114933   0.0000000), wk =   0.0165289
        k(  106) = (  -0.1818182  -0.6172400   0.0000000), wk =   0.0165289
        k(  107) = (  -0.1818182  -0.5143667   0.0000000), wk =   0.0165289
        k(  108) = (  -0.1818182  -0.4114933   0.0000000), wk =   0.0165289
        k(  109) = (  -0.1818182  -0.3086200   0.0000000), wk =   0.0165289
        k(  110) = (  -0.1818182  -0.2057467   0.0000000), wk =   0.0165289
        k(  111) = (  -0.0909091  -0.0514367   0.0000000), wk =   0.0165289
        k(  112) = (  -0.0909091   0.0514367   0.0000000), wk =   0.0165289
        k(  113) = (  -0.0909091   0.1543100   0.0000000), wk =   0.0165289
        k(  114) = (  -0.0909091   0.2571833   0.0000000), wk =   0.0165289
        k(  115) = (  -0.0909091   0.3600567   0.0000000), wk =   0.0165289
        k(  116) = (  -0.0909091   0.4629300   0.0000000), wk =   0.0165289
        k(  117) = (  -0.0909091  -0.5658033   0.0000000), wk =   0.0165289
        k(  118) = (  -0.0909091  -0.4629300   0.0000000), wk =   0.0165289
        k(  119) = (  -0.0909091  -0.3600567   0.0000000), wk =   0.0165289
        k(  120) = (  -0.0909091  -0.2571833   0.0000000), wk =   0.0165289
        k(  121) = (  -0.0909091  -0.1543100   0.0000000), wk =   0.0165289

                       cryst. coord.
        k(    1) = (   0.0000000   0.0000000   0.0000000), wk =   0.0165289
        k(    2) = (   0.0000000   0.0909091   0.0000000), wk =   0.0165289
        k(    3) = (   0.0000000   0.1818182   0.0000000), wk =   0.0165289
        k(    4) = (   0.0000000   0.2727273   0.0000000), wk =   0.0165289
        k(    5) = (   0.0000000   0.3636364   0.0000000), wk =   0.0165289
        k(    6) = (   0.0000000   0.4545455   0.0000000), wk =   0.0165289
        k(    7) = (   0.0000000  -0.4545455   0.0000000), wk =   0.0165289
        k(    8) = (   0.0000000  -0.3636364   0.0000000), wk =   0.0165289
        k(    9) = (   0.0000000  -0.2727273   0.0000000), wk =   0.0165289
        k(   10) = (   0.0000000  -0.1818182   0.0000000), wk =   0.0165289
        k(   11) = (   0.0000000  -0.0909091   0.0000000), wk =   0.0165289
        k(   12) = (   0.0909091   0.0000000   0.0000000), wk =   0.0165289
        k(   13) = (   0.0909091   0.0909091   0.0000000), wk =   0.0165289
        k(   14) = (   0.0909091   0.1818182   0.0000000), wk =   0.0165289
        k(   15) = (   0.0909091   0.2727273   0.0000000), wk =   0.0165289
        k(   16) = (   0.0909091   0.3636364   0.0000000), wk =   0.0165289
        k(   17) = (   0.0909091   0.4545455   0.0000000), wk =   0.0165289
        k(   18) = (   0.0909091  -0.4545455   0.0000000), wk =   0.0165289
        k(   19) = (   0.0909091  -0.3636364   0.0000000), wk =   0.0165289
        k(   20) = (   0.0909091  -0.2727273   0.0000000), wk =   0.0165289
        k(   21) = (   0.0909091  -0.1818182   0.0000000), wk =   0.0165289
        k(   22) = (   0.0909091  -0.0909091   0.0000000), wk =   0.0165289
        k(   23) = (   0.1818182   0.0000000   0.0000000), wk =   0.0165289
        k(   24) = (   0.1818182   0.0909091   0.0000000), wk =   0.0165289
        k(   25) = (   0.1818182   0.1818182   0.0000000), wk =   0.0165289
        k(   26) = (   0.1818182   0.2727273   0.0000000), wk =   0.0165289
        k(   27) = (   0.1818182   0.3636364   0.0000000), wk =   0.0165289
        k(   28) = (   0.1818182   0.4545455   0.0000000), wk =   0.0165289
        k(   29) = (   0.1818182  -0.4545455   0.0000000), wk =   0.0165289
        k(   30) = (   0.1818182  -0.3636364   0.0000000), wk =   0.0165289
        k(   31) = (   0.1818182  -0.2727273   0.0000000), wk =   0.0165289
        k(   32) = (   0.1818182  -0.1818182   0.0000000), wk =   0.0165289
        k(   33) = (   0.1818182  -0.0909091   0.0000000), wk =   0.0165289
        k(   34) = (   0.2727273   0.0000000   0.0000000), wk =   0.0165289
        k(   35) = (   0.2727273   0.0909091   0.0000000), wk =   0.0165289
        k(   36) = (   0.2727273   0.1818182   0.0000000), wk =   0.0165289
        k(   37) = (   0.2727273   0.2727273   0.0000000), wk =   0.0165289
        k(   38) = (   0.2727273   0.3636364   0.0000000), wk =   0.0165289
        k(   39) = (   0.2727273   0.4545455   0.0000000), wk =   0.0165289
        k(   40) = (   0.2727273  -0.4545455   0.0000000), wk =   0.0165289
        k(   41) = (   0.2727273  -0.3636364   0.0000000), wk =   0.0165289
        k(   42) = (   0.2727273  -0.2727273   0.0000000), wk =   0.0165289
        k(   43) = (   0.2727273  -0.1818182   0.0000000), wk =   0.0165289
        k(   44) = (   0.2727273  -0.0909091   0.0000000), wk =   0.0165289
        k(   45) = (   0.3636364   0.0000000   0.0000000), wk =   0.0165289
        k(   46) = (   0.3636364   0.0909091   0.0000000), wk =   0.0165289
        k(   47) = (   0.3636364   0.1818182   0.0000000), wk =   0.0165289
        k(   48) = (   0.3636364   0.2727273   0.0000000), wk =   0.0165289
        k(   49) = (   0.3636364   0.3636364   0.0000000), wk =   0.0165289
        k(   50) = (   0.3636364   0.4545455   0.0000000), wk =   0.0165289
        k(   51) = (   0.3636364  -0.4545455   0.0000000), wk =   0.0165289
        k(   52) = (   0.3636364  -0.3636364   0.0000000), wk =   0.0165289
        k(   53) = (   0.3636364  -0.2727273   0.0000000), wk =   0.0165289
        k(   54) = (   0.3636364  -0.1818182   0.0000000), wk =   0.0165289
        k(   55) = (   0.3636364  -0.0909091   0.0000000), wk =   0.0165289
        k(   56) = (   0.4545455  -0.0000000   0.0000000), wk =   0.0165289
        k(   57) = (   0.4545455   0.0909091   0.0000000), wk =   0.0165289
        k(   58) = (   0.4545455   0.1818182   0.0000000), wk =   0.0165289
        k(   59) = (   0.4545455   0.2727273   0.0000000), wk =   0.0165289
        k(   60) = (   0.4545455   0.3636364   0.0000000), wk =   0.0165289
        k(   61) = (   0.4545455   0.4545455   0.0000000), wk =   0.0165289
        k(   62) = (   0.4545455  -0.4545455   0.0000000), wk =   0.0165289
        k(   63) = (   0.4545455  -0.3636364   0.0000000), wk =   0.0165289
        k(   64) = (   0.4545455  -0.2727273   0.0000000), wk =   0.0165289
        k(   65) = (   0.4545455  -0.1818182   0.0000000), wk =   0.0165289
        k(   66) = (   0.4545455  -0.0909091   0.0000000), wk =   0.0165289
        k(   67) = (  -0.4545455  -0.0000000   0.0000000), wk =   0.0165289
        k(   68) = (  -0.4545455   0.0909091   0.0000000), wk =   0.0165289
        k(   69) = (  -0.4545455   0.1818182   0.0000000), wk =   0.0165289
        k(   70) = (  -0.4545455   0.2727273   0.0000000), wk =   0.0165289
        k(   71) = (  -0.4545455   0.3636364   0.0000000), wk =   0.0165289
        k(   72) = (  -0.4545455   0.4545455   0.0000000), wk =   0.0165289
        k(   73) = (  -0.4545455  -0.4545455   0.0000000), wk =   0.0165289
        k(   74) = (  -0.4545455  -0.3636364   0.0000000), wk =   0.0165289
        k(   75) = (  -0.4545455  -0.2727273   0.0000000), wk =   0.0165289
        k(   76) = (  -0.4545455  -0.1818182   0.0000000), wk =   0.0165289
        k(   77) = (  -0.4545455  -0.0909091   0.0000000), wk =   0.0165289
        k(   78) = (  -0.3636364  -0.0000000   0.0000000), wk =   0.0165289
        k(   79) = (  -0.3636364   0.0909091   0.0000000), wk =   0.0165289
        k(   80) = (  -0.3636364   0.1818182   0.0000000), wk =   0.0165289
        k(   81) = (  -0.3636364   0.2727273   0.0000000), wk =   0.0165289
        k(   82) = (  -0.3636364   0.3636364   0.0000000), wk =   0.0165289
        k(   83) = (  -0.3636364   0.4545455   0.0000000), wk =   0.0165289
        k(   84) = (  -0.3636364  -0.4545455   0.0000000), wk =   0.0165289
        k(   85) = (  -0.3636364  -0.3636364   0.0000000), wk =   0.0165289
        k(   86) = (  -0.3636364  -0.2727273   0.0000000), wk =   0.0165289
        k(   87) = (  -0.3636364  -0.1818182   0.0000000), wk =   0.0165289
        k(   88) = (  -0.3636364  -0.0909091   0.0000000), wk =   0.0165289
        k(   89) = (  -0.2727273  -0.0000000   0.0000000), wk =   0.0165289
        k(   90) = (  -0.2727273   0.0909091   0.0000000), wk =   0.0165289
        k(   91) = (  -0.2727273   0.1818182   0.0000000), wk =   0.0165289
        k(   92) = (  -0.2727273   0.2727273   0.0000000), wk =   0.0165289
        k(   93) = (  -0.2727273   0.3636364   0.0000000), wk =   0.0165289
        k(   94) = (  -0.2727273   0.4545455   0.0000000), wk =   0.0165289
        k(   95) = (  -0.2727273  -0.4545455   0.0000000), wk =   0.0165289
        k(   96) = (  -0.2727273  -0.3636364   0.0000000), wk =   0.0165289
        k(   97) = (  -0.2727273  -0.2727273   0.0000000), wk =   0.0165289
        k(   98) = (  -0.2727273  -0.1818182   0.0000000), wk =   0.0165289
        k(   99) = (  -0.2727273  -0.0909091   0.0000000), wk =   0.0165289
        k(  100) = (  -0.1818182  -0.0000000   0.0000000), wk =   0.0165289
        k(  101) = (  -0.1818182   0.0909091   0.0000000), wk =   0.0165289
        k(  102) = (  -0.1818182   0.1818182   0.0000000), wk =   0.0165289
        k(  103) = (  -0.1818182   0.2727273   0.0000000), wk =   0.0165289
        k(  104) = (  -0.1818182   0.3636364   0.0000000), wk =   0.0165289
        k(  105) = (  -0.1818182   0.4545455   0.0000000), wk =   0.0165289
        k(  106) = (  -0.1818182  -0.4545455   0.0000000), wk =   0.0165289
        k(  107) = (  -0.1818182  -0.3636364   0.0000000), wk =   0.0165289
        k(  108) = (  -0.1818182  -0.2727273   0.0000000), wk =   0.0165289
        k(  109) = (  -0.1818182  -0.1818182   0.0000000), wk =   0.0165289
        k(  110) = (  -0.1818182  -0.0909091   0.0000000), wk =   0.0165289
        k(  111) = (  -0.0909091  -0.0000000   0.0000000), wk =   0.0165289
        k(  112) = (  -0.0909091   0.0909091   0.0000000), wk =   0.0165289
        k(  113) = (  -0.0909091   0.1818182   0.0000000), wk =   0.0165289
        k(  114) = (  -0.0909091   0.2727273   0.0000000), wk =   0.0165289
        k(  115) = (  -0.0909091   0.3636364   0.0000000), wk =   0.0165289
        k(  116) = (  -0.0909091   0.4545455   0.0000000), wk =   0.0165289
        k(  117) = (  -0.0909091  -0.4545455   0.0000000), wk =   0.0165289
        k(  118) = (  -0.0909091  -0.3636364   0.0000000), wk =   0.0165289
        k(  119) = (  -0.0909091  -0.2727273   0.0000000), wk =   0.0165289
        k(  120) = (  -0.0909091  -0.1818182   0.0000000), wk =   0.0165289
        k(  121) = (  -0.0909091  -0.0909091   0.0000000), wk =   0.0165289

     Dense  grid:   161073 G-vectors     FFT dimensions: (  36,  36, 320)

     Smooth grid:   115205 G-vectors     FFT dimensions: (  30,  32, 288)

     Dynamical RAM for                 wfc:       4.62 MB

     Dynamical RAM for     wfc (w. buffer):     563.84 MB

     Dynamical RAM for           str. fact:       7.37 MB

     Dynamical RAM for           local pot:       0.00 MB

     Dynamical RAM for          nlocal pot:      14.53 MB

     Dynamical RAM for                qrad:       4.82 MB

     Dynamical RAM for          rho,v,vnew:      16.87 MB

     Dynamical RAM for               rhoin:       5.62 MB

     Dynamical RAM for            rho*nmix:      39.32 MB

     Dynamical RAM for           G-vectors:      10.10 MB

     Dynamical RAM for          h,s,v(r/c):       0.08 MB

     Dynamical RAM for          <psi|beta>:       0.02 MB

     Dynamical RAM for                 psi:       9.24 MB

     Dynamical RAM for                hpsi:       9.24 MB

     Dynamical RAM for      wfcinit/wfcrot:       9.25 MB

     Estimated static dynamical RAM per process >     648.79 MB

     Estimated max dynamical RAM per process >     706.70 MB
 ----2D----2D----2D----2D----2D----2D----2D----2D----2D----2D----2D----2D
  The code is running with the 2D cutoff
  Please refer to:
  Sohier, T., Calandra, M., & Mauri, F. (2017), 
  Density functional perturbation theory for gated two-dimensional heterostructures:
  Theoretical developments and application to flexural phonons in graphene.
  Physical Review B, 96(7), 75448. https://doi.org/10.1103/PhysRevB.96.075448
 ----2D----2D----2D----2D----2D----2D----2D----2D----2D----2D----2D----2D

     Initial potential from superposition of free atoms

     starting charge      41.9980, renormalised to      42.0000

     negative rho (up, down):  1.757E-06 0.000E+00
     Starting wfcs are   34 randomized atomic wfcs

     total cpu time spent up to now is        7.3 secs

     Self-consistent Calculation
[tb_dev] Currently allocated     1.51E+00 Mbytes, locked:    0 /   5
[tb_pin] Currently allocated     0.00E+00 Mbytes, locked:    0 /   0

     iteration #  1     ecut=    80.00 Ry     beta= 0.40
     Davidson diagonalization with overlap

---- Real-time Memory Report at c_bands before calling an iterative solver
          1260 MiB given to the printing process from OS
             0 MiB allocation reported by mallinfo(arena+hblkhd)
         14332 MiB available memory on the node where the printing process lives
     GPU memory used/free/total (MiB): 1309 / 10604 / 11914
------------------
     ethr =  1.00E-02,  avg # of iterations =  2.0

     total cpu time spent up to now is       18.8 secs

     total energy              =    -262.70840581 Ry
     estimated scf accuracy    <       2.23650574 Ry
[tb_dev] Currently allocated     2.67E-05 Mbytes, locked:    0 /   1
[tb_pin] Currently allocated     0.00E+00 Mbytes, locked:    0 /   0

     iteration #  2     ecut=    80.00 Ry     beta= 0.40
     Davidson diagonalization with overlap

---- Real-time Memory Report at c_bands before calling an iterative solver
          1276 MiB given to the printing process from OS
             0 MiB allocation reported by mallinfo(arena+hblkhd)
         14324 MiB available memory on the node where the printing process lives
     GPU memory used/free/total (MiB): 1313 / 10600 / 11914
------------------
     ethr =  5.33E-03,  avg # of iterations =  5.6

     total cpu time spent up to now is       37.6 secs

     total energy              =    -263.16617041 Ry
     estimated scf accuracy    <       0.78640293 Ry
[tb_dev] Currently allocated     2.67E-05 Mbytes, locked:    0 /   1
[tb_pin] Currently allocated     0.00E+00 Mbytes, locked:    0 /   0

     iteration #  3     ecut=    80.00 Ry     beta= 0.40
     Davidson diagonalization with overlap

---- Real-time Memory Report at c_bands before calling an iterative solver
          1302 MiB given to the printing process from OS
             0 MiB allocation reported by mallinfo(arena+hblkhd)
         14299 MiB available memory on the node where the printing process lives
     GPU memory used/free/total (MiB): 1313 / 10600 / 11914
------------------
     ethr =  1.87E-03,  avg # of iterations =  5.0

     total cpu time spent up to now is       53.4 secs

     total energy              =    -263.33117819 Ry
     estimated scf accuracy    <       0.05530152 Ry
[tb_dev] Currently allocated     2.67E-05 Mbytes, locked:    0 /   1
[tb_pin] Currently allocated     0.00E+00 Mbytes, locked:    0 /   0

     iteration #  4     ecut=    80.00 Ry     beta= 0.40
     Davidson diagonalization with overlap

---- Real-time Memory Report at c_bands before calling an iterative solver
          1307 MiB given to the printing process from OS
             0 MiB allocation reported by mallinfo(arena+hblkhd)
         14299 MiB available memory on the node where the printing process lives
     GPU memory used/free/total (MiB): 1313 / 10600 / 11914
------------------
     ethr =  1.32E-04,  avg # of iterations =  5.0

     total cpu time spent up to now is       68.8 secs

     total energy              =    -263.34159443 Ry
     estimated scf accuracy    <       0.01155849 Ry
[tb_dev] Currently allocated     2.67E-05 Mbytes, locked:    0 /   1
[tb_pin] Currently allocated     0.00E+00 Mbytes, locked:    0 /   0

     iteration #  5     ecut=    80.00 Ry     beta= 0.40
     Davidson diagonalization with overlap

---- Real-time Memory Report at c_bands before calling an iterative solver
          1312 MiB given to the printing process from OS
             0 MiB allocation reported by mallinfo(arena+hblkhd)
         14292 MiB available memory on the node where the printing process lives
     GPU memory used/free/total (MiB): 1315 / 10598 / 11914
------------------
     ethr =  2.75E-05,  avg # of iterations =  6.0

     total cpu time spent up to now is       87.0 secs

     total energy              =    -263.34389692 Ry
     estimated scf accuracy    <       0.01284474 Ry
[tb_dev] Currently allocated     2.67E-05 Mbytes, locked:    0 /   1
[tb_pin] Currently allocated     0.00E+00 Mbytes, locked:    0 /   0

     iteration #  6     ecut=    80.00 Ry     beta= 0.40
     Davidson diagonalization with overlap

---- Real-time Memory Report at c_bands before calling an iterative solver
          1317 MiB given to the printing process from OS
             0 MiB allocation reported by mallinfo(arena+hblkhd)
         14276 MiB available memory on the node where the printing process lives
     GPU memory used/free/total (MiB): 1315 / 10598 / 11914
------------------
     ethr =  2.75E-05,  avg # of iterations =  3.1

     total cpu time spent up to now is       99.6 secs

     total energy              =    -263.34372627 Ry
     estimated scf accuracy    <       0.00277321 Ry
[tb_dev] Currently allocated     2.67E-05 Mbytes, locked:    0 /   1
[tb_pin] Currently allocated     0.00E+00 Mbytes, locked:    0 /   0

     iteration #  7     ecut=    80.00 Ry     beta= 0.40
     Davidson diagonalization with overlap

---- Real-time Memory Report at c_bands before calling an iterative solver
          1323 MiB given to the printing process from OS
             0 MiB allocation reported by mallinfo(arena+hblkhd)
         14270 MiB available memory on the node where the printing process lives
     GPU memory used/free/total (MiB): 1315 / 10598 / 11914
------------------
     ethr =  6.60E-06,  avg # of iterations =  7.9

     total cpu time spent up to now is      120.4 secs

     total energy              =    -263.34475693 Ry
     estimated scf accuracy    <       0.01134742 Ry
[tb_dev] Currently allocated     2.67E-05 Mbytes, locked:    0 /   1
[tb_pin] Currently allocated     0.00E+00 Mbytes, locked:    0 /   0

     iteration #  8     ecut=    80.00 Ry     beta= 0.40
     Davidson diagonalization with overlap

---- Real-time Memory Report at c_bands before calling an iterative solver
          1329 MiB given to the printing process from OS
             0 MiB allocation reported by mallinfo(arena+hblkhd)
         14275 MiB available memory on the node where the printing process lives
     GPU memory used/free/total (MiB): 1315 / 10598 / 11914
------------------
     ethr =  6.60E-06,  avg # of iterations =  4.1

     total cpu time spent up to now is      134.5 secs

     total energy              =    -263.34464518 Ry
     estimated scf accuracy    <       0.00241236 Ry
[tb_dev] Currently allocated     2.67E-05 Mbytes, locked:    0 /   1
[tb_pin] Currently allocated     0.00E+00 Mbytes, locked:    0 /   0

     iteration #  9     ecut=    80.00 Ry     beta= 0.40
     Davidson diagonalization with overlap

---- Real-time Memory Report at c_bands before calling an iterative solver
          1333 MiB given to the printing process from OS
             0 MiB allocation reported by mallinfo(arena+hblkhd)
         14268 MiB available memory on the node where the printing process lives
     GPU memory used/free/total (MiB): 1315 / 10598 / 11914
------------------
     ethr =  5.74E-06,  avg # of iterations =  5.2

     total cpu time spent up to now is      150.2 secs

     total energy              =    -263.34528882 Ry
     estimated scf accuracy    <       0.00032765 Ry
[tb_dev] Currently allocated     2.67E-05 Mbytes, locked:    0 /   1
[tb_pin] Currently allocated     0.00E+00 Mbytes, locked:    0 /   0

     iteration # 10     ecut=    80.00 Ry     beta= 0.40
     Davidson diagonalization with overlap

---- Real-time Memory Report at c_bands before calling an iterative solver
          1337 MiB given to the printing process from OS
             0 MiB allocation reported by mallinfo(arena+hblkhd)
         14271 MiB available memory on the node where the printing process lives
     GPU memory used/free/total (MiB): 1315 / 10598 / 11914
------------------
     ethr =  7.80E-07,  avg # of iterations =  3.8

     total cpu time spent up to now is      163.5 secs

     total energy              =    -263.34521711 Ry
     estimated scf accuracy    <       0.00059600 Ry
[tb_dev] Currently allocated     2.67E-05 Mbytes, locked:    0 /   1
[tb_pin] Currently allocated     0.00E+00 Mbytes, locked:    0 /   0

     iteration # 11     ecut=    80.00 Ry     beta= 0.40
     Davidson diagonalization with overlap

---- Real-time Memory Report at c_bands before calling an iterative solver
          1341 MiB given to the printing process from OS
             0 MiB allocation reported by mallinfo(arena+hblkhd)
         14273 MiB available memory on the node where the printing process lives
     GPU memory used/free/total (MiB): 1315 / 10598 / 11914
------------------
     ethr =  7.80E-07,  avg # of iterations =  3.2

     negative rho (up, down):  2.689E-08 0.000E+00

     total cpu time spent up to now is      175.7 secs

     total energy              =    -263.34522371 Ry
     estimated scf accuracy    <       0.00011458 Ry
[tb_dev] Currently allocated     2.67E-05 Mbytes, locked:    0 /   1
[tb_pin] Currently allocated     0.00E+00 Mbytes, locked:    0 /   0

     iteration # 12     ecut=    80.00 Ry     beta= 0.40
     Davidson diagonalization with overlap

---- Real-time Memory Report at c_bands before calling an iterative solver
          1341 MiB given to the printing process from OS
             0 MiB allocation reported by mallinfo(arena+hblkhd)
         14270 MiB available memory on the node where the printing process lives
     GPU memory used/free/total (MiB): 1315 / 10598 / 11914
------------------
     ethr =  2.73E-07,  avg # of iterations =  5.6

     total cpu time spent up to now is      192.5 secs

     total energy              =    -263.34525991 Ry
     estimated scf accuracy    <       0.00004380 Ry
[tb_dev] Currently allocated     2.67E-05 Mbytes, locked:    0 /   1
[tb_pin] Currently allocated     0.00E+00 Mbytes, locked:    0 /   0

     iteration # 13     ecut=    80.00 Ry     beta= 0.40
     Davidson diagonalization with overlap

---- Real-time Memory Report at c_bands before calling an iterative solver
          1343 MiB given to the printing process from OS
             0 MiB allocation reported by mallinfo(arena+hblkhd)
         14265 MiB available memory on the node where the printing process lives
     GPU memory used/free/total (MiB): 1315 / 10598 / 11914
------------------
     ethr =  1.04E-07,  avg # of iterations =  3.0

     total cpu time spent up to now is      204.6 secs

     total energy              =    -263.34526100 Ry
     estimated scf accuracy    <       0.00001128 Ry
[tb_dev] Currently allocated     2.67E-05 Mbytes, locked:    0 /   1
[tb_pin] Currently allocated     0.00E+00 Mbytes, locked:    0 /   0

     iteration # 14     ecut=    80.00 Ry     beta= 0.40
     Davidson diagonalization with overlap

---- Real-time Memory Report at c_bands before calling an iterative solver
          1343 MiB given to the printing process from OS
             0 MiB allocation reported by mallinfo(arena+hblkhd)
         14263 MiB available memory on the node where the printing process lives
     GPU memory used/free/total (MiB): 1315 / 10598 / 11914
------------------
     ethr =  2.69E-08,  avg # of iterations =  5.2

     total cpu time spent up to now is      220.7 secs

     total energy              =    -263.34526374 Ry
     estimated scf accuracy    <       0.00000127 Ry
[tb_dev] Currently allocated     2.67E-05 Mbytes, locked:    0 /   1
[tb_pin] Currently allocated     0.00E+00 Mbytes, locked:    0 /   0

     iteration # 15     ecut=    80.00 Ry     beta= 0.40
     Davidson diagonalization with overlap

---- Real-time Memory Report at c_bands before calling an iterative solver
          1343 MiB given to the printing process from OS
             0 MiB allocation reported by mallinfo(arena+hblkhd)
         14262 MiB available memory on the node where the printing process lives
     GPU memory used/free/total (MiB): 1315 / 10598 / 11914
------------------
     ethr =  3.02E-09,  avg # of iterations =  5.5

     total cpu time spent up to now is      237.6 secs

     total energy              =    -263.34526399 Ry
     estimated scf accuracy    <       0.00000053 Ry
[tb_dev] Currently allocated     2.67E-05 Mbytes, locked:    0 /   1
[tb_pin] Currently allocated     0.00E+00 Mbytes, locked:    0 /   0

     iteration # 16     ecut=    80.00 Ry     beta= 0.40
     Davidson diagonalization with overlap

---- Real-time Memory Report at c_bands before calling an iterative solver
          1344 MiB given to the printing process from OS
             0 MiB allocation reported by mallinfo(arena+hblkhd)
         14264 MiB available memory on the node where the printing process lives
     GPU memory used/free/total (MiB): 1315 / 10598 / 11914
------------------
     ethr =  1.27E-09,  avg # of iterations =  4.7

     total cpu time spent up to now is      252.4 secs

     total energy              =    -263.34526407 Ry
     estimated scf accuracy    <       0.00000023 Ry
[tb_dev] Currently allocated     2.67E-05 Mbytes, locked:    0 /   1
[tb_pin] Currently allocated     0.00E+00 Mbytes, locked:    0 /   0

     iteration # 17     ecut=    80.00 Ry     beta= 0.40
     Davidson diagonalization with overlap

---- Real-time Memory Report at c_bands before calling an iterative solver
          1344 MiB given to the printing process from OS
             0 MiB allocation reported by mallinfo(arena+hblkhd)
         14261 MiB available memory on the node where the printing process lives
     GPU memory used/free/total (MiB): 1315 / 10598 / 11914
------------------
     ethr =  5.38E-10,  avg # of iterations =  5.6

     total cpu time spent up to now is      268.8 secs

     total energy              =    -263.34526405 Ry
     estimated scf accuracy    <       0.00000054 Ry
[tb_dev] Currently allocated     2.67E-05 Mbytes, locked:    0 /   1
[tb_pin] Currently allocated     0.00E+00 Mbytes, locked:    0 /   0

     iteration # 18     ecut=    80.00 Ry     beta= 0.40
     Davidson diagonalization with overlap

---- Real-time Memory Report at c_bands before calling an iterative solver
          1345 MiB given to the printing process from OS
             0 MiB allocation reported by mallinfo(arena+hblkhd)
         14260 MiB available memory on the node where the printing process lives
     GPU memory used/free/total (MiB): 1315 / 10598 / 11914
------------------
     ethr =  5.38E-10,  avg # of iterations =  2.8

     total cpu time spent up to now is      280.5 secs

     total energy              =    -263.34526400 Ry
     estimated scf accuracy    <       0.00000023 Ry
[tb_dev] Currently allocated     2.67E-05 Mbytes, locked:    0 /   1
[tb_pin] Currently allocated     0.00E+00 Mbytes, locked:    0 /   0

     iteration # 19     ecut=    80.00 Ry     beta= 0.40
     Davidson diagonalization with overlap

---- Real-time Memory Report at c_bands before calling an iterative solver
          1345 MiB given to the printing process from OS
             0 MiB allocation reported by mallinfo(arena+hblkhd)
         14251 MiB available memory on the node where the printing process lives
     GPU memory used/free/total (MiB): 1315 / 10598 / 11914
------------------
     ethr =  5.38E-10,  avg # of iterations =  5.5

     total cpu time spent up to now is      296.4 secs

     total energy              =    -263.34526407 Ry
     estimated scf accuracy    <       0.00000005 Ry
[tb_dev] Currently allocated     2.67E-05 Mbytes, locked:    0 /   1
[tb_pin] Currently allocated     0.00E+00 Mbytes, locked:    0 /   0

     iteration # 20     ecut=    80.00 Ry     beta= 0.40
     Davidson diagonalization with overlap

---- Real-time Memory Report at c_bands before calling an iterative solver
          1345 MiB given to the printing process from OS
             0 MiB allocation reported by mallinfo(arena+hblkhd)
         14242 MiB available memory on the node where the printing process lives
     GPU memory used/free/total (MiB): 1315 / 10598 / 11914
------------------
     ethr =  1.10E-10,  avg # of iterations =  2.6

     total cpu time spent up to now is      307.9 secs

     total energy              =    -263.34526406 Ry
     estimated scf accuracy    <       0.00000006 Ry
[tb_dev] Currently allocated     2.67E-05 Mbytes, locked:    0 /   1
[tb_pin] Currently allocated     0.00E+00 Mbytes, locked:    0 /   0

     iteration # 21     ecut=    80.00 Ry     beta= 0.40
     Davidson diagonalization with overlap

---- Real-time Memory Report at c_bands before calling an iterative solver
          1345 MiB given to the printing process from OS
             0 MiB allocation reported by mallinfo(arena+hblkhd)
         14234 MiB available memory on the node where the printing process lives
     GPU memory used/free/total (MiB): 1315 / 10598 / 11914
------------------
     ethr =  1.10E-10,  avg # of iterations =  3.5

     total cpu time spent up to now is      320.6 secs

     total energy              =    -263.34526406 Ry
     estimated scf accuracy    <          7.8E-09 Ry
[tb_dev] Currently allocated     2.67E-05 Mbytes, locked:    0 /   1
[tb_pin] Currently allocated     0.00E+00 Mbytes, locked:    0 /   0

     iteration # 22     ecut=    80.00 Ry     beta= 0.40
     Davidson diagonalization with overlap

---- Real-time Memory Report at c_bands before calling an iterative solver
          1346 MiB given to the printing process from OS
             0 MiB allocation reported by mallinfo(arena+hblkhd)
         14231 MiB available memory on the node where the printing process lives
     GPU memory used/free/total (MiB): 1315 / 10598 / 11914
------------------
     ethr =  1.85E-11,  avg # of iterations =  6.5

     total cpu time spent up to now is      340.1 secs

     total energy              =    -263.34526406 Ry
     estimated scf accuracy    <          4.5E-09 Ry
[tb_dev] Currently allocated     2.67E-05 Mbytes, locked:    0 /   1
[tb_pin] Currently allocated     0.00E+00 Mbytes, locked:    0 /   0

     iteration # 23     ecut=    80.00 Ry     beta= 0.40
     Davidson diagonalization with overlap

---- Real-time Memory Report at c_bands before calling an iterative solver
          1346 MiB given to the printing process from OS
             0 MiB allocation reported by mallinfo(arena+hblkhd)
         14242 MiB available memory on the node where the printing process lives
     GPU memory used/free/total (MiB): 1315 / 10598 / 11914
------------------
     ethr =  1.08E-11,  avg # of iterations =  1.9

     total cpu time spent up to now is      350.6 secs

     total energy              =    -263.34526406 Ry
     estimated scf accuracy    <          2.3E-09 Ry
[tb_dev] Currently allocated     2.67E-05 Mbytes, locked:    0 /   1
[tb_pin] Currently allocated     0.00E+00 Mbytes, locked:    0 /   0

     iteration # 24     ecut=    80.00 Ry     beta= 0.40
     Davidson diagonalization with overlap

---- Real-time Memory Report at c_bands before calling an iterative solver
          1346 MiB given to the printing process from OS
             0 MiB allocation reported by mallinfo(arena+hblkhd)
         14241 MiB available memory on the node where the printing process lives
     GPU memory used/free/total (MiB): 1315 / 10598 / 11914
------------------
     ethr =  5.40E-12,  avg # of iterations =  1.6

     total cpu time spent up to now is      360.6 secs

     total energy              =    -263.34526406 Ry
     estimated scf accuracy    <          1.9E-09 Ry
[tb_dev] Currently allocated     2.67E-05 Mbytes, locked:    0 /   1
[tb_pin] Currently allocated     0.00E+00 Mbytes, locked:    0 /   0

     iteration # 25     ecut=    80.00 Ry     beta= 0.40
     Davidson diagonalization with overlap

---- Real-time Memory Report at c_bands before calling an iterative solver
          1346 MiB given to the printing process from OS
             0 MiB allocation reported by mallinfo(arena+hblkhd)
         14235 MiB available memory on the node where the printing process lives
     GPU memory used/free/total (MiB): 1315 / 10598 / 11914
------------------
     ethr =  4.54E-12,  avg # of iterations =  2.5

     total cpu time spent up to now is      372.6 secs

     total energy              =    -263.34526406 Ry
     estimated scf accuracy    <          1.1E-09 Ry
[tb_dev] Currently allocated     2.67E-05 Mbytes, locked:    0 /   1
[tb_pin] Currently allocated     0.00E+00 Mbytes, locked:    0 /   0

     iteration # 26     ecut=    80.00 Ry     beta= 0.40
     Davidson diagonalization with overlap

---- Real-time Memory Report at c_bands before calling an iterative solver
          1346 MiB given to the printing process from OS
             0 MiB allocation reported by mallinfo(arena+hblkhd)
         14236 MiB available memory on the node where the printing process lives
     GPU memory used/free/total (MiB): 1315 / 10598 / 11914
------------------
     ethr =  2.59E-12,  avg # of iterations =  4.5

     total cpu time spent up to now is      387.0 secs

     End of self-consistent calculation

          k = 0.0000 0.0000 0.0000 ( 14449 PWs)   bands (ev):

   -77.8819 -49.0977 -49.0598 -49.0581 -24.7431 -24.6666 -21.9415 -20.5447
   -14.1711 -11.5663  -9.6050  -9.3984  -9.3483  -9.1618  -9.1071  -8.9781
    -8.7960  -7.6830  -7.6024  -7.5548  -5.4792

     occupation numbers 
     1.0000   1.0000   1.0000   1.0000   1.0000   1.0000   1.0000   1.0000
     1.0000   1.0000   1.0000   1.0000   1.0000   1.0000   1.0000   1.0000
     1.0000   1.0000   1.0000   1.0000   1.0000

          k = 0.0000 0.1029 0.0000 ( 14467 PWs)   bands (ev):

   -77.8789 -49.1208 -49.0647 -49.0540 -24.6002 -24.5259 -21.8304 -20.4849
   -14.0552 -11.5145 -10.1036 -10.0159  -9.3921  -9.2787  -9.2436  -9.2255
    -8.7101  -7.9317  -7.6945  -7.4502  -5.5880

     occupation numbers 
     1.0000   1.0000   1.0000   1.0000   1.0000   1.0000   1.0000   1.0000
     1.0000   1.0000   1.0000   1.0000   1.0000   1.0000   1.0000   1.0000
     1.0000   1.0000   1.0000   1.0000   1.0000

          k = 0.0000 0.2057 0.0000 ( 14477 PWs)   bands (ev):

   -77.8710 -49.1825 -49.0780 -49.0428 -24.1833 -24.1153 -21.5244 -20.3232
   -13.7727 -11.6112 -11.4149 -11.2536  -9.8395  -9.5917  -9.5813  -9.1612
    -8.4493  -8.3328  -8.0287  -7.5643  -5.9615

     occupation numbers 
     1.0000   1.0000   1.0000   1.0000   1.0000   1.0000   1.0000   1.0000
     1.0000   1.0000   1.0000   1.0000   1.0000   1.0000   1.0000   1.0000
     1.0000   1.0000   1.0000   1.0000   1.0000

          k = 0.0000 0.3086 0.0000 ( 14487 PWs)   bands (ev):

   -77.8606 -49.2625 -49.0952 -49.0281 -23.5347 -23.4762 -21.1097 -20.1182
   -13.7935 -13.1723 -12.5739 -11.2004 -10.5322  -9.9800  -9.9618  -8.9964
    -8.7876  -8.4221  -8.0602  -7.7660  -6.3615

     occupation numbers 
     1.0000   1.0000   1.0000   1.0000   1.0000   1.0000   1.0000   1.0000
     1.0000   1.0000   1.0000   1.0000   1.0000   1.0000   1.0000   1.0000
     1.0000   1.0000   1.0000   1.0000   1.0000

          k = 0.0000 0.4115 0.0000 ( 14421 PWs)   bands (ev):

   -77.8510 -49.3354 -49.1111 -49.0145 -22.7578 -22.7116 -20.7436 -19.9762
   -14.8701 -14.6076 -12.5531 -11.3798 -10.9711 -10.3052 -10.2735  -9.4239
    -8.7286  -8.5720  -7.8522  -7.6848  -6.4967

     occupation numbers 
     1.0000   1.0000   1.0000   1.0000   1.0000   1.0000   1.0000   1.0000
     1.0000   1.0000   1.0000   1.0000   1.0000   1.0000   1.0000   1.0000
     1.0000   1.0000   1.0000   1.0000   1.0000

          k = 0.0000 0.5144 0.0000 ( 14418 PWs)   bands (ev):

   -77.8453 -49.3784 -49.1205 -49.0065 -22.1161 -22.0826 -20.5985 -19.9830
   -15.7107 -15.4748 -12.3789 -11.7647 -11.1052 -10.4849 -10.4463  -9.6161
    -8.8985  -8.3235  -7.8656  -7.4414  -6.4622

     occupation numbers 
     1.0000   1.0000   1.0000   1.0000   1.0000   1.0000   1.0000   1.0000
     1.0000   1.0000   1.0000   1.0000   1.0000   1.0000   1.0000   1.0000
     1.0000   1.0000   1.0000   1.0000   1.0000

          k = 0.0000-0.5144 0.0000 ( 14418 PWs)   bands (ev):

   -77.8453 -49.3784 -49.1205 -49.0065 -22.1161 -22.0826 -20.5985 -19.9830
   -15.7107 -15.4748 -12.3789 -11.7647 -11.1052 -10.4849 -10.4463  -9.6161
    -8.8985  -8.3235  -7.8656  -7.4414  -6.4622

     occupation numbers 
     1.0000   1.0000   1.0000   1.0000   1.0000   1.0000   1.0000   1.0000
     1.0000   1.0000   1.0000   1.0000   1.0000   1.0000   1.0000   1.0000
     1.0000   1.0000   1.0000   1.0000   1.0000

          k = 0.0000-0.4115 0.0000 ( 14421 PWs)   bands (ev):

   -77.8510 -49.3354 -49.1111 -49.0145 -22.7578 -22.7116 -20.7436 -19.9762
   -14.8701 -14.6076 -12.5531 -11.3798 -10.9711 -10.3052 -10.2735  -9.4239
    -8.7286  -8.5720  -7.8522  -7.6848  -6.4967

     occupation numbers 
     1.0000   1.0000   1.0000   1.0000   1.0000   1.0000   1.0000   1.0000
     1.0000   1.0000   1.0000   1.0000   1.0000   1.0000   1.0000   1.0000
     1.0000   1.0000   1.0000   1.0000   1.0000

          k = 0.0000-0.3086 0.0000 ( 14487 PWs)   bands (ev):

   -77.8606 -49.2625 -49.0952 -49.0281 -23.5347 -23.4762 -21.1097 -20.1182
   -13.7935 -13.1723 -12.5739 -11.2004 -10.5322  -9.9800  -9.9618  -8.9964
    -8.7876  -8.4221  -8.0602  -7.7660  -6.3615

     occupation numbers 
     1.0000   1.0000   1.0000   1.0000   1.0000   1.0000   1.0000   1.0000
     1.0000   1.0000   1.0000   1.0000   1.0000   1.0000   1.0000   1.0000
     1.0000   1.0000   1.0000   1.0000   1.0000

          k = 0.0000-0.2057 0.0000 ( 14477 PWs)   bands (ev):

   -77.8710 -49.1825 -49.0780 -49.0428 -24.1833 -24.1153 -21.5244 -20.3232
   -13.7727 -11.6112 -11.4149 -11.2536  -9.8395  -9.5917  -9.5813  -9.1612
    -8.4493  -8.3328  -8.0287  -7.5643  -5.9615

     occupation numbers 
     1.0000   1.0000   1.0000   1.0000   1.0000   1.0000   1.0000   1.0000
     1.0000   1.0000   1.0000   1.0000   1.0000   1.0000   1.0000   1.0000
     1.0000   1.0000   1.0000   1.0000   1.0000

          k = 0.0000-0.1029 0.0000 ( 14467 PWs)   bands (ev):

   -77.8789 -49.1208 -49.0647 -49.0540 -24.6002 -24.5259 -21.8304 -20.4849
   -14.0552 -11.5145 -10.1036 -10.0159  -9.3921  -9.2787  -9.2436  -9.2255
    -8.7101  -7.9317  -7.6945  -7.4502  -5.5880

     occupation numbers 
     1.0000   1.0000   1.0000   1.0000   1.0000   1.0000   1.0000   1.0000
     1.0000   1.0000   1.0000   1.0000   1.0000   1.0000   1.0000   1.0000
     1.0000   1.0000   1.0000   1.0000   1.0000

          k = 0.0909 0.0514 0.0000 ( 14493 PWs)   bands (ev):

   -77.8786 -49.1092 -49.0785 -49.0536 -24.5953 -24.5211 -21.8257 -20.4805
   -14.0498 -11.5093  -9.9696  -9.8546  -9.4712  -9.4287  -9.3308  -9.1226
    -8.8272  -7.9106  -7.7589  -7.4122  -5.5819

     occupation numbers 
     1.0000   1.0000   1.0000   1.0000   1.0000   1.0000   1.0000   1.0000
     1.0000   1.0000   1.0000   1.0000   1.0000   1.0000   1.0000   1.0000
     1.0000   1.0000   1.0000   1.0000   1.0000

          k = 0.0909 0.1543 0.0000 ( 14463 PWs)   bands (ev):

   -77.8732 -49.1558 -49.0833 -49.0459 -24.3153 -24.2452 -21.6169 -20.3691
   -13.8464 -11.4419 -10.9032 -10.8802  -9.8425  -9.6726  -9.4343  -9.2099
    -8.6102  -8.1543  -8.0600  -7.4167  -5.8319

     occupation numbers 
     1.0000   1.0000   1.0000   1.0000   1.0000   1.0000   1.0000   1.0000
     1.0000   1.0000   1.0000   1.0000   1.0000   1.0000   1.0000   1.0000
     1.0000   1.0000   1.0000   1.0000   1.0000

          k = 0.0909 0.2572 0.0000 ( 14470 PWs)   bands (ev):

   -77.8640 -49.2263 -49.0989 -49.0330 -23.7808 -23.7186 -21.2543 -20.1827
   -13.6286 -12.4258 -12.1389 -11.2036 -10.4618 -10.1658  -9.9066  -8.9895
    -8.8065  -8.3178  -8.1726  -7.6131  -6.2329

     occupation numbers 
     1.0000   1.0000   1.0000   1.0000   1.0000   1.0000   1.0000   1.0000
     1.0000   1.0000   1.0000   1.0000   1.0000   1.0000   1.0000   1.0000
     1.0000   1.0000   1.0000   1.0000   1.0000

          k = 0.0909 0.3601 0.0000 ( 14422 PWs)   bands (ev):

   -77.8540 -49.3003 -49.1179 -49.0189 -23.0592 -23.0077 -20.8571 -20.0016
   -14.2481 -13.9027 -12.5783 -11.2298 -10.9157 -10.6237 -10.4091  -9.4492
    -8.7320  -8.3613  -8.0301  -7.7915  -6.4730

     occupation numbers 
     1.0000   1.0000   1.0000   1.0000   1.0000   1.0000   1.0000   1.0000
     1.0000   1.0000   1.0000   1.0000   1.0000   1.0000   1.0000   1.0000
     1.0000   1.0000   1.0000   1.0000   1.0000

          k = 0.0909 0.4629 0.0000 ( 14407 PWs)   bands (ev):

   -77.8464 -49.3560 -49.1327 -49.0081 -22.3143 -22.2758 -20.6027 -19.9374
   -15.2868 -15.0463 -12.3940 -11.6247 -11.0999 -10.8477 -10.7872  -9.7036
    -8.8292  -8.3512  -7.9361  -7.6950  -6.4358

     occupation numbers 
     1.0000   1.0000   1.0000   1.0000   1.0000   1.0000   1.0000   1.0000
     1.0000   1.0000   1.0000   1.0000   1.0000   1.0000   1.0000   1.0000
     1.0000   1.0000   1.0000   1.0000   1.0000

          k = 0.0909 0.5658 0.0000 ( 14424 PWs)   bands (ev):

   -77.8435 -49.3766 -49.1383 -49.0040 -21.9422 -21.9107 -20.5609 -19.9700
   -15.7213 -15.4855 -12.2783 -11.8383 -11.1959 -10.9876 -10.8741  -9.6879
    -9.0056  -8.2227  -7.8901  -7.6532  -6.3662

     occupation numbers 
     1.0000   1.0000   1.0000   1.0000   1.0000   1.0000   1.0000   1.0000
     1.0000   1.0000   1.0000   1.0000   1.0000   1.0000   1.0000   1.0000
     1.0000   1.0000   1.0000   1.0000   1.0000

          k = 0.0909-0.4629 0.0000 ( 14407 PWs)   bands (ev):

   -77.8464 -49.3560 -49.1327 -49.0081 -22.3143 -22.2758 -20.6028 -19.9374
   -15.2868 -15.0463 -12.3940 -11.6247 -11.0998 -10.8479 -10.7872  -9.7032
    -8.8294  -8.3512  -7.9361  -7.6952  -6.4355

     occupation numbers 
     1.0000   1.0000   1.0000   1.0000   1.0000   1.0000   1.0000   1.0000
     1.0000   1.0000   1.0000   1.0000   1.0000   1.0000   1.0000   1.0000
     1.0000   1.0000   1.0000   1.0000   1.0000

          k = 0.0909-0.3601 0.0000 ( 14422 PWs)   bands (ev):

   -77.8540 -49.3003 -49.1179 -49.0189 -23.0592 -23.0077 -20.8571 -20.0016
   -14.2482 -13.9028 -12.5783 -11.2297 -10.9156 -10.6236 -10.4092  -9.4491
    -8.7319  -8.3613  -8.0303  -7.7919  -6.4727

     occupation numbers 
     1.0000   1.0000   1.0000   1.0000   1.0000   1.0000   1.0000   1.0000
     1.0000   1.0000   1.0000   1.0000   1.0000   1.0000   1.0000   1.0000
     1.0000   1.0000   1.0000   1.0000   1.0000

          k = 0.0909-0.2572 0.0000 ( 14470 PWs)   bands (ev):

   -77.8640 -49.2263 -49.0989 -49.0330 -23.7808 -23.7186 -21.2543 -20.1827
   -13.6286 -12.4259 -12.1390 -11.2036 -10.4617 -10.1656  -9.9067  -8.9895
    -8.8068  -8.3177  -8.1721  -7.6137  -6.2327

     occupation numbers 
     1.0000   1.0000   1.0000   1.0000   1.0000   1.0000   1.0000   1.0000
     1.0000   1.0000   1.0000   1.0000   1.0000   1.0000   1.0000   1.0000
     1.0000   1.0000   1.0000   1.0000   1.0000

          k = 0.0909-0.1543 0.0000 ( 14463 PWs)   bands (ev):

   -77.8732 -49.1558 -49.0833 -49.0459 -24.3152 -24.2452 -21.6169 -20.3691
   -13.8465 -11.4418 -10.9038 -10.8802  -9.8422  -9.6722  -9.4343  -9.2099
    -8.6101  -8.1548  -8.0592  -7.4171  -5.8317

     occupation numbers 
     1.0000   1.0000   1.0000   1.0000   1.0000   1.0000   1.0000   1.0000
     1.0000   1.0000   1.0000   1.0000   1.0000   1.0000   1.0000   1.0000
     1.0000   1.0000   1.0000   1.0000   1.0000

          k = 0.0909-0.0514 0.0000 ( 14493 PWs)   bands (ev):

   -77.8786 -49.1092 -49.0785 -49.0536 -24.5953 -24.5211 -21.8257 -20.4805
   -14.0498 -11.5093  -9.9700  -9.8551  -9.4707  -9.4283  -9.3307  -9.1227
    -8.8271  -7.9098  -7.7598  -7.4121  -5.5818

     occupation numbers 
     1.0000   1.0000   1.0000   1.0000   1.0000   1.0000   1.0000   1.0000
     1.0000   1.0000   1.0000   1.0000   1.0000   1.0000   1.0000   1.0000
     1.0000   1.0000   1.0000   1.0000   1.0000

          k = 0.1818 0.1029 0.0000 ( 14491 PWs)   bands (ev):

   -77.8699 -49.1620 -49.1062 -49.0415 -24.1642 -24.0962 -21.5061 -20.3056
   -13.7488 -11.5007 -11.2465 -11.1655  -9.8214  -9.8082  -9.7506  -9.1363
    -8.5719  -8.3134  -8.1312  -7.5197  -5.9433

     occupation numbers 
     1.0000   1.0000   1.0000   1.0000   1.0000   1.0000   1.0000   1.0000
     1.0000   1.0000   1.0000   1.0000   1.0000   1.0000   1.0000   1.0000
     1.0000   1.0000   1.0000   1.0000   1.0000

          k = 0.1818 0.2057 0.0000 ( 14468 PWs)   bands (ev):

   -77.8632 -49.2158 -49.1151 -49.0321 -23.7665 -23.7043 -21.2406 -20.1687
   -13.5985 -12.3099 -12.0393 -11.1821 -10.5446 -10.3225  -9.9395  -8.9750
    -8.8224  -8.3842  -8.2126  -7.6004  -6.2192

     occupation numbers 
     1.0000   1.0000   1.0000   1.0000   1.0000   1.0000   1.0000   1.0000
     1.0000   1.0000   1.0000   1.0000   1.0000   1.0000   1.0000   1.0000
     1.0000   1.0000   1.0000   1.0000   1.0000

          k = 0.1818 0.3086 0.0000 ( 14412 PWs)   bands (ev):

   -77.8545 -49.2744 -49.1381 -49.0197 -23.1535 -23.1001 -20.8898 -19.9990
   -13.8578 -13.3684 -12.4488 -11.4142 -11.2631 -10.9245 -10.3237  -9.5825
    -8.7452  -8.3780  -8.0346  -7.8252  -6.4513

     occupation numbers 
     1.0000   1.0000   1.0000   1.0000   1.0000   1.0000   1.0000   1.0000
     1.0000   1.0000   1.0000   1.0000   1.0000   1.0000   1.0000   1.0000
     1.0000   1.0000   1.0000   1.0000   1.0000

          k = 0.1818 0.4115 0.0000 ( 14412 PWs)   bands (ev):

   -77.8464 -49.3236 -49.1637 -49.0084 -22.4321 -22.3900 -20.5941 -19.8866
   -14.6752 -14.4006 -12.3851 -12.0422 -11.8589 -10.8923 -10.7287 -10.0192
    -8.6884  -8.5555  -8.1536  -7.7629  -6.4199

     occupation numbers 
     1.0000   1.0000   1.0000   1.0000   1.0000   1.0000   1.0000   1.0000
     1.0000   1.0000   1.0000   1.0000   1.0000   1.0000   1.0000   1.0000
     1.0000   1.0000   1.0000   1.0000   1.0000

          k = 0.1818 0.5144 0.0000 ( 14406 PWs)   bands (ev):

   -77.8416 -49.3515 -49.1800 -49.0016 -21.8537 -21.8213 -20.4868 -19.8930
   -15.3170 -15.0773 -12.5363 -12.3413 -11.7561 -11.2425 -11.0330  -9.8498
    -9.0554  -8.6577  -8.1339  -7.5927  -6.2478

     occupation numbers 
     1.0000   1.0000   1.0000   1.0000   1.0000   1.0000   1.0000   1.0000
     1.0000   1.0000   1.0000   1.0000   1.0000   1.0000   1.0000   1.0000
     1.0000   1.0000   1.0000   1.0000   1.0000

          k = 0.1818 0.6172 0.0000 ( 14406 PWs)   bands (ev):

   -77.8416 -49.3515 -49.1800 -49.0016 -21.8536 -21.8213 -20.4869 -19.8931
   -15.3170 -15.0773 -12.5362 -12.3412 -11.7560 -11.2427 -11.0332  -9.8494
    -9.0556  -8.6577  -8.1342  -7.5927  -6.2476

     occupation numbers 
     1.0000   1.0000   1.0000   1.0000   1.0000   1.0000   1.0000   1.0000
     1.0000   1.0000   1.0000   1.0000   1.0000   1.0000   1.0000   1.0000
     1.0000   1.0000   1.0000   1.0000   1.0000

          k = 0.1818-0.4115 0.0000 ( 14412 PWs)   bands (ev):

   -77.8464 -49.3236 -49.1637 -49.0084 -22.4320 -22.3900 -20.5942 -19.8866
   -14.6754 -14.4007 -12.3850 -12.0419 -11.8587 -10.8925 -10.7290 -10.0187
    -8.6883  -8.5554  -8.1544  -7.7629  -6.4195

     occupation numbers 
     1.0000   1.0000   1.0000   1.0000   1.0000   1.0000   1.0000   1.0000
     1.0000   1.0000   1.0000   1.0000   1.0000   1.0000   1.0000   1.0000
     1.0000   1.0000   1.0000   1.0000   1.0000

          k = 0.1818-0.3086 0.0000 ( 14412 PWs)   bands (ev):

   -77.8545 -49.2744 -49.1381 -49.0197 -23.1535 -23.1001 -20.8899 -19.9990
   -13.8581 -13.3685 -12.4488 -11.4138 -11.2628 -10.9243 -10.3240  -9.5826
    -8.7452  -8.3778  -8.0345  -7.8260  -6.4509

     occupation numbers 
     1.0000   1.0000   1.0000   1.0000   1.0000   1.0000   1.0000   1.0000
     1.0000   1.0000   1.0000   1.0000   1.0000   1.0000   1.0000   1.0000
     1.0000   1.0000   1.0000   1.0000   1.0000

          k = 0.1818-0.2057 0.0000 ( 14468 PWs)   bands (ev):

   -77.8632 -49.2158 -49.1151 -49.0321 -23.7665 -23.7043 -21.2407 -20.1687
   -13.5987 -12.3101 -12.0395 -11.1820 -10.5442 -10.3220  -9.9396  -8.9750
    -8.8227  -8.3841  -8.2124  -7.6009  -6.2188

     occupation numbers 
     1.0000   1.0000   1.0000   1.0000   1.0000   1.0000   1.0000   1.0000
     1.0000   1.0000   1.0000   1.0000   1.0000   1.0000   1.0000   1.0000
     1.0000   1.0000   1.0000   1.0000   1.0000

          k = 0.1818-0.1029 0.0000 ( 14491 PWs)   bands (ev):

   -77.8699 -49.1620 -49.1062 -49.0415 -24.1642 -24.0962 -21.5061 -20.3056
   -13.7489 -11.5007 -11.2471 -11.1655  -9.8205  -9.8083  -9.7507  -9.1363
    -8.5718  -8.3128  -8.1320  -7.5198  -5.9430

     occupation numbers 
     1.0000   1.0000   1.0000   1.0000   1.0000   1.0000   1.0000   1.0000
     1.0000   1.0000   1.0000   1.0000   1.0000   1.0000   1.0000   1.0000
     1.0000   1.0000   1.0000   1.0000   1.0000

          k = 0.1818-0.0000 0.0000 ( 14523 PWs)   bands (ev):

   -77.8724 -49.1319 -49.1129 -49.0451 -24.3010 -24.2311 -21.6034 -20.3568
   -13.8311 -11.4231 -10.7880 -10.7650  -9.8984  -9.8072  -9.4446  -9.1951
    -8.7089  -8.1767  -8.0871  -7.3922  -5.8227

     occupation numbers 
     1.0000   1.0000   1.0000   1.0000   1.0000   1.0000   1.0000   1.0000
     1.0000   1.0000   1.0000   1.0000   1.0000   1.0000   1.0000   1.0000
     1.0000   1.0000   1.0000   1.0000   1.0000

          k = 0.2727 0.1543 0.0000 ( 14472 PWs)   bands (ev):

   -77.8584 -49.2445 -49.1283 -49.0257 -23.4932 -23.4348 -21.0715 -20.0795
   -13.6887 -13.0061 -12.4869 -11.1601 -10.4639 -10.2414 -10.2235  -8.9648
    -8.7825  -8.5546  -8.1844  -7.7174  -6.3363

     occupation numbers 
     1.0000   1.0000   1.0000   1.0000   1.0000   1.0000   1.0000   1.0000
     1.0000   1.0000   1.0000   1.0000   1.0000   1.0000   1.0000   1.0000
     1.0000   1.0000   1.0000   1.0000   1.0000

          k = 0.2727 0.2572 0.0000 ( 14423 PWs)   bands (ev):

   -77.8522 -49.2864 -49.1448 -49.0168 -23.0222 -22.9707 -20.8226 -19.9646
   -14.1151 -13.7530 -12.5448 -11.2455 -10.9902 -10.8212 -10.4965  -9.4738
    -8.7230  -8.4389  -8.1313  -7.7654  -6.4444

     occupation numbers 
     1.0000   1.0000   1.0000   1.0000   1.0000   1.0000   1.0000   1.0000
     1.0000   1.0000   1.0000   1.0000   1.0000   1.0000   1.0000   1.0000
     1.0000   1.0000   1.0000   1.0000   1.0000

          k = 0.2727 0.3601 0.0000 ( 14388 PWs)   bands (ev):

   -77.8453 -49.3154 -49.1792 -49.0072 -22.4088 -22.3666 -20.5727 -19.8628
   -14.5852 -14.3050 -12.4055 -12.1420 -11.9876 -10.8833 -10.7039 -10.0400
    -8.7214  -8.5778  -8.1851  -7.7512  -6.4022

     occupation numbers 
     1.0000   1.0000   1.0000   1.0000   1.0000   1.0000   1.0000   1.0000
     1.0000   1.0000   1.0000   1.0000   1.0000   1.0000   1.0000   1.0000
     1.0000   1.0000   1.0000   1.0000   1.0000

          k = 0.2727 0.4629 0.0000 ( 14406 PWs)   bands (ev):

   -77.8401 -49.3251 -49.2179 -48.9998 -21.8158 -21.7824 -20.4338 -19.8325
   -14.8656 -14.5982 -13.2025 -13.0667 -11.8469 -11.0809 -10.8027 -10.0331
    -9.3754  -8.8243  -8.1427  -7.5691  -6.1907

     occupation numbers 
     1.0000   1.0000   1.0000   1.0000   1.0000   1.0000   1.0000   1.0000
     1.0000   1.0000   1.0000   1.0000   1.0000   1.0000   1.0000   1.0000
     1.0000   1.0000   1.0000   1.0000   1.0000

          k = 0.2727 0.5658 0.0000 ( 14362 PWs)   bands (ev):

   -77.8382 -49.3241 -49.2371 -48.9971 -21.5440 -21.5103 -20.4163 -19.8480
   -14.9406 -14.6730 -13.5913 -13.4890 -11.5409 -11.2564 -10.9120  -9.9145
    -9.5967  -9.1420  -8.0704  -7.4723  -6.0474

     occupation numbers 
     1.0000   1.0000   1.0000   1.0000   1.0000   1.0000   1.0000   1.0000
     1.0000   1.0000   1.0000   1.0000   1.0000   1.0000   1.0000   1.0000
     1.0000   1.0000   1.0000   1.0000   1.0000

          k = 0.2727 0.6687 0.0000 ( 14406 PWs)   bands (ev):

   -77.8401 -49.3251 -49.2179 -48.9998 -21.8157 -21.7823 -20.4339 -19.8325
   -14.8658 -14.5982 -13.2021 -13.0665 -11.8469 -11.0811 -10.8031 -10.0325
    -9.3750  -8.8247  -8.1432  -7.5691  -6.1905

     occupation numbers 
     1.0000   1.0000   1.0000   1.0000   1.0000   1.0000   1.0000   1.0000
     1.0000   1.0000   1.0000   1.0000   1.0000   1.0000   1.0000   1.0000
     1.0000   1.0000   1.0000   1.0000   1.0000

          k = 0.2727-0.3601 0.0000 ( 14388 PWs)   bands (ev):

   -77.8453 -49.3154 -49.1792 -49.0072 -22.4087 -22.3665 -20.5729 -19.8629
   -14.5855 -14.3050 -12.4052 -12.1417 -11.9875 -10.8835 -10.7040 -10.0397
    -8.7211  -8.5779  -8.1861  -7.7511  -6.4019

     occupation numbers 
     1.0000   1.0000   1.0000   1.0000   1.0000   1.0000   1.0000   1.0000
     1.0000   1.0000   1.0000   1.0000   1.0000   1.0000   1.0000   1.0000
     1.0000   1.0000   1.0000   1.0000   1.0000

          k = 0.2727-0.2572 0.0000 ( 14423 PWs)   bands (ev):

   -77.8522 -49.2864 -49.1447 -49.0168 -23.0221 -22.9706 -20.8228 -19.9646
   -14.1155 -13.7531 -12.5448 -11.2453 -10.9901 -10.8206 -10.4966  -9.4737
    -8.7231  -8.4393  -8.1313  -7.7657  -6.4440

     occupation numbers 
     1.0000   1.0000   1.0000   1.0000   1.0000   1.0000   1.0000   1.0000
     1.0000   1.0000   1.0000   1.0000   1.0000   1.0000   1.0000   1.0000
     1.0000   1.0000   1.0000   1.0000   1.0000

          k = 0.2727-0.1543 0.0000 ( 14472 PWs)   bands (ev):

   -77.8584 -49.2445 -49.1283 -49.0257 -23.4931 -23.4347 -21.0716 -20.0795
   -13.6889 -13.0062 -12.4870 -11.1600 -10.4640 -10.2408 -10.2234  -8.9643
    -8.7828  -8.5551  -8.1844  -7.7175  -6.3359

     occupation numbers 
     1.0000   1.0000   1.0000   1.0000   1.0000   1.0000   1.0000   1.0000
     1.0000   1.0000   1.0000   1.0000   1.0000   1.0000   1.0000   1.0000
     1.0000   1.0000   1.0000   1.0000   1.0000

          k = 0.2727-0.0514 0.0000 ( 14488 PWs)   bands (ev):

   -77.8622 -49.2076 -49.1305 -49.0310 -23.7443 -23.6823 -21.2214 -20.1516
   -13.5782 -12.2953 -12.0330 -11.1775 -10.5365 -10.3367  -9.9669  -8.9618
    -8.8483  -8.4064  -8.2373  -7.5735  -6.2230

     occupation numbers 
     1.0000   1.0000   1.0000   1.0000   1.0000   1.0000   1.0000   1.0000
     1.0000   1.0000   1.0000   1.0000   1.0000   1.0000   1.0000   1.0000
     1.0000   1.0000   1.0000   1.0000   1.0000

          k = 0.2727 0.0514 0.0000 ( 14488 PWs)   bands (ev):

   -77.8622 -49.2076 -49.1305 -49.0310 -23.7443 -23.6823 -21.2214 -20.1516
   -13.5781 -12.2952 -12.0329 -11.1776 -10.5366 -10.3369  -9.9670  -8.9619
    -8.8483  -8.4064  -8.2370  -7.5736  -6.2231

     occupation numbers 
     1.0000   1.0000   1.0000   1.0000   1.0000   1.0000   1.0000   1.0000
     1.0000   1.0000   1.0000   1.0000   1.0000   1.0000   1.0000   1.0000
     1.0000   1.0000   1.0000   1.0000   1.0000

          k = 0.3636 0.2057 0.0000 ( 14410 PWs)   bands (ev):

   -77.8479 -49.3211 -49.1470 -49.0111 -22.6886 -22.6423 -20.6833 -19.9126
   -14.7269 -14.4671 -12.5328 -11.3202 -10.9290 -10.5926 -10.5624  -9.4036
    -8.8857  -8.5334  -7.8134  -7.8020  -6.4636

     occupation numbers 
     1.0000   1.0000   1.0000   1.0000   1.0000   1.0000   1.0000   1.0000
     1.0000   1.0000   1.0000   1.0000   1.0000   1.0000   1.0000   1.0000
     1.0000   1.0000   1.0000   1.0000   1.0000

          k = 0.3636 0.3086 0.0000 ( 14406 PWs)   bands (ev):

   -77.8435 -49.3428 -49.1654 -49.0050 -22.2485 -22.2096 -20.5452 -19.8745
   -15.1509 -14.9145 -12.3886 -11.6433 -11.2449 -10.9886 -10.9275  -9.7065
    -8.9156  -8.3321  -8.0195  -7.7067  -6.3928

     occupation numbers 
     1.0000   1.0000   1.0000   1.0000   1.0000   1.0000   1.0000   1.0000
     1.0000   1.0000   1.0000   1.0000   1.0000   1.0000   1.0000   1.0000
     1.0000   1.0000   1.0000   1.0000   1.0000

          k = 0.3636 0.4115 0.0000 ( 14381 PWs)   bands (ev):

   -77.8396 -49.3400 -49.2055 -48.9994 -21.7989 -21.7660 -20.4441 -19.8465
   -15.2056 -14.9686 -12.6868 -12.5157 -11.7922 -11.2167 -11.0460  -9.8574
    -9.0958  -8.7272  -8.1121  -7.5869  -6.2250

     occupation numbers 
     1.0000   1.0000   1.0000   1.0000   1.0000   1.0000   1.0000   1.0000
     1.0000   1.0000   1.0000   1.0000   1.0000   1.0000   1.0000   1.0000
     1.0000   1.0000   1.0000   1.0000   1.0000

          k = 0.3636 0.5144 0.0000 ( 14384 PWs)   bands (ev):

   -77.8372 -49.3143 -49.2534 -48.9960 -21.5105 -21.4761 -20.3981 -19.8286
   -14.8653 -14.5913 -13.7036 -13.6099 -11.5345 -11.2654 -10.8982  -9.9493
    -9.6113  -9.1330  -8.0544  -7.4705  -6.0523

     occupation numbers 
     1.0000   1.0000   1.0000   1.0000   1.0000   1.0000   1.0000   1.0000
     1.0000   1.0000   1.0000   1.0000   1.0000   1.0000   1.0000   1.0000
     1.0000   1.0000   1.0000   1.0000   1.0000

          k = 0.3636 0.6172 0.0000 ( 14384 PWs)   bands (ev):

   -77.8372 -49.3143 -49.2534 -48.9960 -21.5104 -21.4761 -20.3982 -19.8287
   -14.8655 -14.5913 -13.7033 -13.6099 -11.5346 -11.2654 -10.8984  -9.9491
    -9.6108  -9.1334  -8.0546  -7.4704  -6.0522

     occupation numbers 
     1.0000   1.0000   1.0000   1.0000   1.0000   1.0000   1.0000   1.0000
     1.0000   1.0000   1.0000   1.0000   1.0000   1.0000   1.0000   1.0000
     1.0000   1.0000   1.0000   1.0000   1.0000

          k = 0.3636 0.7201 0.0000 ( 14381 PWs)   bands (ev):

   -77.8396 -49.3400 -49.2054 -48.9994 -21.7987 -21.7659 -20.4444 -19.8466
   -15.2057 -14.9685 -12.6865 -12.5155 -11.7924 -11.2168 -11.0461  -9.8569
    -9.0958  -8.7274  -8.1127  -7.5868  -6.2248

     occupation numbers 
     1.0000   1.0000   1.0000   1.0000   1.0000   1.0000   1.0000   1.0000
     1.0000   1.0000   1.0000   1.0000   1.0000   1.0000   1.0000   1.0000
     1.0000   1.0000   1.0000   1.0000   1.0000

          k = 0.3636-0.3086 0.0000 ( 14406 PWs)   bands (ev):

   -77.8435 -49.3428 -49.1654 -49.0050 -22.2483 -22.2095 -20.5455 -19.8746
   -15.1511 -14.9144 -12.3887 -11.6432 -11.2447 -10.9886 -10.9272  -9.7061
    -8.9159  -8.3325  -8.0197  -7.7069  -6.3924

     occupation numbers 
     1.0000   1.0000   1.0000   1.0000   1.0000   1.0000   1.0000   1.0000
     1.0000   1.0000   1.0000   1.0000   1.0000   1.0000   1.0000   1.0000
     1.0000   1.0000   1.0000   1.0000   1.0000

          k = 0.3636-0.2057 0.0000 ( 14410 PWs)   bands (ev):

   -77.8479 -49.3211 -49.1469 -49.0111 -22.6885 -22.6423 -20.6835 -19.9127
   -14.7271 -14.4671 -12.5329 -11.3204 -10.9287 -10.5921 -10.5622  -9.4033
    -8.8861  -8.5337  -7.8135  -7.8021  -6.4632

     occupation numbers 
     1.0000   1.0000   1.0000   1.0000   1.0000   1.0000   1.0000   1.0000
     1.0000   1.0000   1.0000   1.0000   1.0000   1.0000   1.0000   1.0000
     1.0000   1.0000   1.0000   1.0000   1.0000

          k = 0.3636-0.1029 0.0000 ( 14444 PWs)   bands (ev):

   -77.8512 -49.2866 -49.1511 -49.0158 -22.9954 -22.9441 -20.8037 -19.9489
   -14.1312 -13.7812 -12.5468 -11.2450 -10.9866 -10.7993 -10.5069  -9.4997
    -8.7109  -8.4265  -8.1028  -7.7565  -6.4716

     occupation numbers 
     1.0000   1.0000   1.0000   1.0000   1.0000   1.0000   1.0000   1.0000
     1.0000   1.0000   1.0000   1.0000   1.0000   1.0000   1.0000   1.0000
     1.0000   1.0000   1.0000   1.0000   1.0000

          k = 0.3636 0.0000 0.0000 ( 14425 PWs)   bands (ev):

   -77.8524 -49.2666 -49.1599 -49.0175 -23.1042 -23.0512 -20.8509 -19.9639
   -13.8180 -13.3354 -12.4338 -11.4726 -11.3274 -10.9138 -10.3544  -9.6265
    -8.7169  -8.3910  -8.0714  -7.7802  -6.4743

     occupation numbers 
     1.0000   1.0000   1.0000   1.0000   1.0000   1.0000   1.0000   1.0000
     1.0000   1.0000   1.0000   1.0000   1.0000   1.0000   1.0000   1.0000
     1.0000   1.0000   1.0000   1.0000   1.0000

          k = 0.3636 0.1029 0.0000 ( 14444 PWs)   bands (ev):

   -77.8512 -49.2866 -49.1511 -49.0158 -22.9955 -22.9442 -20.8036 -19.9489
   -14.1310 -13.7812 -12.5468 -11.2451 -10.9866 -10.7997 -10.5070  -9.4996
    -8.7108  -8.4262  -8.1028  -7.7566  -6.4718

     occupation numbers 
     1.0000   1.0000   1.0000   1.0000   1.0000   1.0000   1.0000   1.0000
     1.0000   1.0000   1.0000   1.0000   1.0000   1.0000   1.0000   1.0000
     1.0000   1.0000   1.0000   1.0000   1.0000

          k = 0.4545 0.2572 0.0000 ( 14370 PWs)   bands (ev):

   -77.8416 -49.3665 -49.1578 -49.0024 -22.0225 -21.9884 -20.5235 -19.9022
   -15.5899 -15.3604 -12.3579 -11.7140 -11.0956 -10.7857 -10.7491  -9.5667
    -9.0667  -8.2632  -7.8169  -7.5780  -6.4189

     occupation numbers 
     1.0000   1.0000   1.0000   1.0000   1.0000   1.0000   1.0000   1.0000
     1.0000   1.0000   1.0000   1.0000   1.0000   1.0000   1.0000   1.0000
     1.0000   1.0000   1.0000   1.0000   1.0000

          k = 0.4545 0.3601 0.0000 ( 14388 PWs)   bands (ev):

   -77.8401 -49.3651 -49.1732 -49.0003 -21.8509 -21.8187 -20.4917 -19.8952
   -15.6082 -15.3785 -12.2792 -11.8423 -11.3036 -11.2142 -11.0132  -9.6768
    -9.0916  -8.1839  -7.9546  -7.6695  -6.3363

     occupation numbers 
     1.0000   1.0000   1.0000   1.0000   1.0000   1.0000   1.0000   1.0000
     1.0000   1.0000   1.0000   1.0000   1.0000   1.0000   1.0000   1.0000
     1.0000   1.0000   1.0000   1.0000   1.0000

          k = 0.4545 0.4629 0.0000 ( 14358 PWs)   bands (ev):

   -77.8390 -49.3412 -49.2082 -48.9987 -21.7734 -21.7407 -20.4358 -19.8402
   -15.2267 -14.9916 -12.6784 -12.5106 -11.7954 -11.2323 -11.0554  -9.8812
    -9.0610  -8.7088  -8.0924  -7.5919  -6.2559

     occupation numbers 
     1.0000   1.0000   1.0000   1.0000   1.0000   1.0000   1.0000   1.0000
     1.0000   1.0000   1.0000   1.0000   1.0000   1.0000   1.0000   1.0000
     1.0000   1.0000   1.0000   1.0000   1.0000

          k = 0.4545 0.5658 0.0000 ( 14332 PWs)   bands (ev):

   -77.8386 -49.3200 -49.2335 -48.9981 -21.7585 -21.7252 -20.4064 -19.8069
   -14.8469 -14.5832 -13.2684 -13.1343 -11.8402 -11.0984 -10.8446 -10.0501
    -9.3551  -8.7999  -8.1115  -7.5734  -6.2275

     occupation numbers 
     1.0000   1.0000   1.0000   1.0000   1.0000   1.0000   1.0000   1.0000
     1.0000   1.0000   1.0000   1.0000   1.0000   1.0000   1.0000   1.0000
     1.0000   1.0000   1.0000   1.0000   1.0000

          k = 0.4545 0.6687 0.0000 ( 14358 PWs)   bands (ev):

   -77.8390 -49.3412 -49.2082 -48.9987 -21.7732 -21.7406 -20.4361 -19.8403
   -15.2268 -14.9916 -12.6781 -12.5105 -11.7956 -11.2323 -11.0553  -9.8811
    -9.0609  -8.7091  -8.0928  -7.5918  -6.2558

     occupation numbers 
     1.0000   1.0000   1.0000   1.0000   1.0000   1.0000   1.0000   1.0000
     1.0000   1.0000   1.0000   1.0000   1.0000   1.0000   1.0000   1.0000
     1.0000   1.0000   1.0000   1.0000   1.0000

          k = 0.4545 0.7715 0.0000 ( 14388 PWs)   bands (ev):

   -77.8401 -49.3651 -49.1732 -49.0003 -21.8506 -21.8186 -20.4921 -19.8954
   -15.6084 -15.3783 -12.2794 -11.8423 -11.3033 -11.2142 -11.0129  -9.6765
    -9.0918  -8.1843  -7.9549  -7.6695  -6.3360

     occupation numbers 
     1.0000   1.0000   1.0000   1.0000   1.0000   1.0000   1.0000   1.0000
     1.0000   1.0000   1.0000   1.0000   1.0000   1.0000   1.0000   1.0000
     1.0000   1.0000   1.0000   1.0000   1.0000

          k = 0.4545-0.2572 0.0000 ( 14370 PWs)   bands (ev):

   -77.8416 -49.3665 -49.1578 -49.0024 -22.0223 -21.9883 -20.5239 -19.9024
   -15.5900 -15.3602 -12.3582 -11.7141 -11.0953 -10.7853 -10.7489  -9.5663
    -9.0670  -8.2636  -7.8171  -7.5782  -6.4185

     occupation numbers 
     1.0000   1.0000   1.0000   1.0000   1.0000   1.0000   1.0000   1.0000
     1.0000   1.0000   1.0000   1.0000   1.0000   1.0000   1.0000   1.0000
     1.0000   1.0000   1.0000   1.0000   1.0000

          k = 0.4545-0.1543 0.0000 ( 14380 PWs)   bands (ev):

   -77.8430 -49.3447 -49.1674 -49.0044 -22.2259 -22.1874 -20.5354 -19.8675
   -15.1747 -14.9401 -12.3838 -11.6536 -11.2459 -10.9711 -10.9262  -9.7372
    -8.8768  -8.3199  -7.9941  -7.7013  -6.4317

     occupation numbers 
     1.0000   1.0000   1.0000   1.0000   1.0000   1.0000   1.0000   1.0000
     1.0000   1.0000   1.0000   1.0000   1.0000   1.0000   1.0000   1.0000
     1.0000   1.0000   1.0000   1.0000   1.0000

          k = 0.4545-0.0514 0.0000 ( 14386 PWs)   bands (ev):

   -77.8438 -49.3155 -49.1896 -49.0055 -22.3582 -22.3164 -20.5431 -19.8379
   -14.6098 -14.3391 -12.3998 -12.1572 -11.9870 -10.8873 -10.7419 -10.0726
    -8.6654  -8.5693  -8.1365  -7.7622  -6.4519

     occupation numbers 
     1.0000   1.0000   1.0000   1.0000   1.0000   1.0000   1.0000   1.0000
     1.0000   1.0000   1.0000   1.0000   1.0000   1.0000   1.0000   1.0000
     1.0000   1.0000   1.0000   1.0000   1.0000

          k = 0.4545 0.0514 0.0000 ( 14386 PWs)   bands (ev):

   -77.8438 -49.3155 -49.1896 -49.0055 -22.3582 -22.3164 -20.5430 -19.8379
   -14.6097 -14.3391 -12.3999 -12.1572 -11.9870 -10.8873 -10.7421 -10.0724
    -8.6655  -8.5691  -8.1363  -7.7623  -6.4519

     occupation numbers 
     1.0000   1.0000   1.0000   1.0000   1.0000   1.0000   1.0000   1.0000
     1.0000   1.0000   1.0000   1.0000   1.0000   1.0000   1.0000   1.0000
     1.0000   1.0000   1.0000   1.0000   1.0000

          k = 0.4545 0.1543 0.0000 ( 14380 PWs)   bands (ev):

   -77.8430 -49.3447 -49.1675 -49.0044 -22.2260 -22.1875 -20.5351 -19.8674
   -15.1746 -14.9402 -12.3837 -11.6536 -11.2460 -10.9714 -10.9266  -9.7371
    -8.8768  -8.3194  -7.9941  -7.7014  -6.4319

     occupation numbers 
     1.0000   1.0000   1.0000   1.0000   1.0000   1.0000   1.0000   1.0000
     1.0000   1.0000   1.0000   1.0000   1.0000   1.0000   1.0000   1.0000
     1.0000   1.0000   1.0000   1.0000   1.0000

          k =-0.4545-0.2572 0.0000 ( 14370 PWs)   bands (ev):

   -77.8416 -49.3665 -49.1578 -49.0024 -22.0225 -21.9884 -20.5235 -19.9022
   -15.5899 -15.3604 -12.3579 -11.7140 -11.0956 -10.7857 -10.7491  -9.5667
    -9.0667  -8.2632  -7.8169  -7.5780  -6.4189

     occupation numbers 
     1.0000   1.0000   1.0000   1.0000   1.0000   1.0000   1.0000   1.0000
     1.0000   1.0000   1.0000   1.0000   1.0000   1.0000   1.0000   1.0000
     1.0000   1.0000   1.0000   1.0000   1.0000

          k =-0.4545-0.1543 0.0000 ( 14380 PWs)   bands (ev):

   -77.8430 -49.3447 -49.1675 -49.0044 -22.2260 -22.1875 -20.5351 -19.8674
   -15.1746 -14.9402 -12.3837 -11.6536 -11.2460 -10.9714 -10.9266  -9.7371
    -8.8768  -8.3194  -7.9941  -7.7014  -6.4319

     occupation numbers 
     1.0000   1.0000   1.0000   1.0000   1.0000   1.0000   1.0000   1.0000
     1.0000   1.0000   1.0000   1.0000   1.0000   1.0000   1.0000   1.0000
     1.0000   1.0000   1.0000   1.0000   1.0000

          k =-0.4545-0.0514 0.0000 ( 14386 PWs)   bands (ev):

   -77.8438 -49.3155 -49.1896 -49.0055 -22.3582 -22.3164 -20.5430 -19.8379
   -14.6097 -14.3391 -12.3999 -12.1572 -11.9870 -10.8873 -10.7421 -10.0724
    -8.6655  -8.5691  -8.1363  -7.7623  -6.4519

     occupation numbers 
     1.0000   1.0000   1.0000   1.0000   1.0000   1.0000   1.0000   1.0000
     1.0000   1.0000   1.0000   1.0000   1.0000   1.0000   1.0000   1.0000
     1.0000   1.0000   1.0000   1.0000   1.0000

          k =-0.4545 0.0514 0.0000 ( 14386 PWs)   bands (ev):

   -77.8438 -49.3155 -49.1896 -49.0055 -22.3582 -22.3164 -20.5431 -19.8379
   -14.6098 -14.3391 -12.3998 -12.1572 -11.9870 -10.8873 -10.7419 -10.0726
    -8.6654  -8.5693  -8.1365  -7.7622  -6.4519

     occupation numbers 
     1.0000   1.0000   1.0000   1.0000   1.0000   1.0000   1.0000   1.0000
     1.0000   1.0000   1.0000   1.0000   1.0000   1.0000   1.0000   1.0000
     1.0000   1.0000   1.0000   1.0000   1.0000

          k =-0.4545 0.1543 0.0000 ( 14380 PWs)   bands (ev):

   -77.8430 -49.3447 -49.1674 -49.0044 -22.2259 -22.1874 -20.5354 -19.8675
   -15.1747 -14.9401 -12.3838 -11.6536 -11.2459 -10.9711 -10.9262  -9.7372
    -8.8768  -8.3199  -7.9941  -7.7013  -6.4317

     occupation numbers 
     1.0000   1.0000   1.0000   1.0000   1.0000   1.0000   1.0000   1.0000
     1.0000   1.0000   1.0000   1.0000   1.0000   1.0000   1.0000   1.0000
     1.0000   1.0000   1.0000   1.0000   1.0000

          k =-0.4545 0.2572 0.0000 ( 14370 PWs)   bands (ev):

   -77.8416 -49.3665 -49.1578 -49.0024 -22.0223 -21.9883 -20.5239 -19.9024
   -15.5900 -15.3602 -12.3582 -11.7141 -11.0953 -10.7853 -10.7489  -9.5663
    -9.0670  -8.2636  -7.8171  -7.5782  -6.4185

     occupation numbers 
     1.0000   1.0000   1.0000   1.0000   1.0000   1.0000   1.0000   1.0000
     1.0000   1.0000   1.0000   1.0000   1.0000   1.0000   1.0000   1.0000
     1.0000   1.0000   1.0000   1.0000   1.0000

          k =-0.4545-0.7715 0.0000 ( 14388 PWs)   bands (ev):

   -77.8401 -49.3651 -49.1732 -49.0003 -21.8506 -21.8186 -20.4921 -19.8954
   -15.6084 -15.3783 -12.2794 -11.8423 -11.3033 -11.2142 -11.0129  -9.6765
    -9.0918  -8.1843  -7.9549  -7.6695  -6.3360

     occupation numbers 
     1.0000   1.0000   1.0000   1.0000   1.0000   1.0000   1.0000   1.0000
     1.0000   1.0000   1.0000   1.0000   1.0000   1.0000   1.0000   1.0000
     1.0000   1.0000   1.0000   1.0000   1.0000

          k =-0.4545-0.6687 0.0000 ( 14358 PWs)   bands (ev):

   -77.8390 -49.3412 -49.2082 -48.9987 -21.7732 -21.7406 -20.4361 -19.8403
   -15.2268 -14.9916 -12.6781 -12.5105 -11.7956 -11.2323 -11.0553  -9.8811
    -9.0609  -8.7091  -8.0928  -7.5918  -6.2558

     occupation numbers 
     1.0000   1.0000   1.0000   1.0000   1.0000   1.0000   1.0000   1.0000
     1.0000   1.0000   1.0000   1.0000   1.0000   1.0000   1.0000   1.0000
     1.0000   1.0000   1.0000   1.0000   1.0000

          k =-0.4545-0.5658 0.0000 ( 14332 PWs)   bands (ev):

   -77.8386 -49.3200 -49.2335 -48.9981 -21.7585 -21.7252 -20.4064 -19.8069
   -14.8469 -14.5832 -13.2684 -13.1343 -11.8402 -11.0984 -10.8446 -10.0501
    -9.3551  -8.7999  -8.1115  -7.5734  -6.2275

     occupation numbers 
     1.0000   1.0000   1.0000   1.0000   1.0000   1.0000   1.0000   1.0000
     1.0000   1.0000   1.0000   1.0000   1.0000   1.0000   1.0000   1.0000
     1.0000   1.0000   1.0000   1.0000   1.0000

          k =-0.4545-0.4629 0.0000 ( 14358 PWs)   bands (ev):

   -77.8390 -49.3412 -49.2082 -48.9987 -21.7734 -21.7407 -20.4358 -19.8402
   -15.2267 -14.9916 -12.6784 -12.5106 -11.7954 -11.2323 -11.0554  -9.8812
    -9.0610  -8.7088  -8.0924  -7.5919  -6.2559

     occupation numbers 
     1.0000   1.0000   1.0000   1.0000   1.0000   1.0000   1.0000   1.0000
     1.0000   1.0000   1.0000   1.0000   1.0000   1.0000   1.0000   1.0000
     1.0000   1.0000   1.0000   1.0000   1.0000

          k =-0.4545-0.3601 0.0000 ( 14388 PWs)   bands (ev):

   -77.8401 -49.3651 -49.1732 -49.0003 -21.8509 -21.8187 -20.4917 -19.8952
   -15.6082 -15.3785 -12.2792 -11.8423 -11.3036 -11.2142 -11.0132  -9.6768
    -9.0916  -8.1839  -7.9546  -7.6695  -6.3363

     occupation numbers 
     1.0000   1.0000   1.0000   1.0000   1.0000   1.0000   1.0000   1.0000
     1.0000   1.0000   1.0000   1.0000   1.0000   1.0000   1.0000   1.0000
     1.0000   1.0000   1.0000   1.0000   1.0000

          k =-0.3636-0.2057 0.0000 ( 14410 PWs)   bands (ev):

   -77.8479 -49.3211 -49.1470 -49.0111 -22.6886 -22.6423 -20.6833 -19.9126
   -14.7269 -14.4671 -12.5328 -11.3202 -10.9290 -10.5926 -10.5624  -9.4036
    -8.8857  -8.5334  -7.8134  -7.8020  -6.4636

     occupation numbers 
     1.0000   1.0000   1.0000   1.0000   1.0000   1.0000   1.0000   1.0000
     1.0000   1.0000   1.0000   1.0000   1.0000   1.0000   1.0000   1.0000
     1.0000   1.0000   1.0000   1.0000   1.0000

          k =-0.3636-0.1029 0.0000 ( 14444 PWs)   bands (ev):

   -77.8512 -49.2866 -49.1511 -49.0158 -22.9955 -22.9442 -20.8036 -19.9489
   -14.1310 -13.7812 -12.5468 -11.2451 -10.9866 -10.7997 -10.5070  -9.4996
    -8.7108  -8.4262  -8.1028  -7.7566  -6.4718

     occupation numbers 
     1.0000   1.0000   1.0000   1.0000   1.0000   1.0000   1.0000   1.0000
     1.0000   1.0000   1.0000   1.0000   1.0000   1.0000   1.0000   1.0000
     1.0000   1.0000   1.0000   1.0000   1.0000

          k =-0.3636 0.0000 0.0000 ( 14425 PWs)   bands (ev):

   -77.8524 -49.2666 -49.1599 -49.0175 -23.1042 -23.0512 -20.8509 -19.9639
   -13.8180 -13.3354 -12.4338 -11.4726 -11.3274 -10.9138 -10.3544  -9.6265
    -8.7169  -8.3910  -8.0714  -7.7802  -6.4743

     occupation numbers 
     1.0000   1.0000   1.0000   1.0000   1.0000   1.0000   1.0000   1.0000
     1.0000   1.0000   1.0000   1.0000   1.0000   1.0000   1.0000   1.0000
     1.0000   1.0000   1.0000   1.0000   1.0000

          k =-0.3636 0.1029 0.0000 ( 14444 PWs)   bands (ev):

   -77.8512 -49.2866 -49.1511 -49.0158 -22.9954 -22.9441 -20.8037 -19.9489
   -14.1312 -13.7812 -12.5468 -11.2450 -10.9866 -10.7993 -10.5069  -9.4997
    -8.7109  -8.4265  -8.1028  -7.7565  -6.4716

     occupation numbers 
     1.0000   1.0000   1.0000   1.0000   1.0000   1.0000   1.0000   1.0000
     1.0000   1.0000   1.0000   1.0000   1.0000   1.0000   1.0000   1.0000
     1.0000   1.0000   1.0000   1.0000   1.0000

          k =-0.3636 0.2057 0.0000 ( 14410 PWs)   bands (ev):

   -77.8479 -49.3211 -49.1469 -49.0111 -22.6885 -22.6423 -20.6835 -19.9127
   -14.7271 -14.4671 -12.5329 -11.3204 -10.9287 -10.5921 -10.5622  -9.4033
    -8.8861  -8.5337  -7.8135  -7.8021  -6.4632

     occupation numbers 
     1.0000   1.0000   1.0000   1.0000   1.0000   1.0000   1.0000   1.0000
     1.0000   1.0000   1.0000   1.0000   1.0000   1.0000   1.0000   1.0000
     1.0000   1.0000   1.0000   1.0000   1.0000

          k =-0.3636 0.3086 0.0000 ( 14406 PWs)   bands (ev):

   -77.8435 -49.3428 -49.1654 -49.0050 -22.2483 -22.2095 -20.5455 -19.8746
   -15.1511 -14.9144 -12.3887 -11.6432 -11.2447 -10.9886 -10.9272  -9.7061
    -8.9159  -8.3325  -8.0197  -7.7069  -6.3924

     occupation numbers 
     1.0000   1.0000   1.0000   1.0000   1.0000   1.0000   1.0000   1.0000
     1.0000   1.0000   1.0000   1.0000   1.0000   1.0000   1.0000   1.0000
     1.0000   1.0000   1.0000   1.0000   1.0000

          k =-0.3636-0.7201 0.0000 ( 14381 PWs)   bands (ev):

   -77.8396 -49.3400 -49.2054 -48.9994 -21.7987 -21.7659 -20.4444 -19.8466
   -15.2057 -14.9685 -12.6865 -12.5155 -11.7924 -11.2168 -11.0461  -9.8569
    -9.0958  -8.7274  -8.1127  -7.5868  -6.2248

     occupation numbers 
     1.0000   1.0000   1.0000   1.0000   1.0000   1.0000   1.0000   1.0000
     1.0000   1.0000   1.0000   1.0000   1.0000   1.0000   1.0000   1.0000
     1.0000   1.0000   1.0000   1.0000   1.0000

          k =-0.3636-0.6172 0.0000 ( 14384 PWs)   bands (ev):

   -77.8372 -49.3143 -49.2534 -48.9960 -21.5104 -21.4761 -20.3982 -19.8287
   -14.8655 -14.5913 -13.7033 -13.6099 -11.5346 -11.2654 -10.8984  -9.9491
    -9.6108  -9.1334  -8.0546  -7.4704  -6.0522

     occupation numbers 
     1.0000   1.0000   1.0000   1.0000   1.0000   1.0000   1.0000   1.0000
     1.0000   1.0000   1.0000   1.0000   1.0000   1.0000   1.0000   1.0000
     1.0000   1.0000   1.0000   1.0000   1.0000

          k =-0.3636-0.5144 0.0000 ( 14384 PWs)   bands (ev):

   -77.8372 -49.3143 -49.2534 -48.9960 -21.5105 -21.4761 -20.3981 -19.8286
   -14.8653 -14.5913 -13.7036 -13.6099 -11.5345 -11.2654 -10.8982  -9.9493
    -9.6113  -9.1330  -8.0544  -7.4705  -6.0523

     occupation numbers 
     1.0000   1.0000   1.0000   1.0000   1.0000   1.0000   1.0000   1.0000
     1.0000   1.0000   1.0000   1.0000   1.0000   1.0000   1.0000   1.0000
     1.0000   1.0000   1.0000   1.0000   1.0000

          k =-0.3636-0.4115 0.0000 ( 14381 PWs)   bands (ev):

   -77.8396 -49.3400 -49.2055 -48.9994 -21.7989 -21.7660 -20.4441 -19.8465
   -15.2056 -14.9686 -12.6868 -12.5157 -11.7922 -11.2167 -11.0460  -9.8574
    -9.0958  -8.7272  -8.1121  -7.5869  -6.2250

     occupation numbers 
     1.0000   1.0000   1.0000   1.0000   1.0000   1.0000   1.0000   1.0000
     1.0000   1.0000   1.0000   1.0000   1.0000   1.0000   1.0000   1.0000
     1.0000   1.0000   1.0000   1.0000   1.0000

          k =-0.3636-0.3086 0.0000 ( 14406 PWs)   bands (ev):

   -77.8435 -49.3428 -49.1654 -49.0050 -22.2485 -22.2096 -20.5452 -19.8745
   -15.1509 -14.9145 -12.3886 -11.6433 -11.2449 -10.9886 -10.9275  -9.7065
    -8.9156  -8.3321  -8.0195  -7.7067  -6.3928

     occupation numbers 
     1.0000   1.0000   1.0000   1.0000   1.0000   1.0000   1.0000   1.0000
     1.0000   1.0000   1.0000   1.0000   1.0000   1.0000   1.0000   1.0000
     1.0000   1.0000   1.0000   1.0000   1.0000

          k =-0.2727-0.1543 0.0000 ( 14472 PWs)   bands (ev):

   -77.8584 -49.2445 -49.1283 -49.0257 -23.4932 -23.4348 -21.0715 -20.0795
   -13.6887 -13.0061 -12.4869 -11.1601 -10.4639 -10.2414 -10.2235  -8.9648
    -8.7825  -8.5546  -8.1844  -7.7174  -6.3363

     occupation numbers 
     1.0000   1.0000   1.0000   1.0000   1.0000   1.0000   1.0000   1.0000
     1.0000   1.0000   1.0000   1.0000   1.0000   1.0000   1.0000   1.0000
     1.0000   1.0000   1.0000   1.0000   1.0000

          k =-0.2727-0.0514 0.0000 ( 14488 PWs)   bands (ev):

   -77.8622 -49.2076 -49.1305 -49.0310 -23.7443 -23.6823 -21.2214 -20.1516
   -13.5781 -12.2952 -12.0329 -11.1776 -10.5366 -10.3369  -9.9670  -8.9619
    -8.8483  -8.4064  -8.2370  -7.5736  -6.2231

     occupation numbers 
     1.0000   1.0000   1.0000   1.0000   1.0000   1.0000   1.0000   1.0000
     1.0000   1.0000   1.0000   1.0000   1.0000   1.0000   1.0000   1.0000
     1.0000   1.0000   1.0000   1.0000   1.0000

          k =-0.2727 0.0514 0.0000 ( 14488 PWs)   bands (ev):

   -77.8622 -49.2076 -49.1305 -49.0310 -23.7443 -23.6823 -21.2214 -20.1516
   -13.5782 -12.2953 -12.0330 -11.1775 -10.5365 -10.3367  -9.9669  -8.9618
    -8.8483  -8.4064  -8.2373  -7.5735  -6.2230

     occupation numbers 
     1.0000   1.0000   1.0000   1.0000   1.0000   1.0000   1.0000   1.0000
     1.0000   1.0000   1.0000   1.0000   1.0000   1.0000   1.0000   1.0000
     1.0000   1.0000   1.0000   1.0000   1.0000

          k =-0.2727 0.1543 0.0000 ( 14472 PWs)   bands (ev):

   -77.8584 -49.2445 -49.1283 -49.0257 -23.4931 -23.4347 -21.0716 -20.0795
   -13.6889 -13.0062 -12.4870 -11.1600 -10.4640 -10.2408 -10.2234  -8.9643
    -8.7828  -8.5551  -8.1844  -7.7175  -6.3359

     occupation numbers 
     1.0000   1.0000   1.0000   1.0000   1.0000   1.0000   1.0000   1.0000
     1.0000   1.0000   1.0000   1.0000   1.0000   1.0000   1.0000   1.0000
     1.0000   1.0000   1.0000   1.0000   1.0000

          k =-0.2727 0.2572 0.0000 ( 14423 PWs)   bands (ev):

   -77.8522 -49.2864 -49.1447 -49.0168 -23.0221 -22.9706 -20.8228 -19.9646
   -14.1155 -13.7531 -12.5448 -11.2453 -10.9901 -10.8206 -10.4966  -9.4737
    -8.7231  -8.4393  -8.1313  -7.7657  -6.4440

     occupation numbers 
     1.0000   1.0000   1.0000   1.0000   1.0000   1.0000   1.0000   1.0000
     1.0000   1.0000   1.0000   1.0000   1.0000   1.0000   1.0000   1.0000
     1.0000   1.0000   1.0000   1.0000   1.0000

          k =-0.2727 0.3601 0.0000 ( 14388 PWs)   bands (ev):

   -77.8453 -49.3154 -49.1792 -49.0072 -22.4087 -22.3665 -20.5729 -19.8629
   -14.5855 -14.3050 -12.4052 -12.1417 -11.9875 -10.8835 -10.7040 -10.0397
    -8.7211  -8.5779  -8.1861  -7.7511  -6.4019

     occupation numbers 
     1.0000   1.0000   1.0000   1.0000   1.0000   1.0000   1.0000   1.0000
     1.0000   1.0000   1.0000   1.0000   1.0000   1.0000   1.0000   1.0000
     1.0000   1.0000   1.0000   1.0000   1.0000

          k =-0.2727-0.6687 0.0000 ( 14406 PWs)   bands (ev):

   -77.8401 -49.3251 -49.2179 -48.9998 -21.8157 -21.7823 -20.4339 -19.8325
   -14.8658 -14.5982 -13.2021 -13.0665 -11.8469 -11.0811 -10.8031 -10.0325
    -9.3750  -8.8247  -8.1432  -7.5691  -6.1905

     occupation numbers 
     1.0000   1.0000   1.0000   1.0000   1.0000   1.0000   1.0000   1.0000
     1.0000   1.0000   1.0000   1.0000   1.0000   1.0000   1.0000   1.0000
     1.0000   1.0000   1.0000   1.0000   1.0000

          k =-0.2727-0.5658 0.0000 ( 14362 PWs)   bands (ev):

   -77.8382 -49.3241 -49.2371 -48.9971 -21.5440 -21.5103 -20.4163 -19.8480
   -14.9406 -14.6730 -13.5913 -13.4890 -11.5409 -11.2564 -10.9120  -9.9145
    -9.5967  -9.1420  -8.0704  -7.4723  -6.0474

     occupation numbers 
     1.0000   1.0000   1.0000   1.0000   1.0000   1.0000   1.0000   1.0000
     1.0000   1.0000   1.0000   1.0000   1.0000   1.0000   1.0000   1.0000
     1.0000   1.0000   1.0000   1.0000   1.0000

          k =-0.2727-0.4629 0.0000 ( 14406 PWs)   bands (ev):

   -77.8401 -49.3251 -49.2179 -48.9998 -21.8158 -21.7824 -20.4338 -19.8325
   -14.8656 -14.5982 -13.2025 -13.0667 -11.8469 -11.0809 -10.8027 -10.0331
    -9.3754  -8.8243  -8.1427  -7.5691  -6.1907

     occupation numbers 
     1.0000   1.0000   1.0000   1.0000   1.0000   1.0000   1.0000   1.0000
     1.0000   1.0000   1.0000   1.0000   1.0000   1.0000   1.0000   1.0000
     1.0000   1.0000   1.0000   1.0000   1.0000

          k =-0.2727-0.3601 0.0000 ( 14388 PWs)   bands (ev):

   -77.8453 -49.3154 -49.1792 -49.0072 -22.4088 -22.3666 -20.5727 -19.8628
   -14.5852 -14.3050 -12.4055 -12.1420 -11.9876 -10.8833 -10.7039 -10.0400
    -8.7214  -8.5778  -8.1851  -7.7512  -6.4022

     occupation numbers 
     1.0000   1.0000   1.0000   1.0000   1.0000   1.0000   1.0000   1.0000
     1.0000   1.0000   1.0000   1.0000   1.0000   1.0000   1.0000   1.0000
     1.0000   1.0000   1.0000   1.0000   1.0000

          k =-0.2727-0.2572 0.0000 ( 14423 PWs)   bands (ev):

   -77.8522 -49.2864 -49.1448 -49.0168 -23.0222 -22.9707 -20.8226 -19.9646
   -14.1151 -13.7530 -12.5448 -11.2455 -10.9902 -10.8212 -10.4965  -9.4738
    -8.7230  -8.4389  -8.1313  -7.7654  -6.4444

     occupation numbers 
     1.0000   1.0000   1.0000   1.0000   1.0000   1.0000   1.0000   1.0000
     1.0000   1.0000   1.0000   1.0000   1.0000   1.0000   1.0000   1.0000
     1.0000   1.0000   1.0000   1.0000   1.0000

          k =-0.1818-0.1029 0.0000 ( 14491 PWs)   bands (ev):

   -77.8699 -49.1620 -49.1062 -49.0415 -24.1642 -24.0962 -21.5061 -20.3056
   -13.7488 -11.5007 -11.2465 -11.1655  -9.8214  -9.8082  -9.7506  -9.1363
    -8.5719  -8.3134  -8.1312  -7.5197  -5.9433

     occupation numbers 
     1.0000   1.0000   1.0000   1.0000   1.0000   1.0000   1.0000   1.0000
     1.0000   1.0000   1.0000   1.0000   1.0000   1.0000   1.0000   1.0000
     1.0000   1.0000   1.0000   1.0000   1.0000

          k =-0.1818 0.0000 0.0000 ( 14523 PWs)   bands (ev):

   -77.8724 -49.1319 -49.1129 -49.0451 -24.3010 -24.2311 -21.6034 -20.3568
   -13.8311 -11.4231 -10.7880 -10.7650  -9.8984  -9.8072  -9.4446  -9.1951
    -8.7089  -8.1767  -8.0871  -7.3922  -5.8227

     occupation numbers 
     1.0000   1.0000   1.0000   1.0000   1.0000   1.0000   1.0000   1.0000
     1.0000   1.0000   1.0000   1.0000   1.0000   1.0000   1.0000   1.0000
     1.0000   1.0000   1.0000   1.0000   1.0000

          k =-0.1818 0.1029 0.0000 ( 14491 PWs)   bands (ev):

   -77.8699 -49.1620 -49.1062 -49.0415 -24.1642 -24.0962 -21.5061 -20.3056
   -13.7489 -11.5007 -11.2471 -11.1655  -9.8205  -9.8083  -9.7507  -9.1363
    -8.5718  -8.3128  -8.1320  -7.5198  -5.9430

     occupation numbers 
     1.0000   1.0000   1.0000   1.0000   1.0000   1.0000   1.0000   1.0000
     1.0000   1.0000   1.0000   1.0000   1.0000   1.0000   1.0000   1.0000
     1.0000   1.0000   1.0000   1.0000   1.0000

          k =-0.1818 0.2057 0.0000 ( 14468 PWs)   bands (ev):

   -77.8632 -49.2158 -49.1151 -49.0321 -23.7665 -23.7043 -21.2407 -20.1687
   -13.5987 -12.3101 -12.0395 -11.1820 -10.5442 -10.3220  -9.9396  -8.9750
    -8.8227  -8.3841  -8.2124  -7.6009  -6.2188

     occupation numbers 
     1.0000   1.0000   1.0000   1.0000   1.0000   1.0000   1.0000   1.0000
     1.0000   1.0000   1.0000   1.0000   1.0000   1.0000   1.0000   1.0000
     1.0000   1.0000   1.0000   1.0000   1.0000

          k =-0.1818 0.3086 0.0000 ( 14412 PWs)   bands (ev):

   -77.8545 -49.2744 -49.1381 -49.0197 -23.1535 -23.1001 -20.8899 -19.9990
   -13.8581 -13.3685 -12.4488 -11.4138 -11.2628 -10.9243 -10.3240  -9.5826
    -8.7452  -8.3778  -8.0345  -7.8260  -6.4509

     occupation numbers 
     1.0000   1.0000   1.0000   1.0000   1.0000   1.0000   1.0000   1.0000
     1.0000   1.0000   1.0000   1.0000   1.0000   1.0000   1.0000   1.0000
     1.0000   1.0000   1.0000   1.0000   1.0000

          k =-0.1818 0.4115 0.0000 ( 14412 PWs)   bands (ev):

   -77.8464 -49.3236 -49.1637 -49.0084 -22.4320 -22.3900 -20.5942 -19.8866
   -14.6754 -14.4007 -12.3850 -12.0419 -11.8587 -10.8925 -10.7290 -10.0187
    -8.6883  -8.5554  -8.1544  -7.7629  -6.4195

     occupation numbers 
     1.0000   1.0000   1.0000   1.0000   1.0000   1.0000   1.0000   1.0000
     1.0000   1.0000   1.0000   1.0000   1.0000   1.0000   1.0000   1.0000
     1.0000   1.0000   1.0000   1.0000   1.0000

          k =-0.1818-0.6172 0.0000 ( 14406 PWs)   bands (ev):

   -77.8416 -49.3515 -49.1800 -49.0016 -21.8536 -21.8213 -20.4869 -19.8931
   -15.3170 -15.0773 -12.5362 -12.3412 -11.7560 -11.2427 -11.0332  -9.8494
    -9.0556  -8.6577  -8.1342  -7.5927  -6.2476

     occupation numbers 
     1.0000   1.0000   1.0000   1.0000   1.0000   1.0000   1.0000   1.0000
     1.0000   1.0000   1.0000   1.0000   1.0000   1.0000   1.0000   1.0000
     1.0000   1.0000   1.0000   1.0000   1.0000

          k =-0.1818-0.5144 0.0000 ( 14406 PWs)   bands (ev):

   -77.8416 -49.3515 -49.1800 -49.0016 -21.8537 -21.8213 -20.4868 -19.8930
   -15.3170 -15.0773 -12.5363 -12.3413 -11.7561 -11.2425 -11.0330  -9.8498
    -9.0554  -8.6577  -8.1339  -7.5927  -6.2478

     occupation numbers 
     1.0000   1.0000   1.0000   1.0000   1.0000   1.0000   1.0000   1.0000
     1.0000   1.0000   1.0000   1.0000   1.0000   1.0000   1.0000   1.0000
     1.0000   1.0000   1.0000   1.0000   1.0000

          k =-0.1818-0.4115 0.0000 ( 14412 PWs)   bands (ev):

   -77.8464 -49.3236 -49.1637 -49.0084 -22.4321 -22.3900 -20.5941 -19.8866
   -14.6752 -14.4006 -12.3851 -12.0422 -11.8589 -10.8923 -10.7287 -10.0192
    -8.6884  -8.5555  -8.1536  -7.7629  -6.4199

     occupation numbers 
     1.0000   1.0000   1.0000   1.0000   1.0000   1.0000   1.0000   1.0000
     1.0000   1.0000   1.0000   1.0000   1.0000   1.0000   1.0000   1.0000
     1.0000   1.0000   1.0000   1.0000   1.0000

          k =-0.1818-0.3086 0.0000 ( 14412 PWs)   bands (ev):

   -77.8545 -49.2744 -49.1381 -49.0197 -23.1535 -23.1001 -20.8898 -19.9990
   -13.8578 -13.3684 -12.4488 -11.4142 -11.2631 -10.9245 -10.3237  -9.5825
    -8.7452  -8.3780  -8.0346  -7.8252  -6.4513

     occupation numbers 
     1.0000   1.0000   1.0000   1.0000   1.0000   1.0000   1.0000   1.0000
     1.0000   1.0000   1.0000   1.0000   1.0000   1.0000   1.0000   1.0000
     1.0000   1.0000   1.0000   1.0000   1.0000

          k =-0.1818-0.2057 0.0000 ( 14468 PWs)   bands (ev):

   -77.8632 -49.2158 -49.1151 -49.0321 -23.7665 -23.7043 -21.2406 -20.1687
   -13.5985 -12.3099 -12.0393 -11.1821 -10.5446 -10.3225  -9.9395  -8.9750
    -8.8224  -8.3842  -8.2126  -7.6004  -6.2192

     occupation numbers 
     1.0000   1.0000   1.0000   1.0000   1.0000   1.0000   1.0000   1.0000
     1.0000   1.0000   1.0000   1.0000   1.0000   1.0000   1.0000   1.0000
     1.0000   1.0000   1.0000   1.0000   1.0000

          k =-0.0909-0.0514 0.0000 ( 14493 PWs)   bands (ev):

   -77.8786 -49.1092 -49.0785 -49.0536 -24.5953 -24.5211 -21.8257 -20.4805
   -14.0498 -11.5093  -9.9696  -9.8546  -9.4712  -9.4287  -9.3308  -9.1226
    -8.8272  -7.9106  -7.7589  -7.4122  -5.5819

     occupation numbers 
     1.0000   1.0000   1.0000   1.0000   1.0000   1.0000   1.0000   1.0000
     1.0000   1.0000   1.0000   1.0000   1.0000   1.0000   1.0000   1.0000
     1.0000   1.0000   1.0000   1.0000   1.0000

          k =-0.0909 0.0514 0.0000 ( 14493 PWs)   bands (ev):

   -77.8786 -49.1092 -49.0785 -49.0536 -24.5953 -24.5211 -21.8257 -20.4805
   -14.0498 -11.5093  -9.9700  -9.8551  -9.4707  -9.4283  -9.3307  -9.1227
    -8.8271  -7.9098  -7.7598  -7.4121  -5.5818

     occupation numbers 
     1.0000   1.0000   1.0000   1.0000   1.0000   1.0000   1.0000   1.0000
     1.0000   1.0000   1.0000   1.0000   1.0000   1.0000   1.0000   1.0000
     1.0000   1.0000   1.0000   1.0000   1.0000

          k =-0.0909 0.1543 0.0000 ( 14463 PWs)   bands (ev):

   -77.8732 -49.1558 -49.0833 -49.0459 -24.3152 -24.2452 -21.6169 -20.3691
   -13.8465 -11.4418 -10.9038 -10.8802  -9.8422  -9.6722  -9.4343  -9.2099
    -8.6101  -8.1548  -8.0592  -7.4171  -5.8317

     occupation numbers 
     1.0000   1.0000   1.0000   1.0000   1.0000   1.0000   1.0000   1.0000
     1.0000   1.0000   1.0000   1.0000   1.0000   1.0000   1.0000   1.0000
     1.0000   1.0000   1.0000   1.0000   1.0000

          k =-0.0909 0.2572 0.0000 ( 14470 PWs)   bands (ev):

   -77.8640 -49.2263 -49.0989 -49.0330 -23.7808 -23.7186 -21.2543 -20.1827
   -13.6286 -12.4259 -12.1390 -11.2036 -10.4617 -10.1656  -9.9067  -8.9895
    -8.8068  -8.3177  -8.1721  -7.6137  -6.2327

     occupation numbers 
     1.0000   1.0000   1.0000   1.0000   1.0000   1.0000   1.0000   1.0000
     1.0000   1.0000   1.0000   1.0000   1.0000   1.0000   1.0000   1.0000
     1.0000   1.0000   1.0000   1.0000   1.0000

          k =-0.0909 0.3601 0.0000 ( 14422 PWs)   bands (ev):

   -77.8540 -49.3003 -49.1179 -49.0189 -23.0592 -23.0077 -20.8571 -20.0016
   -14.2482 -13.9028 -12.5783 -11.2297 -10.9156 -10.6236 -10.4092  -9.4491
    -8.7319  -8.3613  -8.0303  -7.7919  -6.4727

     occupation numbers 
     1.0000   1.0000   1.0000   1.0000   1.0000   1.0000   1.0000   1.0000
     1.0000   1.0000   1.0000   1.0000   1.0000   1.0000   1.0000   1.0000
     1.0000   1.0000   1.0000   1.0000   1.0000

          k =-0.0909 0.4629 0.0000 ( 14407 PWs)   bands (ev):

   -77.8464 -49.3560 -49.1327 -49.0081 -22.3143 -22.2758 -20.6028 -19.9374
   -15.2868 -15.0463 -12.3940 -11.6247 -11.0998 -10.8479 -10.7872  -9.7032
    -8.8294  -8.3512  -7.9361  -7.6952  -6.4355

     occupation numbers 
     1.0000   1.0000   1.0000   1.0000   1.0000   1.0000   1.0000   1.0000
     1.0000   1.0000   1.0000   1.0000   1.0000   1.0000   1.0000   1.0000
     1.0000   1.0000   1.0000   1.0000   1.0000

          k =-0.0909-0.5658 0.0000 ( 14424 PWs)   bands (ev):

   -77.8435 -49.3766 -49.1383 -49.0040 -21.9422 -21.9107 -20.5609 -19.9700
   -15.7213 -15.4855 -12.2783 -11.8383 -11.1959 -10.9876 -10.8741  -9.6879
    -9.0056  -8.2227  -7.8901  -7.6532  -6.3662

     occupation numbers 
     1.0000   1.0000   1.0000   1.0000   1.0000   1.0000   1.0000   1.0000
     1.0000   1.0000   1.0000   1.0000   1.0000   1.0000   1.0000   1.0000
     1.0000   1.0000   1.0000   1.0000   1.0000

          k =-0.0909-0.4629 0.0000 ( 14407 PWs)   bands (ev):

   -77.8464 -49.3560 -49.1327 -49.0081 -22.3143 -22.2758 -20.6027 -19.9374
   -15.2868 -15.0463 -12.3940 -11.6247 -11.0999 -10.8477 -10.7872  -9.7036
    -8.8292  -8.3512  -7.9361  -7.6950  -6.4358

     occupation numbers 
     1.0000   1.0000   1.0000   1.0000   1.0000   1.0000   1.0000   1.0000
     1.0000   1.0000   1.0000   1.0000   1.0000   1.0000   1.0000   1.0000
     1.0000   1.0000   1.0000   1.0000   1.0000

          k =-0.0909-0.3601 0.0000 ( 14422 PWs)   bands (ev):

   -77.8540 -49.3003 -49.1179 -49.0189 -23.0592 -23.0077 -20.8571 -20.0016
   -14.2481 -13.9027 -12.5783 -11.2298 -10.9157 -10.6237 -10.4091  -9.4492
    -8.7320  -8.3613  -8.0301  -7.7915  -6.4730

     occupation numbers 
     1.0000   1.0000   1.0000   1.0000   1.0000   1.0000   1.0000   1.0000
     1.0000   1.0000   1.0000   1.0000   1.0000   1.0000   1.0000   1.0000
     1.0000   1.0000   1.0000   1.0000   1.0000

          k =-0.0909-0.2572 0.0000 ( 14470 PWs)   bands (ev):

   -77.8640 -49.2263 -49.0989 -49.0330 -23.7808 -23.7186 -21.2543 -20.1827
   -13.6286 -12.4258 -12.1389 -11.2036 -10.4618 -10.1658  -9.9066  -8.9895
    -8.8065  -8.3178  -8.1726  -7.6131  -6.2329

     occupation numbers 
     1.0000   1.0000   1.0000   1.0000   1.0000   1.0000   1.0000   1.0000
     1.0000   1.0000   1.0000   1.0000   1.0000   1.0000   1.0000   1.0000
     1.0000   1.0000   1.0000   1.0000   1.0000

          k =-0.0909-0.1543 0.0000 ( 14463 PWs)   bands (ev):

   -77.8732 -49.1558 -49.0833 -49.0459 -24.3153 -24.2452 -21.6169 -20.3691
   -13.8464 -11.4419 -10.9032 -10.8802  -9.8425  -9.6726  -9.4343  -9.2099
    -8.6102  -8.1543  -8.0600  -7.4167  -5.8319

     occupation numbers 
     1.0000   1.0000   1.0000   1.0000   1.0000   1.0000   1.0000   1.0000
     1.0000   1.0000   1.0000   1.0000   1.0000   1.0000   1.0000   1.0000
     1.0000   1.0000   1.0000   1.0000   1.0000

     highest occupied level (ev):    -5.4792

!    total energy              =    -263.34526406 Ry
     estimated scf accuracy    <          8.5E-11 Ry

     The total energy is the sum of the following terms:
     one-electron contribution =   -6716.70353858 Ry
     hartree contribution      =    3354.83845168 Ry
     xc contribution           =     -44.81119669 Ry
     ewald contribution        =    3143.33101953 Ry

     convergence has been achieved in  26 iterations

     Writing all to output data dir ./tmp/crsi2n4.save/ :
     XML data file, charge density, pseudopotentials, collected wavefunctions
 
     init_run     :      6.96s CPU      7.18s WALL (       1 calls)
     electrons    :    379.17s CPU    379.75s WALL (       1 calls)

     Called by init_run:
     wfcinit      :      5.72s CPU      5.90s WALL (       1 calls)
     wfcinit:atom :      0.08s CPU      0.09s WALL (     121 calls)
     wfcinit:wfcr :      5.44s CPU      5.48s WALL (     121 calls)
     potinit      :      0.90s CPU      0.92s WALL (       1 calls)
     hinit0       :      0.17s CPU      0.18s WALL (       1 calls)

     Called by electrons:
     c_bands      :    348.05s CPU    348.56s WALL (      26 calls)
     sum_band     :     29.90s CPU     29.92s WALL (      26 calls)
     v_of_rho     :      0.40s CPU      0.43s WALL (      27 calls)
     v_h          :      0.10s CPU      0.10s WALL (      27 calls)
     v_xc         :      0.30s CPU      0.33s WALL (      27 calls)
     mix_rho      :      0.52s CPU      0.55s WALL (      26 calls)

     Called by c_bands:
     init_us_2    :      4.70s CPU      4.73s WALL (    6413 calls)
     cegterg      :    333.40s CPU    333.86s WALL (    3146 calls)

     Called by sum_band:
     sum_band:wei :      0.00s CPU      0.00s WALL (      26 calls)
     sum_band:loo :     29.80s CPU     29.82s WALL (      26 calls)
     sum_band:buf :      3.67s CPU      3.68s WALL (    3146 calls)
     sum_band:ini :      2.36s CPU      2.37s WALL (    3146 calls)

     Called by *egterg:
     cdiaghg      :     36.78s CPU     36.91s WALL (   16677 calls)
                                       36.85s GPU  (   16677 calls)
     cegterg:over :     75.37s CPU     75.41s WALL (   13531 calls)
     cegterg:upda :     15.55s CPU     15.56s WALL (   13531 calls)
     cegterg:last :     14.11s CPU     14.11s WALL (    6965 calls)
     h_psi        :    184.54s CPU    185.04s WALL (   16798 calls)
                                      184.89s GPU  (   16798 calls)
     g_psi        :      0.05s CPU      1.45s WALL (   13531 calls)
                                        1.40s GPU  (   13531 calls)

     Called by h_psi:
     h_psi:calbec :      0.46s CPU     32.65s WALL (   16798 calls)
                                       32.59s GPU  (   16798 calls)
     vloc_psi     :    124.33s CPU    124.77s WALL (   16798 calls)
                                      124.72s GPU  (   16798 calls)
     add_vuspsi   :      3.19s CPU     26.70s WALL (   16798 calls)
                                       26.63s GPU  (   16798 calls)

     General routines
     calbec       :      0.43s CPU      0.46s WALL (   16798 calls)
     fft          :      0.53s CPU      0.67s WALL (     321 calls)
                                        0.15s GPU  (     294 calls)
     ffts         :      0.47s CPU      0.48s WALL (      53 calls)
                                        0.01s GPU  (      26 calls)
     fftw         :      0.53s CPU    129.13s WALL (   53394 calls)
                                      128.93s GPU  (   53394 calls)
     interpolate  :      1.05s CPU      1.05s WALL (      27 calls)
 
     Parallel routines
 
     PWSCF        :   6m26.42s CPU   6m27.46s WALL

 
   This run was terminated on:  12:49:36  28Apr2026            

=------------------------------------------------------------------------------=
   JOB DONE.
=------------------------------------------------------------------------------=
